ITEM: TIMESTEP
601000
ITEM: NUMBER OF ATOMS
5541
ITEM: BOX BOUNDS pp pp pp
-19.1 19.1
-19.1 19.1
-19.1 19.1
ITEM: ATOMS id type xu yu zu
1 1 2.775901 -386.774657 -469.603903
2 1 18.285976 -398.446560 -460.756967
3 1 1.441267 -406.531529 -490.278653
4 1 9.486796 -393.316543 -482.935642
5 1 6.221788 -371.704748 -483.273641
6 1 30.703095 -392.465073 -478.500881
7 1 17.881139 -396.000282 -472.368968
8 1 32.070006 -392.122824 -490.913946
9 1 17.421912 -385.083332 -478.059811
10 1 20.757357 -369.128595 -495.504144
11 1 -7.498928 -423.878309 -480.906949
12 1 0.939447 -397.790738 -469.415032
13 1 11.080414 -392.199880 -477.781855
14 1 15.236946 -373.102752 -501.415117
15 1 32.983271 -380.477042 -474.350351
16 1 36.323315 -386.516944 -508.267312
17 1 -6.268316 -411.897394 -492.572350
18 1 7.499950 -388.792174 -483.011516
19 1 13.370429 -383.578807 -485.312556
20 1 6.169966 -417.836735 -504.671920
21 1 -4.920216 -363.730405 -478.882795
22 1 17.941689 -386.118014 -498.102258
23 1 35.905964 -419.518603 -480.426909
24 1 14.466287 -388.428548 -514.182270
25 1 -0.929236 -405.389474 -503.563931
26 1 22.793306 -409.973323 -489.026298
27 1 1.746763 -419.843792 -513.234110
28 1 -2.996747 -402.206093 -485.250632
29 1 0.359456 -380.385026 -524.975089
30 1 6.513457 -386.055889 -515.967622
31 1 35.204127 -417.792247 -538.578769
32 1 17.179904 -358.738352 -492.073305
33 1 5.222213 -394.012169 -498.594402
34 1 9.167740 -390.180051 -515.289927
35 1 14.508791 -403.003314 -495.174080
36 1 -14.673506 -381.712269 -493.577932
37 1 15.086337 -430.752288 -471.321759
38 1 5.301764 -412.361551 -481.401603
39 1 36.676564 -420.805888 -483.015243
40 1 0.582285 -417.620591 -507.960164
41 1 14.150997 -414.425076 -509.377441
42 1 7.099790 -396.452335 -476.193014
43 1 7.324779 -399.604974 -496.741222
44 1 20.855462 -402.914186 -467.929077
45 1 6.759120 -408.540927 -510.553517
46 1 16.318763 -407.093297 -503.318301
47 1 3.758913 -394.676475 -496.508988
48 1 17.805175 -423.753300 -484.467135
49 1 27.580627 -413.115653 -467.265554
50 1 28.904842 -370.086252 -505.478039
51 1 27.894681 -417.668302 -467.080667
52 1 19.195394 -390.742427 -488.014811
53 1 9.751859 -402.566312 -486.474092
54 1 18.007144 -391.625644 -479.173041
55 1 40.735437 -413.572906 -456.715154
56 1 32.595434 -386.828115 -482.307620
57 1 10.254673 -393.452317 -501.524720
58 1 23.972991 -407.969276 -500.911200
59 1 10.272509 -397.422217 -487.893768
60 1 14.567130 -384.777939 -488.568880
61 1 87.130528 -424.015543 -475.343127
62 1 87.586003 -408.617891 -475.749361
63 1 79.986415 -387.406273 -465.255755
64 1 64.220140 -400.487674 -444.164624
65 1 91.642561 -395.813026 -469.318935
66 1 73.198596 -435.937709 -482.349763
67 1 92.579326 -384.018090 -451.711637
68 1 90.889890 -389.040125 -413.854274
69 1 74.607815 -413.338760 -488.069059
70 1 71.558251 -395.418931 -442.057695
71 1 81.802368 -415.849657 -458.951613
72 1 99.126626 -380.735333 -459.640194
73 1 110.572148 -376.591739 -453.403032
74 1 90.091227 -402.896276 -458.994790
75 1 76.328889 -370.573793 -459.217724
76 1 97.617426 -368.002839 -443.035710
77 1 82.894597 -384.352827 -440.699132
78 1 81.942105 -377.890611 -435.806805
79 1 66.399895 -413.373365 -453.806055
80 1 72.323709 -399.172747 -467.055684
81 1 89.702579 -398.000375 -443.824116
82 1 62.135462 -402.708989 -494.037712
83 1 73.588323 -381.460942 -415.384217
84 1 79.115090 -398.986190 -478.480289
85 1 86.235902 -403.919859 -456.673859
86 1 69.566097 -370.881284 -463.831319
87 1 78.285800 -421.910905 -454.410865
88 1 85.588624 -397.490575 -461.964410
89 1 91.855841 -387.915799 -485.359830
90 1 88.030829 -381.478092 -455.294260
91 1 89.111620 -381.432631 -443.558042
92 1 85.780920 -395.939069 -513.675143
93 1 95.386035 -400.042949 -489.244323
94 1 76.920496 -400.611923 -465.890642
95 1 81.120549 -375.189175 -451.370833
96 1 112.902145 -409.486725 -435.975970
97 1 66.340210 -386.310987 -456.144294
98 1 74.713484 -395.276466 -445.505695
99 1 79.757728 -401.445970 -461.259739
100 1 78.238687 -392.126747 -439.723737
101 1 94.055094 -395.750232 -451.736067
102 1 85.719695 -386.334949 -473.505114
103 1 86.219448 -383.885903 -452.659723
104 1 78.791549 -363.209689 -460.792726
105 1 94.084988 -401.772193 -470.035600
106 1 86.282732 -403.743945 -453.162902
107 1 106.485141 -371.271365 -449.559797
108 1 94.163191 -356.256070 -453.449789
109 1 56.009700 -386.783992 -445.165076
110 1 105.794385 -402.253226 -477.722366
111 1 79.431599 -379.308471 -440.561851
112 1 78.705674 -408.896586 -434.291845
113 1 78.867694 -408.140325 -492.680256
114 1 67.747937 -359.181648 -450.287053
115 1 97.067885 -410.425772 -472.945547
116 1 78.174880 -381.764328 -434.485588
117 1 68.153181 -391.509119 -443.003678
118 1 77.106574 -380.462902 -456.211791
119 1 57.987606 -382.205860 -464.435281
120 1 77.580778 -415.423177 -438.155931
121 1 36.218003 -374.215523 -448.852284
122 1 43.942600 -360.375732 -448.318512
123 1 37.771015 -364.686025 -488.597221
124 1 16.237737 -357.469372 -440.547865
125 1 44.424890 -373.022686 -431.793149
126 1 23.854533 -327.460251 -486.716474
127 1 44.392219 -367.861713 -469.847060
128 1 16.896784 -349.380055 -472.798266
129 1 53.534404 -398.119363 -482.706989
130 1 41.633971 -396.327113 -466.416922
131 1 41.998886 -359.891324 -435.406624
132 1 33.251486 -385.379086 -454.615680
133 1 43.759099 -360.857130 -475.567685
134 1 43.542200 -371.537927 -481.502386
135 1 30.049585 -349.991176 -465.554082
136 1 45.392984 -364.400367 -447.373120
137 1 27.753781 -383.483507 -481.286649
138 1 37.079122 -356.884403 -478.326882
139 1 46.961730 -359.816093 -486.411910
140 1 42.918655 -376.195425 -486.685844
141 1 49.380678 -372.047422 -468.669139
142 1 44.854422 -386.729196 -486.419069
143 1 35.511628 -363.130383 -462.773371
144 1 45.843126 -371.365814 -498.293565
145 1 37.796839 -356.658041 -473.272512
146 1 54.107569 -382.319315 -474.866261
147 1 47.922736 -351.443246 -504.860792
148 1 44.089546 -342.524990 -486.915716
149 1 41.384211 -352.102716 -473.884260
150 1 40.889544 -339.960697 -436.473355
151 1 36.065818 -370.129493 -455.917338
152 1 42.133538 -381.699649 -515.435179
153 1 21.831446 -371.076021 -469.198741
154 1 26.020149 -347.246042 -460.723274
155 1 55.142759 -380.246849 -474.411057
156 1 47.956106 -361.596514 -454.717828
157 1 35.763715 -387.903271 -476.936581
158 1 20.074004 -349.565304 -463.974246
159 1 34.277206 -400.129583 -465.652246
160 1 36.689657 -360.645851 -446.429905
161 1 32.195347 -363.003671 -474.795370
162 1 28.963220 -383.911629 -476.446946
163 1 19.955631 -353.144575 -464.668806
164 1 30.179057 -386.996670 -469.914926
165 1 65.149008 -355.699016 -459.258502
166 1 56.706960 -378.533235 -446.347647
167 1 38.819223 -382.734726 -496.944301
168 1 42.395054 -388.814098 -453.412886
169 1 48.344341 -380.668586 -456.878599
170 1 39.618483 -372.810708 -466.686723
171 1 39.220949 -359.186575 -485.617969
172 1 30.052699 -361.867637 -469.462342
173 1 53.349962 -370.137186 -491.321840
174 1 27.214678 -374.636925 -456.433765
175 1 58.960779 -370.671526 -426.828012
176 1 57.901681 -359.995442 -466.039289
177 1 47.024727 -362.626270 -480.489756
178 1 34.344178 -352.802995 -473.086150
179 1 31.123293 -353.412839 -470.241521
180 1 42.821534 -377.260850 -464.356824
181 2 -52.919707 -2.450030 88.849044
182 3 -67.764130 8.320936 92.233510
183 3 -40.817767 -9.993390 59.809077
184 2 -72.856509 -61.202413 75.153631
185 3 -80.441714 -76.639315 62.918432
186 3 -69.782536 -62.463532 77.240230
187 2 -95.296447 108.045503 36.326829
188 3 -89.651217 82.281707 36.454975
189 3 -76.850733 99.933851 58.812670
190 2 -0.845791 137.758384 -121.286798
191 3 23.455857 103.936044 -119.015391
192 3 9.883718 101.771288 -121.717009
193 2 -74.637540 -2.086900 25.510271
194 3 -74.697076 -34.554427 72.072793
195 3 -74.249834 -34.605353 56.318753
196 2 -102.081542 -58.374431 -99.960970
197 3 -97.666003 -64.378595 -83.840844
198 3 -101.480827 -71.835483 -69.479416
199 2 -8.510537 17.543067 15.994693
200 3 -22.689240 24.472684 34.323408
201 3 -30.168717 1.499629 15.787836
202 2 43.458794 12.713310 35.161485
203 3 63.178611 4.631032 52.909991
204 3 54.725455 5.824122 35.896181
205 2 -39.564998 35.948262 -62.957949
206 3 -25.992827 39.597189 -42.557355
207 3 -40.941536 44.741920 -30.198174
208 2 55.592445 48.160744 12.037779
209 3 54.949646 58.845896 5.818994
210 3 68.300014 42.972871 -5.757836
211 2 77.692856 -17.252719 -1.132771
212 3 51.318873 -51.934869 2.340958
213 3 65.752733 -44.944784 13.392938
214 2 191.701929 108.014464 23.491111
215 3 183.526190 82.859843 37.175046
216 3 193.646366 98.786490 23.591758
217 2 110.588688 29.024444 84.873551
218 3 122.577982 5.732478 94.923840
219 3 132.495644 29.154585 79.665280
220 2 -88.715272 3.938564 -18.811183
221 3 -74.310197 -3.249298 -28.783352
222 3 -92.714148 -24.682388 -27.599498
223 2 -70.905411 -104.556265 -46.928808
224 3 -79.340791 -103.604036 -49.304223
225 3 -85.266343 -128.068869 -33.460139
226 2 -14.860404 -43.296198 72.097057
227 3 27.972587 -58.617038 96.787737
228 3 3.314343 -31.589812 89.101930
229 2 49.168917 -17.698114 -0.340355
230 3 43.987102 -2.324745 -7.794519
231 3 52.009071 8.052881 -33.513557
232 2 25.341652 115.855397 48.271959
233 3 12.190124 116.210622 5.653328
234 3 37.837753 148.468502 -17.355277
235 2 -38.453210 60.451818 17.125258
236 3 -37.712032 59.987635 22.786419
237 3 -52.588031 43.087397 28.221419
238 2 -52.539698 31.531427 14.124570
239 3 -60.071998 19.240509 -12.946549
240 3 -42.880821 28.614674 26.556949
241 2 -42.552548 -94.366727 -49.072230
242 3 -55.063460 -93.434643 -44.354013
243 3 -51.230431 -106.263159 -64.366314
244 2 -4.090583 -21.662368 -23.713547
245 3 -14.902001 -43.230504 -30.590324
246 3 -31.362504 -46.802222 -56.816962
247 2 50.553957 36.675616 -21.455135
248 3 50.580989 38.320320 -43.522556
249 3 37.341125 36.848825 -70.902772
250 2 193.461723 -71.835171 -58.363064
251 3 180.276892 -59.714772 -115.341422
252 3 195.503899 -69.029540 -49.369999
253 2 -41.054163 -127.582271 -80.262473
254 3 -59.960036 -85.540777 -62.716306
255 3 -31.454838 -119.483725 -63.380254
256 2 -34.533141 12.695755 83.675675
257 3 -13.239129 27.719803 60.677493
258 3 -31.694559 1.948845 76.335007
259 2 -81.586399 116.727674 -21.541415
260 3 -114.144380 109.481449 0.496401
261 3 -78.053030 110.668280 -33.372198
262 2 120.497839 100.399185 -131.602178
263 3 102.746861 91.345825 -114.983099
264 3 117.407467 104.706696 -121.938651
265 2 -100.400185 -10.435869 -136.905997
266 3 -132.482496 -19.409474 -116.641245
267 3 -129.729827 -3.100315 -99.745057
268 2 -179.254328 147.447671 22.262159
269 3 -200.988166 152.898377 -19.878942
270 3 -186.488834 146.168809 24.806874
271 2 -77.233502 -24.653564 42.533925
272 3 -79.127430 -26.661632 80.986055
273 3 -86.839276 -7.159635 64.974014
274 2 -34.551000 -64.684916 -28.734754
275 3 -41.239490 -74.572984 -18.533895
276 3 -5.264745 -52.593390 -31.767318
277 2 -25.336822 23.652545 -127.483117
278 3 -34.875699 39.451325 -118.473584
279 3 -29.251437 43.248732 -101.599677
280 2 -101.418561 203.944191 -6.506543
281 3 -88.977119 219.042942 -25.330628
282 3 -84.914165 214.614527 6.637963
283 2 7.820643 14.676963 -74.500277
284 3 9.817283 32.134041 -82.504588
285 3 10.280014 10.818604 -60.233276
286 2 -63.191661 -44.004649 100.902863
287 3 -38.977330 -60.234561 115.606939
288 3 -47.423993 -29.996791 105.289040
289 2 33.281217 -27.061957 93.561790
290 3 55.958042 -16.230957 104.943274
291 3 36.172475 11.766592 39.956506
292 2 80.230489 -26.648085 94.775161
293 3 69.717089 -28.538206 116.040583
294 3 86.578461 -36.095468 85.722460
295 2 88.900213 84.137390 -164.876189
296 3 64.302078 34.736591 -137.608657
297 3 84.747008 77.129618 -179.228345
298 2 -53.896073 78.804697 48.594055
299 3 -55.090729 85.906340 53.643726
300 3 -56.118663 87.107410 58.327205
301 2 -133.177843 -6.117195 -16.793323
302 3 -133.297927 13.147566 -15.597748
303 3 -136.639775 -1.138147 -1.174043
304 2 -77.661609 -39.378324 -20.342330
305 3 -82.910734 -59.709633 -26.831727
306 3 -110.491434 -36.803076 -28.212432
307 2 -79.358527 77.694985 58.016727
308 3 -73.834576 69.768110 41.444287
309 3 -65.438698 89.401957 52.734243
310 2 -15.953091 43.939373 -11.918398
311 3 10.133700 41.963896 -42.996100
312 3 -25.639053 8.884738 -44.027921
313 2 -9.681603 -53.746361 22.740522
314 3 -12.140396 -41.553331 5.266149
315 3 2.761505 -46.716797 19.198515
316 2 82.273749 -91.649896 44.568627
317 3 70.276012 -83.699317 12.437388
318 3 74.545893 -83.722869 11.855294
319 2 -8.233333 23.927752 37.734043
320 3 -18.745698 46.996776 32.377463
321 3 -6.596938 18.941773 17.229899
322 2 -9.448144 -36.059449 24.605322
323 3 -16.814803 -59.606761 -0.514509
324 3 -22.797377 -45.780076 41.887472
325 2 -46.120629 28.043259 30.581970
326 3 -40.625976 16.447307 40.336858
327 3 -41.494996 3.272007 74.509468
328 2 -43.065045 47.116943 -112.371313
329 3 -65.003479 70.440759 -85.614580
330 3 -46.105235 62.277921 -111.549335
331 2 -9.098542 -46.973848 -85.010360
332 3 -8.492832 -84.170779 -108.882821
333 3 -28.619790 -70.717672 -100.429718
334 2 37.710941 76.662599 -18.893177
335 3 42.865824 80.091405 -21.804555
336 3 85.182751 74.740143 -32.181320
337 2 -194.015372 108.808812 -1.615468
338 3 -171.467127 92.455730 3.204068
339 3 -176.384656 112.564696 20.558423
340 2 -82.470955 73.630534 98.406935
341 3 -71.988962 74.102304 122.740016
342 3 -88.407476 66.650814 149.426789
343 2 26.711102 29.120841 27.988468
344 3 27.386288 22.749194 22.654420
345 3 17.767273 44.464727 17.100508
346 2 41.966645 29.463919 24.343337
347 3 38.037261 41.841611 39.458383
348 3 33.765619 27.841312 27.431172
349 2 59.491928 -88.305752 25.947167
350 3 74.569490 -90.559460 30.085477
351 3 83.238006 -73.274173 21.936527
352 2 142.959974 -7.389132 -20.053173
353 3 139.524197 8.394366 -15.042367
354 3 151.495287 20.860031 -1.560475
355 2 -68.394387 115.030215 96.030819
356 3 -72.878257 95.851462 84.185113
357 3 -71.550600 115.440776 101.582624
358 2 66.327044 -51.460199 -41.706127
359 3 65.612886 -56.522268 -75.745003
360 3 48.837997 -61.184380 -59.148729
361 2 26.778452 82.006012 7.061763
362 3 22.352349 62.479363 10.628458
363 3 19.923476 74.157078 13.837085
364 2 -36.490316 100.733976 127.461793
365 3 -38.104895 99.130829 93.119635
366 3 -57.544625 82.904007 94.409955
367 2 105.142219 59.737270 -10.156420
368 3 93.005449 66.339769 -27.488405
369 3 84.062551 68.023012 -33.981857
370 2 176.555294 -47.458135 55.942410
371 3 160.998615 -25.012123 51.512199
372 3 175.299647 -45.995878 24.725521
373 2 132.129538 36.908722 -4.017867
374 3 102.422094 58.638852 -3.460532
375 3 131.192471 27.284801 -6.295782
376 2 -109.189875 153.609071 -6.948125
377 3 -119.743982 144.215484 -22.521446
378 3 -119.593012 138.811744 -30.320200
379 2 14.973872 -12.483919 -1.558955
380 3 9.048492 4.894106 14.662639
381 3 -5.223042 28.247173 -15.781719
382 2 33.344417 29.976670 32.275477
383 3 49.873899 19.095067 48.448743
384 3 50.101985 28.962524 37.094355
385 2 29.504855 97.034713 8.528210
386 3 26.115555 120.179457 16.066697
387 3 13.362037 69.370435 26.534936
388 2 -85.899818 10.026015 76.199401
389 3 -82.183502 22.147522 88.112913
390 3 -79.175628 9.400471 62.088330
391 2 -8.285366 5.398641 -36.939922
392 3 1.641154 23.988008 -53.549849
393 3 28.443628 17.024832 -49.740491
394 2 -12.583835 164.531068 22.464265
395 3 -52.454815 160.914987 27.881232
396 3 -29.107437 159.585388 52.477877
397 2 59.945841 157.028742 -73.071689
398 3 73.207970 161.026739 -69.098268
399 3 73.312160 122.666262 -66.639123
400 2 -4.687422 83.895118 127.963652
401 3 7.467814 86.737422 114.404644
402 3 6.030999 92.588676 139.567074
403 2 -42.338361 23.324180 34.057813
404 3 -62.149226 45.098852 9.049358
405 3 -59.986270 36.830135 15.365404
406 2 88.859343 54.976558 -45.020019
407 3 66.948711 50.283214 -47.306082
408 3 58.677748 77.487493 -52.515893
409 2 33.225769 29.084140 -35.818016
410 3 48.507357 9.603138 -38.891611
411 3 56.448354 15.893622 -48.033195
412 2 96.225358 -21.703621 -113.672750
413 3 96.688906 -0.727934 -94.060340
414 3 82.422686 -8.651466 -113.639906
415 2 -182.574509 -30.864777 43.172484
416 3 -150.367639 -16.496838 54.353096
417 3 -158.987095 -41.128637 59.403503
418 2 -124.158782 152.131853 27.048333
419 3 -106.480836 159.039220 12.299784
420 3 -115.259077 151.852048 37.660286
421 2 -69.990294 146.335812 24.862616
422 3 -71.104653 135.109486 33.115096
423 3 -44.689127 139.020940 54.696692
424 2 69.966057 -54.909033 79.014677
425 3 79.569024 -66.757511 82.299370
426 3 74.082555 -54.607638 67.212992
427 2 -159.690441 189.886097 71.504738
428 3 -157.550712 179.489909 70.865086
429 3 -165.281970 189.712084 70.950209
430 2 70.946222 19.731808 3.465399
431 3 85.195131 25.915899 26.734234
432 3 70.394195 22.305831 1.849058
433 2 85.206890 -30.726326 47.028719
434 3 66.837209 -44.892336 54.348363
435 3 65.526052 -20.397957 55.983670
436 2 -69.035941 102.315792 114.197265
437 3 -73.759165 99.995481 119.006144
438 3 -73.608164 95.607183 94.658657
439 2 -9.250054 43.944917 -133.630050
440 3 -30.950250 40.385163 -141.437445
441 3 -27.667353 22.237570 -129.136844
442 2 -35.435543 93.887730 47.211343
443 3 -12.377950 119.955262 55.247363
444 3 -15.066437 96.784686 64.329583
445 2 52.737563 86.305514 8.796295
446 3 52.507385 71.573619 -4.614572
447 3 52.980485 78.140889 10.368366
448 2 45.176835 116.083978 -154.022166
449 3 61.485635 136.068968 -150.395646
450 3 75.174789 140.064737 -145.799654
451 2 79.903368 112.861932 -17.744744
452 3 91.883073 143.428959 -23.662510
453 3 102.715901 132.037856 -30.373941
454 2 -29.206839 -32.088087 -24.362974
455 3 -20.958601 -24.043766 -49.628849
456 3 -15.451261 -22.263637 -49.442376
457 2 84.933377 132.979799 -22.366128
458 3 103.311962 144.126904 14.583806
459 3 89.513844 111.252300 34.246835
460 2 -134.083604 62.807772 -83.862774
461 3 -132.035439 66.347941 -107.560773
462 3 -140.083182 67.327059 -85.783146
463 2 -108.077964 91.805975 122.756410
464 3 -97.090394 96.992825 88.663185
465 3 -117.711359 85.119587 121.637571
466 2 -6.406360 -82.652936 -92.958781
467 3 -21.715105 -91.656966 -49.482873
468 3 -16.362144 -103.529368 -61.968559
469 2 -0.385738 7.581561 -1.927872
470 3 -2.543081 15.658536 4.053440
471 3 -3.507891 5.449627 -1.437317
472 2 -44.318979 71.268792 61.213267
473 3 -22.675688 85.564335 49.792499
474 3 -70.205584 25.220228 47.941369
475 2 16.859994 16.051478 112.648630
476 3 21.477556 19.371013 116.687998
477 3 38.589951 50.626753 119.880202
478 2 -7.777072 138.194800 14.558728
479 3 -10.760443 111.984386 30.962374
480 3 2.925462 150.353104 0.113440
481 2 -19.671093 75.561022 44.370670
482 3 -7.779472 55.391232 22.533386
483 3 -4.222976 47.364431 55.505321
484 2 15.839074 85.688288 -85.725207
485 3 18.739383 92.248777 -65.912412
486 3 5.495470 106.329039 -79.055482
487 2 22.881643 72.559431 -58.902454
488 3 9.740092 84.134114 -75.936430
489 3 -0.548362 86.105007 -64.293937
490 2 104.904640 105.415482 -31.955816
491 3 97.797558 117.285056 -3.230649
492 3 124.925907 98.540887 -46.047568
493 2 66.982464 60.558727 -22.669567
494 3 111.846634 46.040377 6.705510
495 3 93.320991 64.566006 -3.561412
496 2 -183.338617 54.394888 3.484443
497 3 -175.521158 55.190653 -13.777419
498 3 -194.893857 75.830936 39.738365
499 2 -146.659636 98.664453 71.486766
500 3 -148.840396 95.196933 65.126384
501 3 -132.752380 99.687632 26.720922
502 2 53.185218 11.335421 119.230830
503 3 40.707972 29.555399 110.550918
504 3 62.538312 13.031676 76.241600
505 2 28.384275 -67.853367 -12.361371
506 3 23.141794 -47.943616 -35.647799
507 3 8.746696 -31.517094 -65.523588
508 2 59.885654 136.863422 -21.945964
509 3 55.564590 124.552475 -0.789931
510 3 75.257022 103.060855 -19.739064
511 2 -39.036576 112.358252 116.523944
512 3 -49.356487 103.782853 113.927703
513 3 -54.904238 105.494673 130.453943
514 2 -86.101790 123.982429 2.480299
515 3 -100.264103 153.655930 2.813940
516 3 -72.806044 134.860949 -7.254548
517 2 130.527740 93.385214 135.982568
518 3 111.329477 116.720224 141.889823
519 3 126.237757 107.170246 131.584323
520 2 82.589192 43.527453 46.915741
521 3 66.354541 30.161121 23.380432
522 3 58.638422 26.987697 41.204147
523 2 -25.700617 -17.396905 9.821227
524 3 -8.952939 -4.499761 56.592111
525 3 -32.956735 -21.587138 36.313293
526 2 13.063087 15.487030 79.924402
527 3 31.517597 4.197504 83.207905
528 3 8.134542 32.405131 37.206552
529 2 47.618394 57.062886 -22.440041
530 3 36.179901 69.499546 14.625783
531 3 67.827453 71.205010 -10.831527
532 2 -5.891340 232.127642 -52.066889
533 3 -7.084387 198.886668 -81.081508
534 3 -21.074925 208.516818 -36.756969
535 2 44.283190 150.967782 -123.215723
536 3 61.973919 173.680641 -142.407747
537 3 47.906007 144.700356 -97.878047
538 2 26.523676 52.733584 21.091439
539 3 -1.011946 15.104022 41.763670
540 3 6.663893 14.713096 27.258860
541 2 30.171656 78.278123 115.617632
542 3 11.498420 97.041388 93.450193
543 3 1.571952 78.464090 82.803586
544 2 -51.497757 168.967465 39.684571
545 3 -49.403323 158.505352 38.713451
546 3 -31.499895 129.136742 31.798554
547 2 -57.111902 -59.888656 14.712706
548 3 -58.612290 -61.761277 24.725359
549 3 -80.552567 -62.396283 16.540460
550 2 116.208706 125.196407 -53.035858
551 3 90.078372 127.647953 0.320546
552 3 106.885535 123.158562 -24.646466
553 2 -5.791763 5.841601 68.180116
554 3 5.720955 29.193178 10.696977
555 3 -20.556197 5.610786 10.449014
556 2 7.018825 129.661738 -39.088293
557 3 -18.371605 129.291917 -69.867649
558 3 -2.510649 122.644649 -34.545742
559 2 -21.121394 78.284007 -71.505369
560 3 1.145615 86.920474 -30.513588
561 3 11.069601 100.155841 -56.930583
562 2 -24.386142 146.108197 34.088472
563 3 -28.814848 103.704703 16.252037
564 3 -36.140664 135.496412 35.681409
565 2 1.018541 219.986215 -0.835228
566 3 11.004419 228.514982 -2.008552
567 3 20.792681 206.236662 18.948690
568 2 -10.509562 115.738620 32.415957
569 3 30.191922 91.609003 27.296203
570 3 -1.647856 71.352621 10.913751
571 2 4.894964 163.364367 11.863243
572 3 -3.060946 172.796269 2.465070
573 3 15.386944 169.034851 -11.356966
574 2 -114.928850 139.202388 -13.406433
575 3 -107.856592 138.941201 3.346847
576 3 -121.068502 123.880940 6.219042
577 2 -115.090186 115.194816 47.060546
578 3 -108.812776 98.660872 29.482837
579 3 -111.303573 88.157684 70.026889
580 2 49.802666 -26.485597 25.242823
581 3 43.565576 -26.382557 3.157404
582 3 44.938406 -26.404140 13.508025
583 2 -103.675489 -34.653201 120.580952
584 3 -97.872288 -38.492504 123.380715
585 3 -111.588296 -40.824875 114.672046
586 2 -45.959176 42.331664 -4.965289
587 3 -52.004985 48.710888 13.835450
588 3 -28.634155 53.591976 6.585689
589 2 156.984406 156.634662 15.625553
590 3 157.956502 159.509017 31.507164
591 3 178.709567 138.640506 51.756353
592 2 79.600564 -28.245451 23.208326
593 3 81.327894 -30.585960 -24.077106
594 3 97.331840 -35.311516 -10.572929
595 2 19.064511 142.504090 -57.157968
596 3 0.449676 125.178398 -39.979354
597 3 14.298244 136.871267 -37.845482
598 2 100.635844 -17.989690 -29.063841
599 3 122.935657 6.530666 -26.507899
600 3 103.291743 -29.119184 0.342658
601 2 42.044034 207.487062 -12.431299
602 3 36.432455 196.907587 13.078739
603 3 53.304081 167.379286 0.541679
604 2 62.631773 30.455234 -22.090713
605 3 50.051014 73.441359 27.884917
606 3 55.222324 54.433560 -28.153373
607 2 96.767183 141.058968 146.090754
608 3 101.221818 110.390536 103.686278
609 3 109.525972 80.735527 113.564195
610 2 -106.907668 42.728055 -184.610141
611 3 -117.164826 32.674541 -168.136258
612 3 -79.865644 19.735431 -186.585933
613 2 5.952051 116.908848 67.009363
614 3 -6.782274 95.613401 41.241984
615 3 1.594890 106.084417 60.614421
616 2 82.944563 157.298344 -40.287106
617 3 69.689965 131.561437 -41.646145
618 3 72.404975 131.946539 -37.305732
619 2 -5.595216 34.598226 -51.050411
620 3 -39.206916 30.636573 -44.958206
621 3 -12.963141 7.981132 -54.678477
622 2 73.686930 125.452576 80.270732
623 3 70.952908 135.169239 76.994435
624 3 41.952235 124.676960 82.656549
625 2 15.122387 130.301907 -57.839063
626 3 15.518045 117.523443 -55.063366
627 3 25.990647 120.344986 -42.778481
628 2 14.194633 143.626059 47.975115
629 3 46.619218 146.684105 53.560368
630 3 31.956079 141.963798 33.275904
631 2 -55.477264 168.099301 32.821040
632 3 -52.682430 189.278442 -0.075158
633 3 -72.379576 165.996624 -6.430448
634 2 77.128156 86.679934 22.831799
635 3 83.499046 63.613196 17.751761
636 3 93.454620 54.785691 26.887673
637 2 1.493895 168.294174 0.390400
638 3 -5.519022 169.355463 -5.022920
639 3 6.061930 175.675945 13.120299
640 2 -25.418008 170.021335 -66.043124
641 3 -29.050057 169.234848 -65.558950
642 3 -38.620837 159.959809 -81.457536
643 2 147.065795 44.489721 -15.779228
644 3 144.171880 52.057085 8.850532
645 3 146.430805 60.744216 30.374173
646 2 30.772976 -20.417613 73.134593
647 3 36.168978 7.396595 85.151817
648 3 43.661886 -19.880271 49.536795
649 2 -109.212788 170.874858 10.040585
650 3 -92.584167 157.259026 13.750887
651 3 -104.603769 164.459167 -5.919852
652 2 3.312828 158.330335 -142.257071
653 3 7.891016 162.441072 -119.272174
654 3 3.896006 140.961972 -113.824063
655 2 -59.521588 124.513765 -102.801216
656 3 -53.162530 118.292567 -79.716358
657 3 -63.736462 131.390366 -103.425170
658 2 -50.033673 198.034544 19.134024
659 3 -38.105561 207.198531 5.373287
660 3 -31.576277 189.586086 -3.240648
661 2 -137.400617 61.996095 19.618694
662 3 -145.403681 81.532938 36.234873
663 3 -129.229944 78.806780 45.373936
664 2 -10.389602 39.497894 -117.764779
665 3 -4.570479 60.954366 -108.447176
666 3 -26.935010 96.786214 -95.012919
667 2 72.669626 31.511027 -23.407756
668 3 73.132885 42.628376 -62.243047
669 3 80.132209 69.506543 -32.925464
670 2 36.014259 197.515226 75.163244
671 3 58.755933 220.582862 78.858110
672 3 54.463971 196.555319 104.977308
673 2 -71.519911 72.895704 -53.335450
674 3 -74.383550 88.680286 -63.775933
675 3 -79.965860 90.415764 -41.553651
676 2 39.132986 102.945249 31.799551
677 3 58.507205 97.080531 6.738480
678 3 50.320303 81.813868 50.240781
679 2 -77.656377 68.147467 58.689048
680 3 -56.462128 69.751659 41.315999
681 3 -76.261832 71.510156 77.480149
682 2 -5.964221 114.980785 -90.235205
683 3 -4.168961 135.426944 -118.257320
684 3 -20.748790 118.757948 -117.696213
685 2 -18.803693 99.271446 12.379535
686 3 -25.029403 66.998764 24.675886
687 3 -45.143025 72.196018 28.441239
688 2 -84.241570 -87.540839 -14.838206
689 3 -64.646722 -93.326761 -23.795791
690 3 -89.582776 -90.715646 -23.394641
691 2 -110.495575 21.912302 153.163318
692 3 -89.233174 1.988085 138.400150
693 3 -89.517404 25.955555 146.958280
694 2 40.153365 -23.565508 4.673762
695 3 58.061473 -36.096111 -1.384617
696 3 28.071508 -1.746359 -11.487281
697 2 -95.996330 87.792242 55.912285
698 3 -101.823417 117.299500 49.248837
699 3 -88.965484 114.188962 60.360640
700 2 -108.680120 -13.194567 10.743991
701 3 -93.842846 6.390620 29.685361
702 3 -105.556057 4.795135 31.081768
703 2 11.469251 14.833087 109.588845
704 3 18.805134 3.166375 95.898668
705 3 18.508173 5.723465 98.381822
706 2 -86.330322 -68.025046 92.673205
707 3 -98.059014 -67.195926 83.219188
708 3 -88.748303 -41.868676 46.384053
709 2 -44.766233 -10.261600 40.176144
710 3 -35.883531 -14.159682 39.798492
711 3 -41.544913 -28.452366 46.951928
712 2 67.806814 78.764398 -107.590573
713 3 68.335599 81.636764 -61.468618
714 3 75.478215 93.869827 -142.306355
715 2 15.659715 -2.478196 -72.606641
716 3 23.343695 16.103777 -9.495782
717 3 38.795289 -12.215620 -69.930929
718 2 33.646241 -80.972573 69.990207
719 3 32.772785 -105.895436 60.356959
720 3 45.225652 -102.985055 76.114057
721 2 105.770320 49.945595 8.376704
722 3 126.441664 80.682829 -20.848829
723 3 77.833541 73.468141 7.186625
724 2 -34.351591 118.080445 -54.682827
725 3 -49.688002 112.591516 -61.229992
726 3 -68.589235 115.193874 -63.703694
727 2 -161.787229 -31.067556 -23.783493
728 3 -170.293331 -11.073995 -27.517254
729 3 -158.107032 -27.361094 -14.122019
730 2 18.118086 24.362966 -49.201152
731 3 2.751869 2.081540 -28.092944
732 3 7.178991 16.349890 -75.501689
733 2 -8.245026 -60.460520 76.933973
734 3 5.689492 -65.138771 68.386143
735 3 -18.962281 -56.575027 84.410159
736 2 10.425524 47.216484 52.917886
737 3 -20.618563 63.955919 91.705994
738 3 -2.375139 69.770338 73.176248
739 2 -56.513992 33.043018 127.595900
740 3 -41.024651 65.800089 153.363335
741 3 -67.076930 35.820092 147.306003
742 2 62.127238 -168.057231 173.766466
743 3 30.837463 -150.686504 154.816749
744 3 61.484328 -154.325892 133.736920
745 2 231.385037 67.872710 37.654240
746 3 231.053245 54.888544 15.749409
747 3 235.033201 74.964220 17.302689
748 2 -98.059137 -76.426120 71.577692
749 3 -109.073711 -91.835289 103.598807
750 3 -104.833990 -84.680070 91.002905
751 2 48.801958 8.346407 46.693793
752 3 78.501076 37.179505 71.313731
753 3 60.318180 -7.442906 27.082575
754 2 36.903816 -50.162673 25.173949
755 3 22.997801 -77.774717 35.751748
756 3 26.416922 -91.861646 33.707620
757 2 -41.747735 0.572956 44.613084
758 3 -26.123803 -20.165739 9.773105
759 3 -45.986797 -0.772463 43.648165
760 2 50.395150 71.753178 47.003233
761 3 49.289759 84.850661 30.352970
762 3 47.523485 77.783281 47.616909
763 2 109.406431 -33.803506 20.856494
764 3 71.471648 -47.474009 18.375223
765 3 88.729664 -17.074187 33.396297
766 2 -50.993123 -43.573855 96.841551
767 3 -61.690195 -59.317294 94.222822
768 3 -47.333878 -53.377779 128.175303
769 2 129.510608 -0.071774 18.659901
770 3 114.809576 -24.725735 14.689080
771 3 108.443844 -2.454738 8.685114
772 2 -118.495976 115.435029 -9.692433
773 3 -114.613573 132.188226 -10.618594
774 3 -112.708034 100.001046 -20.234918
775 2 28.046467 33.453322 62.451760
776 3 34.493652 6.456095 85.353005
777 3 6.646244 42.723072 90.091205
778 2 10.782775 58.893094 49.190405
779 3 4.706431 38.053280 49.904526
780 3 12.413052 26.392342 67.287283
781 2 -66.829780 -22.196715 46.969874
782 3 -46.753605 -25.773261 31.193695
783 3 -54.391944 -1.742609 28.364567
784 2 -30.044858 5.422353 24.772203
785 3 -45.442562 14.833633 10.613908
786 3 -18.144857 0.431727 39.182109
787 2 -105.204126 46.842348 63.573094
788 3 -117.774451 49.334533 60.101472
789 3 -129.461336 69.510717 24.171150
790 2 67.698027 -85.476409 -30.810559
791 3 54.726078 -92.876220 -32.204200
792 3 44.409821 -91.220535 -42.768950
793 2 4.001381 -22.527701 80.346615
794 3 20.004918 -25.237705 62.305807
795 3 18.382954 -32.974789 38.868366
796 2 129.993063 -6.865044 131.219856
797 3 123.527485 18.016382 122.177247
798 3 107.906629 8.386689 117.680175
799 2 80.135031 31.337566 -56.253682
800 3 102.199607 36.526277 -42.175225
801 3 96.159006 38.465297 -49.393294
802 2 90.337108 92.621936 -18.437577
803 3 95.828748 105.339658 -25.506888
804 3 69.542732 116.730525 -30.503735
805 2 -21.926367 -130.292633 38.414282
806 3 -26.941859 -109.374898 42.649934
807 3 -24.547419 -113.392949 39.217086
808 2 -28.858223 182.056803 -25.541799
809 3 -36.178780 165.907725 -60.532581
810 3 -21.318735 174.388978 -39.880808
811 2 -13.293430 26.942953 -26.798389
812 3 -28.807200 11.444241 5.326116
813 3 -52.453484 47.390913 12.751601
814 2 23.423537 -7.955281 35.004496
815 3 17.359240 -29.762116 -13.319378
816 3 17.413468 -31.900743 13.100205
817 2 -168.331417 55.270225 116.157880
818 3 -139.509508 85.141740 122.322075
819 3 -157.624528 66.883592 155.568288
820 2 -84.559534 145.357584 104.614169
821 3 -69.292131 136.101885 98.147974
822 3 -72.943685 147.655362 96.856179
823 2 112.603705 -14.835109 -17.715353
824 3 110.277232 -41.113182 -14.291435
825 3 129.234230 -58.346288 57.922146
826 2 66.306027 -3.791764 -53.657303
827 3 83.261017 43.412383 -45.807313
828 3 90.455435 26.320233 -22.485645
829 2 107.140388 -21.026525 193.042990
830 3 98.089152 -34.385633 196.671891
831 3 77.888819 -42.012189 183.241195
832 2 -38.484663 18.869557 11.772993
833 3 -21.147006 46.989923 31.298581
834 3 -40.627375 35.458833 -7.271779
835 2 -15.098590 39.344414 45.989615
836 3 -25.102035 18.756557 23.638696
837 3 -13.437280 47.802145 46.982498
838 2 17.250867 100.579683 -25.271989
839 3 21.277496 95.154969 -31.637183
840 3 12.667905 104.597940 -36.618927
841 2 27.496367 32.549440 -19.209814
842 3 22.177845 43.507007 -55.259471
843 3 42.271966 39.586250 -26.723411
844 2 -35.071441 -71.509366 67.674580
845 3 -53.549515 -122.644087 69.399775
846 3 -29.761337 -69.011888 27.402839
847 2 -34.611707 139.580777 112.253007
848 3 -21.085463 127.765604 134.352331
849 3 -7.391388 142.507944 123.489349
850 2 -103.534453 97.607861 136.702121
851 3 -75.861943 95.068624 151.825328
852 3 -101.483835 117.943743 147.662998
853 2 80.899115 123.227642 -8.900550
854 3 75.647550 100.119662 -12.924135
855 3 69.387377 87.288775 -32.674848
856 2 -9.911304 33.376915 -29.215768
857 3 -11.440254 -0.565493 -43.376852
858 3 -31.929019 14.488827 -39.552870
859 2 -15.157350 -43.812752 -138.970081
860 3 -13.370736 -80.225693 -168.780278
861 3 -3.655285 -54.297562 -123.725221
862 2 62.588253 6.714708 -10.989991
863 3 91.032572 -18.324868 -10.505792
864 3 84.812128 13.471998 -33.413802
865 2 89.740097 -8.160535 102.399879
866 3 80.987721 0.261652 83.248734
867 3 84.890732 19.160714 111.810959
868 2 74.770506 13.952134 -56.235742
869 3 81.098715 -0.298272 -70.035735
870 3 64.803935 -8.177383 -74.084080
871 2 42.889866 70.287785 5.547324
872 3 51.086374 66.876784 29.366520
873 3 49.395875 63.454908 37.111215
874 2 -23.526535 56.049646 13.870825
875 3 -21.553938 48.756868 14.852648
876 3 -15.472978 54.366475 -0.496390
877 2 129.397254 152.603246 59.632913
878 3 130.029028 152.405667 31.053532
879 3 133.343674 174.092951 53.320902
880 2 7.356815 132.241616 -102.213769
881 3 35.398790 122.573797 -100.296505
882 3 22.375753 123.165023 -66.239782
883 2 -65.168957 7.329217 -37.585557
884 3 -68.607366 41.750283 -48.640662
885 3 -78.178852 -10.223104 -25.506233
886 2 -84.459762 -7.584452 75.204281
887 3 -85.124234 14.847803 99.069103
888 3 -56.742703 -2.584246 72.698814
889 2 37.213867 62.197745 0.088403
890 3 25.988704 94.675001 -20.106447
891 3 21.777719 90.315241 -39.526508
892 2 -79.698300 -111.691195 8.642653
893 3 -72.475749 -125.588306 35.988768
894 3 -71.324958 -119.188549 11.057262
895 2 3.857009 177.278887 131.534900
896 3 -3.808636 164.478552 90.380067
897 3 2.498462 152.107450 94.988915
898 2 45.461275 170.097980 49.321403
899 3 47.959683 161.666231 32.470597
900 3 43.650296 179.673288 51.194770
901 2 -0.742643 66.051906 -43.754660
902 3 1.300800 69.694696 -16.272336
903 3 24.357960 105.569417 -40.633034
904 2 140.923481 117.792901 1.166755
905 3 152.498823 118.086884 11.680937
906 3 152.934492 121.148175 1.861356
907 2 118.549396 4.046944 -128.654977
908 3 125.906506 -13.174501 -111.220258
909 3 125.756695 10.824287 -120.182933
910 2 39.277189 -39.505702 143.351328
911 3 52.159292 -51.351816 149.686829
912 3 38.324731 -49.585268 156.051456
913 2 150.107342 57.500701 114.607797
914 3 125.969278 93.393736 108.808494
915 3 137.229134 70.864043 101.848569
916 2 87.721074 97.839939 -162.939201
917 3 99.340978 94.219191 -167.114973
918 3 123.707210 102.946298 -139.589117
919 2 75.122950 -5.332464 64.443863
920 3 89.549094 30.651922 36.866411
921 3 88.611423 28.169539 7.157965
922 2 45.777211 -68.955115 133.432346
923 3 69.955248 -63.669764 109.397658
924 3 82.256654 -57.787348 133.520213
925 2 -69.780687 69.413318 -21.790822
926 3 -95.851781 75.338987 -2.979284
927 3 -98.504000 87.616191 2.329075
928 2 95.427287 -50.812398 -73.338843
929 3 103.578167 -28.275327 -56.601423
930 3 93.812769 -43.837946 -25.757740
931 2 -105.261610 70.609656 -39.528722
932 3 -85.106671 43.410311 -17.016061
933 3 -95.935604 49.366194 -43.104855
934 2 -28.949956 -16.724401 -72.304909
935 3 -30.138317 -10.634019 -84.362096
936 3 -32.018238 -6.835862 -84.109436
937 2 21.137924 84.126109 -21.198337
938 3 10.296619 90.664764 44.906490
939 3 4.465519 75.946326 29.717115
940 2 -48.890166 32.120692 145.130305
941 3 -62.457194 54.593300 124.948669
942 3 -48.961424 28.313862 163.852291
943 2 -27.293452 83.329450 35.334381
944 3 -31.823347 82.892749 38.790807
945 3 -11.968414 89.214420 68.748120
946 2 127.724512 34.135310 56.550099
947 3 151.769730 10.023034 84.651263
948 3 122.484484 21.752371 69.843733
949 2 -69.637198 10.210572 57.638467
950 3 -83.160749 16.605585 71.851525
951 3 -67.918335 8.858211 65.305481
952 2 125.841837 13.079077 41.211128
953 3 110.195522 -3.944674 32.699450
954 3 143.922715 -0.404322 46.977910
955 2 85.499205 27.634922 -20.839428
956 3 70.564359 34.114042 -41.762612
957 3 76.332057 53.633788 -42.917473
958 2 -3.551582 53.760470 -3.174249
959 3 -27.317692 66.906862 20.511282
960 3 -16.569172 80.548358 -11.521347
961 2 -38.933267 -14.705797 64.671101
962 3 -41.479701 -8.586222 74.013730
963 3 -62.994169 0.454226 94.491835
964 2 -56.530662 11.779081 197.864850
965 3 -57.073405 28.209931 207.878342
966 3 -61.620983 42.807768 152.282451
967 2 22.432451 118.640548 -53.686992
968 3 30.231780 146.617084 -35.593998
969 3 6.785882 124.188378 -56.189207
970 2 -80.089074 30.568804 -18.673376
971 3 -67.527660 47.353890 -16.209215
972 3 -71.507388 37.820065 -9.665519
973 2 35.125871 144.247937 -55.630143
974 3 13.341803 140.358628 -63.174766
975 3 34.233250 154.409683 -35.491669
976 2 -111.002433 134.680680 -48.874077
977 3 -86.348403 107.649591 -41.037976
978 3 -76.411939 132.613749 -59.274118
979 2 -16.063186 143.590580 22.073552
980 3 -35.089016 123.405221 42.102605
981 3 -21.517305 114.170329 38.938558
982 2 -58.917213 51.440751 76.818608
983 3 -60.108924 69.879200 55.256561
984 3 -57.347374 75.619985 72.146581
985 2 -81.658482 73.289308 46.407542
986 3 -87.352778 70.057110 57.367907
987 3 -88.145382 60.841128 60.578343
988 2 6.139028 -14.105452 42.968122
989 3 9.323594 -14.668770 57.860280
990 3 25.813613 -40.500590 -3.257519
991 2 80.813579 52.860156 82.406076
992 3 79.134015 68.608358 89.044596
993 3 102.227203 94.355703 98.068171
994 2 48.971663 69.049841 -38.192024
995 3 58.040271 62.992291 -28.225547
996 3 45.985376 58.940444 -23.350786
997 2 16.075688 33.972404 -3.296051
998 3 23.966440 31.951245 -21.853886
999 3 45.289090 9.777355 -0.303779
1000 2 -37.162670 70.976395 78.008597
1001 3 -29.218650 79.218759 81.326189
1002 3 -10.801998 73.909047 90.632186
1003 2 -102.483748 102.878639 -27.064398
1004 3 -87.865047 106.612165 -27.527246
1005 3 -96.961005 119.170151 -17.214317
1006 2 -45.881861 19.997205 -51.404163
1007 3 -70.173544 14.854814 -41.906342
1008 3 -57.445574 16.503117 -33.564963
1009 2 -45.687832 95.774658 -58.747524
1010 3 -26.884249 124.076604 -24.954942
1011 3 -24.586484 138.190231 -48.280120
1012 2 -129.443341 159.071483 65.511531
1013 3 -115.939708 143.804816 98.375576
1014 3 -120.114500 152.750850 78.732075
1015 2 -8.687326 155.490981 -82.574557
1016 3 -1.893879 159.445782 -69.056557
1017 3 -6.126491 156.997665 -84.766225
1018 2 46.928594 111.230177 7.471454
1019 3 45.478216 110.840043 -13.592639
1020 3 77.984352 104.682521 -3.920845
1021 2 -17.941246 10.495219 163.381855
1022 3 14.029836 3.174057 163.094875
1023 3 -0.738055 -9.189373 158.720663
1024 2 -59.781470 152.745954 -85.128211
1025 3 -69.870636 143.724226 -95.131721
1026 3 -55.725695 148.414451 -85.694670
1027 2 103.580767 -44.419597 -34.052924
1028 3 103.194565 -33.644876 -12.550142
1029 3 95.302157 -61.234615 1.819461
1030 2 88.278164 16.993605 17.121520
1031 3 98.644035 23.366372 30.958861
1032 3 80.944922 24.242602 22.454993
1033 2 133.195452 176.321625 46.203909
1034 3 138.929016 170.531758 90.233721
1035 3 126.490212 170.937302 81.000618
1036 2 202.084039 64.133946 41.722956
1037 3 211.725051 81.376136 61.389725
1038 3 201.157214 80.516939 65.631426
1039 2 -54.683618 145.275253 -55.413953
1040 3 -67.627734 131.430217 -26.599198
1041 3 -81.961736 190.179980 -79.211989
1042 2 2.228715 91.031948 21.713409
1043 3 -3.389934 63.954475 2.278658
1044 3 -7.579660 81.099099 23.585532
1045 2 60.188187 129.666216 9.915054
1046 3 67.758056 112.564262 7.596599
1047 3 85.479528 104.747489 -32.344991
1048 2 -57.446037 136.550769 93.964937
1049 3 -42.452578 155.755490 101.056538
1050 3 -65.361814 158.095824 106.266437
1051 2 -52.623423 62.380930 49.138750
1052 3 -56.230237 70.814211 17.347373
1053 3 -39.794134 40.804244 40.796883
1054 2 97.926479 58.718769 10.685563
1055 3 105.223510 39.551917 21.141183
1056 3 103.171185 25.356459 40.510311
1057 2 -32.710673 99.326706 127.461830
1058 3 -20.514588 90.693265 151.988829
1059 3 -23.399759 61.460186 148.132613
1060 2 10.248462 56.671741 117.686200
1061 3 7.078480 27.991418 67.413548
1062 3 11.613292 41.366759 103.482534
1063 2 52.209715 71.442832 12.869177
1064 3 38.857634 67.428449 32.183310
1065 3 27.095079 72.082005 26.507740
1066 2 124.480403 160.225017 47.033413
1067 3 112.878235 162.766778 22.917555
1068 3 98.219139 164.724375 22.687655
1069 2 149.314355 96.774317 -1.505325
1070 3 155.097922 78.355843 -21.048791
1071 3 152.481926 73.933567 -2.397771
1072 2 96.969457 85.168020 18.896257
1073 3 104.743095 94.940543 15.882103
1074 3 114.533949 61.866691 2.848450
1075 2 234.110222 -27.795518 -12.561132
1076 3 256.454079 -6.491397 -17.801133
1077 3 258.215069 -13.267030 -14.836668
1078 2 87.403721 62.523915 34.121268
1079 3 80.631469 24.464589 18.005623
1080 3 91.210700 24.174229 46.804985
1081 2 -135.065141 60.806166 -46.119862
1082 3 -103.722805 75.243967 -31.177020
1083 3 -116.043300 74.340689 1.265342
1084 2 16.729065 64.605663 22.757716
1085 3 18.179751 39.694101 24.694515
1086 3 7.195255 56.143065 6.886745
1087 2 -19.813159 91.405312 94.977138
1088 3 -19.798100 99.743554 102.679081
1089 3 -7.642220 99.122018 94.818306
1090 2 70.936966 50.931236 -72.352626
1091 3 68.183957 41.629420 -67.581674
1092 3 56.862626 77.886852 -50.702850
1093 2 34.345600 164.806053 -136.363424
1094 3 39.289913 141.952113 -154.515380
1095 3 0.750982 135.598570 -116.362458
1096 2 87.899111 31.468405 4.685784
1097 3 70.784516 19.659404 -7.850601
1098 3 83.047921 23.126115 -8.044259
1099 2 20.870695 104.058180 -78.976167
1100 3 1.681020 119.453901 -39.489849
1101 3 4.746578 119.505565 -54.291941
1102 2 153.874924 67.095938 -108.502549
1103 3 151.734234 51.371560 -143.253205
1104 3 174.222147 69.963128 -160.935012
1105 2 -54.828050 152.720912 -2.154849
1106 3 -81.411283 175.606613 -18.869536
1107 3 -40.226075 157.956295 0.847125
1108 2 2.874289 -9.164734 45.320551
1109 3 29.819027 -16.889668 54.584644
1110 3 32.964766 -26.542142 44.159181
1111 2 169.653111 77.142538 77.756643
1112 3 146.401372 98.065913 81.887223
1113 3 158.130841 77.320428 79.758701
1114 2 79.670435 166.072113 43.864186
1115 3 75.457102 150.943592 0.959980
1116 3 97.763214 156.855292 27.708940
1117 2 -76.554683 159.788897 57.251084
1118 3 -85.237626 168.348438 68.704233
1119 3 -88.759359 154.526968 38.328472
1120 2 -68.135868 145.525310 -28.807694
1121 3 -75.956058 157.477268 -6.291631
1122 3 -59.914131 170.518621 -49.044552
1123 2 -9.545710 108.911745 33.567970
1124 3 -13.124265 94.492830 68.267619
1125 3 6.508385 88.646753 59.446440
1126 2 -94.559750 194.917879 -0.224776
1127 3 -71.240944 207.442742 -28.740179
1128 3 -82.623971 191.552684 -15.665148
1129 2 142.182715 121.703109 89.335976
1130 3 142.478148 124.490974 73.606491
1131 3 100.095590 125.483897 94.318974
1132 2 29.842711 24.163343 2.312921
1133 3 34.166255 31.432548 -19.509705
1134 3 47.525528 14.501022 -29.498988
1135 2 63.342261 -7.629879 -13.564587
1136 3 56.653820 -40.652375 -24.153579
1137 3 58.835356 -18.340251 -11.968564
1138 2 -79.899551 102.797334 -36.090645
1139 3 -60.774549 76.178499 16.530206
1140 3 -64.651609 77.668971 6.421752
1141 2 54.271206 139.194322 -131.397484
1142 3 46.178074 121.413528 -146.990509
1143 3 59.013093 135.909726 -102.440365
1144 2 24.654433 37.515147 25.099308
1145 3 29.106166 48.536913 12.772364
1146 3 5.598607 41.676016 30.321292
1147 2 36.259062 137.072519 -6.592212
1148 3 32.084274 84.638273 -14.746233
1149 3 46.987536 131.106677 15.932935
1150 2 -38.699798 14.207062 -40.242448
1151 3 -37.752588 26.057794 -29.604624
1152 3 -29.613716 9.610593 -37.111970
1153 2 139.741292 56.168570 -77.554932
1154 3 154.889258 48.541056 -75.769839
1155 3 148.509610 60.007139 -89.557953
1156 2 -65.462634 70.616479 -22.338769
1157 3 -69.655427 71.747837 -7.321737
1158 3 -74.480345 65.698410 -18.624866
1159 2 9.844019 161.851617 122.566883
1160 3 32.078629 152.710908 103.226820
1161 3 36.110618 171.962907 115.855826
1162 2 -28.700002 44.073549 -81.288343
1163 3 -27.794410 41.878085 -91.320988
1164 3 0.324132 40.799812 -85.379321
1165 2 9.290072 126.577405 115.066608
1166 3 25.721232 144.063616 135.598053
1167 3 13.790502 142.951498 137.229001
1168 2 -20.125622 6.369314 114.562028
1169 3 -7.586156 10.790008 125.749215
1170 3 -23.232322 20.286015 110.712186
1171 2 -19.314305 129.437558 74.313150
1172 3 -17.762171 156.673114 23.271348
1173 3 -35.080241 149.963463 44.181233
1174 2 49.293173 63.163559 5.716206
1175 3 52.931973 36.062739 28.074131
1176 3 62.963032 59.180258 41.939259
1177 2 -85.039154 190.900618 30.518789
1178 3 -71.954649 224.075255 39.580921
1179 3 -68.330666 200.456161 50.395206
1180 2 165.509587 26.524776 2.539961
1181 3 202.699543 64.103184 -6.686638
1182 3 167.567490 33.743434 2.994435
1183 2 -46.411798 66.335983 -86.978043
1184 3 -56.484060 79.648029 -104.094617
1185 3 -50.929710 45.520717 -80.495832
1186 2 27.515619 99.158850 -6.392433
1187 3 -2.447096 117.203485 27.382573
1188 3 2.565134 108.915683 19.357870
1189 2 140.626408 276.212524 79.524452
1190 3 129.830865 325.616047 51.115963
1191 3 148.524894 296.008380 58.261517
1192 2 30.914634 208.451196 159.165664
1193 3 39.366309 225.120383 157.357164
1194 3 41.978013 238.962424 168.290991
1195 2 -102.626534 -56.227138 -13.679281
1196 3 -124.238476 -50.548011 -12.429730
1197 3 -117.921835 -30.414745 -28.714725
1198 2 53.541291 -4.302672 -17.993580
1199 3 50.610917 -23.611143 19.173928
1200 3 68.837171 -11.869892 14.260526
1201 2 -163.551781 59.886683 -40.757897
1202 3 -181.097132 56.602660 -23.539367
1203 3 -162.000996 63.152438 -40.956682
1204 2 90.722823 2.656583 21.064423
1205 3 83.129267 13.955170 0.096886
1206 3 91.412136 -5.166813 31.741475
1207 2 -38.642641 -46.445940 -48.309758
1208 3 -21.132822 -24.512316 -63.657463
1209 3 -25.945958 -50.793499 -64.709221
1210 2 64.608157 129.988235 94.260736
1211 3 61.405758 108.601114 109.871341
1212 3 57.783973 116.039300 85.337681
1213 2 -81.573432 50.701530 5.564065
1214 3 -78.353542 35.532195 2.090926
1215 3 -75.862695 58.405732 15.094234
1216 2 130.247848 -7.787237 65.195024
1217 3 140.270767 3.168607 77.631425
1218 3 122.218655 -12.423261 81.645141
1219 2 155.179983 5.713696 -48.511648
1220 3 140.308617 -0.338199 -79.076913
1221 3 162.081143 16.864685 -67.825929
1222 2 79.920882 45.494595 -4.271905
1223 3 91.340614 47.067890 -9.371902
1224 3 98.392227 19.121501 -14.972348
1225 2 45.947353 95.057548 115.987691
1226 3 59.328293 76.794614 112.954311
1227 3 71.988010 83.180049 116.743178
1228 2 35.102167 61.102927 13.826209
1229 3 9.626590 67.322851 19.739610
1230 3 31.868035 32.760179 12.390206
1231 2 65.878252 -49.311781 37.804020
1232 3 69.850342 -33.862750 25.219168
1233 3 75.230129 -26.992576 -0.032677
1234 2 -51.234794 2.965994 47.822284
1235 3 -52.703321 11.245033 53.738838
1236 3 -41.077532 -8.858358 54.493670
1237 2 25.320555 30.686607 59.841030
1238 3 31.255407 43.081110 102.475586
1239 3 17.482297 22.244611 52.560707
1240 2 134.165132 13.782328 5.773370
1241 3 117.993582 25.773996 40.306224
1242 3 116.589239 2.478638 52.472960
1243 2 1.246567 41.265983 23.653606
1244 3 24.939286 7.088978 -2.595628
1245 3 30.313779 21.844782 4.683889
1246 2 37.965948 72.309879 117.479568
1247 3 39.692512 88.678058 116.207801
1248 3 45.733032 71.100112 97.910187
1249 2 -98.616936 88.309164 -53.345644
1250 3 -81.710044 94.697921 -29.660233
1251 3 -94.583722 82.965957 -37.890887
1252 2 58.530703 62.780450 -126.592683
1253 3 48.888302 42.152254 -110.876853
1254 3 58.982333 77.537568 -129.960602
1255 2 25.722319 -8.809254 97.897963
1256 3 28.979257 -12.098963 94.165175
1257 3 10.853671 -23.261646 96.197387
1258 2 24.951686 9.798974 162.749809
1259 3 24.680682 6.199581 180.072721
1260 3 28.224947 9.896596 183.569433
1261 2 53.623265 105.569592 101.199465
1262 3 58.921659 116.396684 100.464062
1263 3 37.792321 94.301576 98.771993
1264 2 138.789508 35.473090 -56.712881
1265 3 121.092995 52.800707 -46.811077
1266 3 129.684430 24.582034 -28.649411
1267 2 61.756624 44.888375 69.177464
1268 3 67.082125 15.676608 94.213740
1269 3 50.581999 19.496267 73.946911
1270 2 58.513494 56.449827 0.816220
1271 3 79.764230 65.490959 -35.161646
1272 3 64.468146 66.300971 -10.875276
1273 2 -131.880833 -135.802300 153.744732
1274 3 -131.565765 -142.927195 159.716226
1275 3 -138.245320 -124.527852 144.379652
1276 2 42.112842 129.405303 91.408709
1277 3 47.865868 140.676276 82.143554
1278 3 51.668327 100.219083 63.260933
1279 2 -79.754046 -30.618695 90.771737
1280 3 -53.973709 -37.298887 59.036914
1281 3 -74.782003 -10.995339 77.593392
1282 2 83.716726 -37.407131 -114.133166
1283 3 86.140839 -75.963879 -131.560644
1284 3 85.607826 -61.913160 -122.264582
1285 2 -41.981900 91.049372 53.401917
1286 3 -17.221372 92.795166 48.100965
1287 3 -34.603406 89.563130 51.106875
1288 2 137.968728 46.688657 31.215831
1289 3 132.428164 55.421994 39.984924
1290 3 144.901232 23.518964 -3.077629
1291 2 -31.493493 -51.666993 16.146512
1292 3 -49.546467 -57.254947 27.008146
1293 3 -58.837433 -63.831537 10.512960
1294 2 14.339581 40.731744 -71.262544
1295 3 9.968732 70.929843 -70.687016
1296 3 20.014103 53.752469 -121.177582
1297 2 -65.460390 -12.145589 -50.324142
1298 3 -58.590721 15.166317 -51.780366
1299 3 -50.228299 7.989725 -72.511993
1300 2 53.144591 11.027208 127.990859
1301 3 68.891990 7.837051 117.152465
1302 3 40.801157 6.079577 130.539181
1303 2 -48.669491 71.220921 10.022454
1304 3 -27.560122 49.966376 23.778963
1305 3 -42.289203 73.270193 15.306510
1306 2 88.233818 50.842008 -63.095267
1307 3 100.717301 63.886402 -52.303472
1308 3 102.368079 52.978772 -60.349374
1309 2 174.562949 44.893273 77.614039
1310 3 168.312531 62.269555 55.762775
1311 3 179.971093 55.006195 77.257054
1312 2 -234.324806 91.956140 14.926304
1313 3 -227.115961 96.018824 27.189625
1314 3 -230.877639 105.835196 39.105072
1315 2 59.204490 32.124699 139.181396
1316 3 51.506412 23.660566 117.925343
1317 3 61.458399 14.627677 176.052810
1318 2 66.012621 46.414184 103.174777
1319 3 66.774727 41.497392 38.818307
1320 3 76.477253 52.774989 57.792751
1321 2 9.514630 15.236365 -32.042512
1322 3 1.174653 2.124405 -55.281198
1323 3 -14.048609 -1.385468 -2.672794
1324 2 78.423705 -57.429287 4.065826
1325 3 53.518110 -59.283404 27.228134
1326 3 43.755227 -62.586086 2.154333
1327 2 -7.169449 40.686215 43.948755
1328 3 -3.518898 8.169934 72.912591
1329 3 -22.589511 48.046729 70.182709
1330 2 21.455482 -67.253216 13.685280
1331 3 29.024700 -66.962373 17.386144
1332 3 33.867118 -60.470570 23.673114
1333 2 -12.766287 73.377642 68.422618
1334 3 -0.490357 61.427660 50.451855
1335 3 -9.259640 71.662819 73.254607
1336 2 31.175414 101.850541 66.158508
1337 3 18.014200 101.940877 46.933211
1338 3 31.827828 107.096399 44.049582
1339 2 13.370443 64.153944 40.903794
1340 3 12.256718 99.913393 28.456257
1341 3 21.223686 79.908855 55.539083
1342 2 52.406898 -23.136633 22.269552
1343 3 55.448173 -41.634716 4.967034
1344 3 56.541409 -38.849914 -20.043951
1345 2 116.768557 63.623668 -117.247070
1346 3 119.152305 60.668905 -71.212835
1347 3 112.868763 46.393590 -107.259595
1348 2 141.805566 9.172612 96.601849
1349 3 141.416659 15.061724 115.686992
1350 3 153.200764 15.751007 108.125412
1351 2 -13.735760 -13.686524 104.240198
1352 3 0.219010 -9.706928 84.512732
1353 3 -7.970777 -7.192292 111.489354
1354 2 31.103618 17.253147 -17.384719
1355 3 13.189004 31.088552 -3.036263
1356 3 4.607948 21.570661 -20.153453
1357 2 -55.369899 -14.463604 70.666440
1358 3 -39.003878 -11.797806 52.347412
1359 3 -55.558603 -23.535050 75.874245
1360 2 21.061096 74.213087 18.812451
1361 3 -22.989714 49.154171 14.986108
1362 3 -17.902160 66.719397 0.440319
1363 2 93.999107 -51.773126 -45.938772
1364 3 84.822198 -19.435610 -30.109948
1365 3 93.935990 -52.118180 -12.445756
1366 2 -7.013687 140.171935 173.227915
1367 3 -12.195997 128.096130 185.955591
1368 3 -29.189719 136.783280 168.419867
1369 2 2.503562 54.574485 36.714252
1370 3 -19.426390 32.938830 38.695965
1371 3 -9.023999 53.510789 20.171434
1372 2 -13.571553 -25.666458 -51.383862
1373 3 1.905892 -19.868784 -37.252628
1374 3 -9.360189 -4.213864 -68.397729
1375 2 -47.371809 54.419032 13.242102
1376 3 -50.996001 83.930840 18.441600
1377 3 -67.601352 101.002187 1.667884
1378 2 194.918652 27.403455 30.872966
1379 3 184.427798 22.667894 45.289340
1380 3 193.144931 17.499672 25.816624
1381 2 16.770350 82.856844 63.287439
1382 3 19.962497 67.752421 72.391168
1383 3 19.202130 70.892228 67.073991
1384 2 54.919745 29.221343 -107.494809
1385 3 64.534989 47.159101 -85.505577
1386 3 66.046173 -0.718108 -97.761737
1387 2 122.878432 -25.610575 -39.750728
1388 3 123.385303 -28.508930 -57.952394
1389 3 155.145435 -11.776532 -38.836588
1390 2 -27.267542 38.150849 32.306335
1391 3 -31.277316 28.163896 35.725003
1392 3 -39.331880 24.148388 14.935043
1393 2 33.532033 66.899533 171.056249
1394 3 9.504299 66.611081 192.928331
1395 3 19.153890 92.755133 200.575722
1396 2 -74.894809 -7.848184 95.934224
1397 3 -87.322076 -6.560738 94.189471
1398 3 -90.213934 -2.277887 104.159288
1399 2 12.027115 8.278592 15.801043
1400 3 -8.185588 10.218190 36.851887
1401 3 3.130282 20.967561 39.762560
1402 2 43.953442 33.025892 -0.178446
1403 3 20.694329 58.372078 22.136433
1404 3 32.043594 8.743944 28.107771
1405 2 87.783279 97.716618 87.277156
1406 3 66.844943 93.256030 80.952892
1407 3 82.909368 84.463773 95.691856
1408 2 -40.182468 -29.075107 -139.348489
1409 3 -40.049862 -7.236907 -82.907703
1410 3 -39.638677 -16.650128 -129.223133
1411 2 7.855930 187.308089 29.518863
1412 3 19.526043 178.128502 11.691510
1413 3 27.804127 197.816971 24.617257
1414 2 -2.478457 166.754436 -61.689255
1415 3 17.131999 128.696099 -68.542188
1416 3 0.819800 156.825613 -51.169674
1417 2 29.985597 71.991414 -64.405644
1418 3 26.374623 93.264119 -56.156349
1419 3 15.386851 111.737651 -51.433870
1420 2 -3.739988 66.904410 132.560687
1421 3 -16.115419 80.917435 94.418411
1422 3 -17.067067 106.059451 90.601104
1423 2 167.209654 38.038153 0.613438
1424 3 155.583914 33.607947 -8.132363
1425 3 182.764670 39.136756 54.681207
1426 2 -70.073378 34.032141 -114.167542
1427 3 -76.019495 66.867148 -115.547786
1428 3 -81.560368 90.776326 -93.120298
1429 2 -178.802884 -41.896142 21.047976
1430 3 -177.123819 -33.277685 52.041148
1431 3 -152.280241 -29.225029 14.906569
1432 2 -121.556700 -71.764342 -45.663154
1433 3 -109.232545 -90.789113 -46.845494
1434 3 -130.024446 -86.529564 -62.721334
1435 2 -69.909251 99.008776 0.985944
1436 3 -96.472092 113.776279 23.766013
1437 3 -70.970296 74.992314 36.030875
1438 2 -3.004640 92.829839 -93.442022
1439 3 21.212057 85.659491 -82.502429
1440 3 14.130182 87.379103 -98.161503
1441 2 -62.426258 68.528471 11.239879
1442 3 -63.756971 78.873777 12.635325
1443 3 -59.092871 37.408276 -24.939646
1444 2 -121.088074 51.593839 -93.904413
1445 3 -132.966245 71.911968 -96.737961
1446 3 -114.762448 57.724489 -98.634061
1447 2 -31.863853 54.489424 2.334637
1448 3 -22.798049 80.687572 26.319072
1449 3 -7.508738 40.672341 25.332793
1450 2 -30.463435 89.475029 14.005884
1451 3 -14.605520 87.614123 25.578885
1452 3 -7.363410 76.808013 42.186249
1453 2 43.721926 75.281279 12.686051
1454 3 36.360473 77.516730 50.570823
1455 3 27.894486 72.086087 23.510947
1456 2 -4.885641 81.034663 53.230339
1457 3 -6.920593 69.093568 22.138913
1458 3 4.203852 82.248992 56.256679
1459 2 128.411269 52.577805 32.132871
1460 3 135.357958 28.670436 71.916378
1461 3 104.791927 40.316065 55.682782
1462 2 13.342443 88.581496 104.442900
1463 3 14.662496 77.159992 118.898773
1464 3 -0.988520 87.153639 92.168454
1465 2 170.337870 207.857667 56.223010
1466 3 163.346441 180.020189 73.082010
1467 3 186.205908 212.301925 80.320884
1468 2 -192.173504 31.788463 81.391010
1469 3 -157.920232 48.576915 98.077304
1470 3 -167.079886 25.678187 87.369949
1471 2 -51.149307 -38.759407 53.821988
1472 3 -55.039740 -38.318004 62.383590
1473 3 -49.627671 -50.686126 32.247857
1474 2 -93.251634 74.999790 105.170174
1475 3 -104.409549 85.710889 150.168022
1476 3 -116.497444 99.079400 126.609250
1477 2 -133.841021 116.613505 -29.842499
1478 3 -128.814316 163.410315 -30.148004
1479 3 -133.681534 176.018254 -18.240579
1480 2 -100.227670 171.411295 26.682306
1481 3 -99.505047 187.970798 39.379640
1482 3 -90.122555 184.498960 38.693586
1483 2 -99.238566 155.742384 57.059239
1484 3 -96.911618 163.898570 56.449355
1485 3 -98.795379 149.752793 69.330327
1486 2 -37.952193 83.942737 -24.044373
1487 3 -50.969120 90.281487 -21.448612
1488 3 -51.693689 83.301295 -18.525732
1489 2 -41.407968 -59.028352 -0.493258
1490 3 -47.889113 -30.914392 -24.797203
1491 3 -56.236917 -38.232883 -32.657618
1492 2 88.672131 -1.512562 -117.448766
1493 3 76.584648 -1.758296 -140.291427
1494 3 59.500247 2.886178 -103.485092
1495 2 64.610859 97.260451 116.569861
1496 3 59.858782 103.773039 95.052749
1497 3 42.522922 105.797831 94.538213
1498 2 14.522136 -13.465754 69.137640
1499 3 10.507376 -44.442176 25.484353
1500 3 9.677841 -5.386388 29.794855
1501 2 64.281775 158.802732 -121.145928
1502 3 45.210800 125.159658 -132.465968
1503 3 57.276313 147.056161 -105.659194
1504 2 86.867134 126.763725 53.405761
1505 3 69.605393 145.134583 42.363196
1506 3 92.294492 133.262242 50.814710
1507 2 10.629972 95.629145 68.962903
1508 3 14.735742 94.378144 40.709599
1509 3 13.306614 95.656110 54.659616
1510 2 -108.003089 120.035168 -14.920012
1511 3 -101.715510 141.323903 -16.262575
1512 3 -108.381655 129.452755 -25.548197
1513 2 94.515579 -35.699017 95.364071
1514 3 123.424188 -31.198556 122.431531
1515 3 110.821719 -28.323453 88.911494
1516 2 -47.832208 63.569856 82.348830
1517 3 -55.459670 76.795701 98.070025
1518 3 -58.709597 42.895194 70.681658
1519 2 -80.427109 -9.506564 68.591774
1520 3 -96.941421 -16.910722 82.983818
1521 3 -105.696810 7.833511 80.601133
1522 2 64.923125 118.692851 138.084865
1523 3 70.810442 133.809520 117.140757
1524 3 73.641531 112.450777 113.419220
1525 2 3.198075 104.100927 -29.950635
1526 3 24.598189 77.052715 -25.319636
1527 3 6.506540 122.001242 -25.091333
1528 2 140.010448 91.260711 68.583840
1529 3 125.181345 41.762002 57.586426
1530 3 146.272526 67.896132 51.894259
1531 2 30.816013 125.549937 -2.989144
1532 3 28.899464 120.623544 -52.894232
1533 3 10.667841 139.654510 -50.843424
1534 2 50.820518 30.531263 53.578578
1535 3 35.362175 21.409062 18.112384
1536 3 19.470218 16.300528 11.819005
1537 2 141.696969 135.870704 30.688271
1538 3 121.371352 127.761932 29.817313
1539 3 132.141001 135.801015 23.958698
1540 2 91.194696 78.443302 -9.551757
1541 3 93.370963 66.465136 -15.616816
1542 3 107.329881 89.998208 -36.816517
1543 2 208.353980 25.272490 59.034561
1544 3 216.136892 6.876896 79.727624
1545 3 225.143333 19.841434 64.172323
1546 2 -43.034848 -21.362449 119.506056
1547 3 -20.183738 -11.713728 93.763458
1548 3 -33.344770 -7.010783 117.518178
1549 2 44.690070 43.685249 -102.461824
1550 3 38.394036 13.538129 -76.200908
1551 3 41.625262 34.145339 -88.551596
1552 2 7.236514 48.962359 51.129850
1553 3 -0.815186 6.667892 30.313555
1554 3 18.433773 32.166171 21.756415
1555 2 -9.012047 68.601702 3.455485
1556 3 -32.935459 82.353494 -0.735065
1557 3 -42.367726 63.411199 -26.593584
1558 2 -30.964150 91.675287 23.649753
1559 3 0.426936 68.269139 38.399157
1560 3 -17.431897 86.235437 57.647155
1561 2 149.012513 40.689148 0.666348
1562 3 157.930643 26.693357 -9.109476
1563 3 180.691620 15.983781 2.753438
1564 2 121.578315 85.139124 73.828908
1565 3 101.285773 111.343738 63.083833
1566 3 90.837126 88.155069 75.964215
1567 2 114.726339 -57.972331 -37.879447
1568 3 123.551544 -59.983120 -6.603912
1569 3 128.979198 -51.466775 -59.742054
1570 2 53.943102 127.983641 134.843709
1571 3 63.126316 137.704097 101.687292
1572 3 39.490200 134.801660 96.136829
1573 2 203.977302 96.729221 -12.873640
1574 3 191.945646 134.715984 -20.972576
1575 3 200.938973 125.130139 -0.143759
1576 2 -36.294112 -9.195281 -88.357180
1577 3 -33.865094 -15.933352 -81.771520
1578 3 -39.000618 3.972555 -72.643120
1579 2 76.871183 86.407732 47.759495
1580 3 54.228198 110.248916 62.760628
1581 3 75.667320 92.085536 59.164304
1582 2 171.253566 10.832346 12.408893
1583 3 175.153360 18.205294 29.320434
1584 3 177.116901 23.073861 15.255503
1585 2 -23.805305 50.208120 97.893977
1586 3 5.469076 43.653101 55.678416
1587 3 -12.402752 42.947510 92.440155
1588 2 -54.548491 153.041343 1.738763
1589 3 -35.678077 137.773109 12.042530
1590 3 -41.393314 153.585154 4.505541
1591 2 -80.419277 142.398458 -62.344097
1592 3 -52.109028 120.521569 -54.599222
1593 3 -67.708013 126.349013 -46.386240
1594 2 -44.450747 143.805774 110.504540
1595 3 -53.187433 145.039305 101.456378
1596 3 -58.151854 153.620504 126.132070
1597 2 -7.807269 85.035044 38.250897
1598 3 -25.078102 53.655975 53.484638
1599 3 -15.979532 75.044035 51.448624
1600 2 -74.887993 93.030627 71.872084
1601 3 -63.184296 102.483297 43.079072
1602 3 -59.611180 102.343175 29.249479
1603 2 22.386724 254.217399 83.472106
1604 3 15.199640 250.874798 112.901954
1605 3 16.412138 238.567751 79.562167
1606 2 -24.355391 -47.848589 41.233649
1607 3 -23.481135 -27.907448 16.147897
1608 3 -37.326095 -34.699153 24.015326
1609 2 20.583841 133.100126 40.193617
1610 3 18.713331 132.546903 53.527206
1611 3 28.871022 140.865630 39.146338
1612 2 64.079892 83.960192 83.592231
1613 3 53.600806 88.949827 31.935881
1614 3 63.721838 77.614623 67.540316
1615 2 14.573822 64.358878 -49.615467
1616 3 -5.566196 87.411085 -71.139960
1617 3 -2.593307 69.959449 -55.738025
1618 2 79.354875 -1.533630 -8.818486
1619 3 81.577885 17.937111 -0.444794
1620 3 64.560394 15.712977 2.320227
1621 2 58.211199 -15.533214 26.175146
1622 3 56.504532 0.321563 34.467069
1623 3 62.160685 -20.602273 56.135096
1624 2 -21.213909 62.057022 -83.910194
1625 3 -23.098964 52.010491 -90.330075
1626 3 -6.258775 53.817688 -96.906075
1627 2 -59.064246 50.451050 59.644446
1628 3 -45.218276 23.570451 70.838723
1629 3 -37.187604 45.042754 51.751292
1630 2 -69.498263 199.111752 50.667348
1631 3 -68.050541 163.741798 29.122871
1632 3 -44.547160 145.002100 67.682422
1633 2 -76.831086 55.152650 110.325023
1634 3 -101.464632 42.249974 105.871654
1635 3 -90.078061 67.016401 115.728868
1636 2 63.100193 167.928572 11.773330
1637 3 40.345123 171.667168 12.487194
1638 3 39.830609 160.826103 -2.271644
1639 2 -56.620191 92.718825 47.051613
1640 3 -58.408186 80.724032 39.317417
1641 3 -43.398754 81.503647 64.128284
1642 2 104.419973 99.218451 -45.403132
1643 3 103.826080 86.695701 -30.505396
1644 3 98.255239 78.098443 -46.025924
1645 2 107.885639 53.836248 130.610866
1646 3 121.458897 23.085072 134.464665
1647 3 114.685394 54.956291 144.537138
1648 2 -17.652452 196.674277 -80.319757
1649 3 -14.079283 208.237804 -75.654921
1650 3 -17.121252 202.978338 -78.101140
1651 2 19.373391 123.109041 -28.811260
1652 3 24.065338 123.419444 -39.505939
1653 3 53.669848 136.619766 -62.952561
1654 2 129.108563 40.471527 99.004328
1655 3 137.672223 29.131385 91.886202
1656 3 133.031910 36.719851 113.779878
1657 2 44.204486 -50.906915 -65.099382
1658 3 39.086858 -37.140440 -79.062871
1659 3 56.494931 -48.643963 -84.487281
1660 2 148.894376 63.796001 -37.684408
1661 3 154.826794 54.952516 -3.241872
1662 3 147.621647 57.830110 -62.921950
1663 2 -48.506503 45.000573 7.629111
1664 3 -42.202286 56.069742 -4.958411
1665 3 -35.692713 60.975777 9.907118
1666 2 -90.352098 111.377393 135.107348
1667 3 -76.363502 132.754403 129.646450
1668 3 -95.798314 82.361469 111.730528
1669 2 22.255624 227.266270 50.376507
1670 3 18.346046 205.996754 29.381516
1671 3 -1.139662 227.465932 19.732872
1672 2 -20.576398 81.579775 55.534943
1673 3 -5.944868 100.009393 15.741283
1674 3 -29.157693 101.575959 79.461910
1675 2 -50.371295 111.378830 3.605188
1676 3 -35.331753 121.708864 -13.518214
1677 3 -44.431273 125.236463 -14.594237
1678 2 27.402642 102.810585 28.958360
1679 3 31.305731 101.698741 29.782090
1680 3 12.221411 103.493234 -11.464216
1681 2 -111.727237 91.691905 49.247811
1682 3 -116.301956 85.332272 38.184269
1683 3 -115.646160 63.791284 56.260400
1684 2 -78.447897 160.084545 198.312968
1685 3 -95.936356 141.832608 210.233298
1686 3 -90.612146 113.299693 190.791105
1687 2 38.294848 185.781183 -67.867049
1688 3 14.289244 202.921535 -53.610371
1689 3 28.486017 210.808119 -58.938315
1690 2 59.321185 26.594226 -42.423008
1691 3 60.102459 18.002777 -40.792084
1692 3 55.650684 17.557424 -56.308433
1693 2 4.608959 -9.449524 63.050066
1694 3 12.621206 24.245519 46.325858
1695 3 -7.895615 -9.711060 53.295439
1696 2 1.058599 104.850544 -35.896251
1697 3 32.365044 104.960425 -13.704442
1698 3 -1.580957 108.236720 -48.073226
1699 2 170.987319 159.348034 15.344477
1700 3 154.724643 159.994991 14.597746
1701 3 168.458264 136.840539 11.134517
1702 2 73.959938 86.637446 36.066540
1703 3 77.224926 80.459200 31.119378
1704 3 67.394998 56.568644 18.736465
1705 2 -72.229247 -57.222402 39.329230
1706 3 -81.553589 -56.268607 25.588347
1707 3 -80.938084 -45.616189 41.534481
1708 2 -32.514275 -70.338180 80.769699
1709 3 -12.250755 -90.009772 114.818516
1710 3 -26.356859 -68.117313 86.433298
1711 2 0.109327 -48.923136 -54.129519
1712 3 1.939032 -58.388145 -14.290785
1713 3 -5.483254 -63.490277 -26.362827
1714 2 112.252611 59.177878 147.351145
1715 3 93.400099 57.797960 162.735878
1716 3 92.536952 55.527691 144.625475
1717 2 -27.599528 89.000336 113.363579
1718 3 -14.165048 93.531281 124.329272
1719 3 -2.299039 118.529154 145.094887
1720 2 -135.230729 120.061099 10.533032
1721 3 -105.943584 111.614428 20.686520
1722 3 -106.783800 95.494717 41.434713
1723 2 103.923153 -2.167894 20.894745
1724 3 126.012293 8.084900 7.270793
1725 3 122.844205 20.184478 27.381745
1726 2 15.076422 -76.683187 -15.576812
1727 3 40.886289 -80.107784 -45.185236
1728 3 42.678439 -51.016105 -45.213310
1729 2 27.323615 1.382898 -27.792836
1730 3 6.427452 -3.248297 -28.255679
1731 3 23.475008 0.253896 -40.463943
1732 2 105.149904 59.057631 66.776277
1733 3 87.768680 71.449913 73.531342
1734 3 79.718614 45.927132 41.493834
1735 2 54.859482 17.665386 41.906719
1736 3 59.260742 11.849289 11.883371
1737 3 34.101947 17.739555 10.947230
1738 2 18.423289 -25.528863 -22.667464
1739 3 34.101380 -20.408889 -2.107996
1740 3 29.627650 1.358191 -21.568553
1741 2 15.801346 -91.599517 -125.804463
1742 3 4.064059 -82.663579 -135.496027
1743 3 18.951399 -72.715066 -141.168013
1744 2 42.905434 -46.865472 70.314348
1745 3 29.018190 -55.024859 15.913695
1746 3 34.635092 -22.401833 45.880634
1747 2 -22.400077 -22.685020 127.284961
1748 3 -32.069880 -26.356288 102.868553
1749 3 -23.322292 -19.983344 89.370873
1750 2 23.616512 50.241108 99.090682
1751 3 28.152474 58.710966 70.485036
1752 3 18.628315 56.753996 82.947883
1753 2 -56.900422 -9.640375 -34.128045
1754 3 -66.628911 -21.330512 -26.721012
1755 3 -50.416146 0.768424 -48.476433
1756 2 -29.039076 63.328207 -10.482674
1757 3 -17.786938 26.291870 -5.870399
1758 3 -19.374424 48.054025 -21.675656
1759 2 24.920581 -43.953084 -8.357022
1760 3 10.294109 -45.577244 -10.823030
1761 3 13.912631 -27.597057 -12.616231
1762 2 71.445260 36.175328 59.271942
1763 3 66.096093 32.096094 43.920487
1764 3 75.841190 25.859549 34.732212
1765 2 6.484563 -51.508123 184.624373
1766 3 6.301948 -50.649819 162.262767
1767 3 16.564449 -72.952990 152.163290
1768 2 12.588450 37.931761 21.424566
1769 3 12.476576 37.301607 21.771300
1770 3 21.909566 25.199438 6.825885
1771 2 50.294701 72.842934 26.310622
1772 3 38.469884 34.807164 55.904118
1773 3 37.810462 74.642763 29.546929
1774 2 -9.690635 -30.986403 -63.744076
1775 3 10.979650 -6.016109 -81.956019
1776 3 -1.325166 -15.952350 -54.962606
1777 2 126.097595 94.099115 -73.462561
1778 3 132.858964 89.436060 -85.946490
1779 3 111.713904 125.323750 -77.963675
1780 2 -1.932510 50.934737 -1.088522
1781 3 19.995350 45.827796 -10.224364
1782 3 16.002481 69.034367 8.308587
1783 2 -146.054941 118.413875 -30.064160
1784 3 -155.022163 140.515559 -20.599727
1785 3 -144.152237 107.263349 -35.183595
1786 2 59.105942 -36.421330 74.406678
1787 3 49.615731 -30.514451 66.343395
1788 3 68.411159 -35.620274 36.354678
1789 2 -53.381720 74.448388 76.068015
1790 3 -41.375738 59.000938 68.468018
1791 3 -30.233491 71.833236 47.889379
1792 2 106.617956 -6.817297 23.864283
1793 3 110.558984 5.140149 26.592950
1794 3 113.129495 -12.325752 7.918053
1795 2 -6.356379 107.026284 -33.182976
1796 3 2.321393 74.049751 -51.633984
1797 3 -10.663947 97.747809 -46.943242
1798 2 -10.106808 37.920081 163.611680
1799 3 1.815524 42.080619 131.486022
1800 3 7.199522 73.932336 111.094607
1801 2 48.090739 141.827795 74.680307
1802 3 35.429730 110.740448 59.982269
1803 3 55.874336 116.825947 66.616517
1804 2 93.021539 -74.516599 61.966212
1805 3 110.016038 -74.196419 35.840724
1806 3 97.258783 -50.521624 53.128653
1807 2 -22.554831 45.805070 5.119322
1808 3 -5.611496 44.085167 44.979888
1809 3 -27.129685 69.778407 -0.670353
1810 2 149.495535 -5.826229 84.851995
1811 3 165.584253 -15.240896 72.731187
1812 3 146.707701 -23.809039 100.398144
1813 2 -61.369723 -102.230458 95.600571
1814 3 -92.598476 -82.288405 77.596358
1815 3 -86.545507 -69.073496 105.943366
1816 2 3.808661 22.234945 19.720212
1817 3 23.845000 -7.956064 32.772906
1818 3 18.933878 5.919013 9.734056
1819 2 -106.850775 -2.171660 137.242572
1820 3 -114.453778 -13.057538 144.976335
1821 3 -96.718903 -4.572468 103.860176
1822 2 -3.470758 80.830173 128.093608
1823 3 1.991075 87.221853 80.884782
1824 3 -22.891178 97.704120 101.532316
1825 2 -108.286640 -70.075351 57.922835
1826 3 -91.649713 -59.225172 56.973042
1827 3 -105.733687 -59.179141 72.922582
1828 2 180.167469 -127.679594 62.459990
1829 3 183.366814 -119.547127 69.872683
1830 3 186.425122 -107.140279 34.801016
1831 2 -45.940541 32.846405 45.443400
1832 3 -37.924640 44.960592 42.151917
1833 3 -47.663736 22.664435 28.648942
1834 2 108.714122 39.755789 88.263571
1835 3 106.219010 60.400546 110.210502
1836 3 117.425616 42.857048 86.997667
1837 2 69.269524 32.058513 -34.392339
1838 3 51.023556 20.045603 -23.026317
1839 3 58.641793 5.842170 -26.372030
1840 2 -100.851876 -74.992683 165.266412
1841 3 -81.910611 -61.312765 185.672929
1842 3 -94.958677 -65.145446 199.735061
1843 2 87.621660 10.677735 51.749590
1844 3 100.904205 6.740766 44.174219
1845 3 91.894456 -12.927443 40.952410
1846 2 181.291472 13.782022 10.044360
1847 3 176.313155 34.137371 48.590178
1848 3 179.950140 32.989590 14.667154
1849 2 -39.919142 23.222824 142.019289
1850 3 -38.204439 8.006921 152.035134
1851 3 -28.174739 24.763651 146.358747
1852 2 119.418860 85.203112 5.645544
1853 3 145.484321 45.293816 45.891754
1854 3 144.233777 72.629443 22.228037
1855 2 -87.050492 -96.085252 25.007201
1856 3 -75.334372 -117.099298 34.987847
1857 3 -103.909297 -115.838893 60.720550
1858 2 -1.564900 119.805249 56.079935
1859 3 6.853779 125.168614 58.414228
1860 3 -6.494676 148.581744 39.935093
1861 2 -189.083693 56.547788 68.053759
1862 3 -168.456615 67.208739 77.319065
1863 3 -174.275494 79.656927 63.389680
1864 2 2.779337 -32.232238 0.403291
1865 3 10.792470 -41.268943 49.884889
1866 3 11.555679 -26.659785 -10.076582
1867 2 -55.557303 19.576549 13.735771
1868 3 -61.504172 28.565694 9.943376
1869 3 -58.711254 35.578514 29.259959
1870 2 -43.252714 186.348957 70.460551
1871 3 -8.934925 167.709645 60.860687
1872 3 -5.847790 200.332899 52.153775
1873 2 85.839921 29.806483 -7.633650
1874 3 77.417198 37.461269 -6.807859
1875 3 84.919221 22.680867 33.562100
1876 2 -93.035612 87.743504 98.239329
1877 3 -91.546391 57.670362 125.346239
1878 3 -84.896947 77.968290 126.498263
1879 2 -42.413594 112.348673 203.859870
1880 3 -31.358782 133.545497 191.216657
1881 3 -37.081466 60.923748 185.949705
1882 2 -27.998416 -51.503053 143.566651
1883 3 -36.514602 -29.954724 161.316018
1884 3 -34.828408 -54.163582 185.297640
1885 2 12.008806 44.116929 79.324929
1886 3 8.385319 35.635278 64.517869
1887 3 7.500251 48.701646 68.678811
1888 2 99.279266 9.736828 -34.487208
1889 3 113.564288 5.698154 -25.697652
1890 3 92.349684 3.372264 -36.744592
1891 2 4.699561 -3.550011 47.514747
1892 3 15.035955 -15.144170 61.298038
1893 3 -7.683250 -13.030980 85.476134
1894 2 202.241480 -24.079063 -117.091328
1895 3 210.738424 -60.464442 -99.683059
1896 3 180.984687 -40.869233 -91.767851
1897 2 -147.092409 3.314610 111.400159
1898 3 -157.035682 7.368971 98.108783
1899 3 -149.561403 -4.185109 79.285558
1900 2 -43.320342 -56.880603 -98.556250
1901 3 -39.413732 -37.365969 -110.657323
1902 3 -28.869821 2.872260 -99.797728
1903 2 -75.575914 -2.866407 -7.758709
1904 3 -50.187904 12.415086 -15.066571
1905 3 -29.707366 8.022174 2.357955
1906 2 155.267676 -20.489483 86.007525
1907 3 153.289271 -4.646040 66.983513
1908 3 163.904991 -16.999595 69.338773
1909 2 67.616299 -62.146644 -56.055174
1910 3 69.219148 -60.624270 -68.128703
1911 3 71.476190 -91.830652 -87.190680
1912 2 13.234459 115.510472 3.250427
1913 3 18.965539 110.198795 -15.013894
1914 3 30.402440 114.307304 2.090603
1915 2 115.140303 80.392951 1.558519
1916 3 116.967996 90.485605 9.704119
1917 3 117.046994 95.924534 16.654401
1918 2 -2.513183 0.366640 82.009350
1919 3 -17.647294 -7.741299 62.172576
1920 3 2.908291 -0.652429 82.088730
1921 2 161.540070 133.144317 125.894771
1922 3 175.189387 140.197615 109.237635
1923 3 174.090367 151.879158 159.907949
1924 2 1.560387 75.075797 94.458880
1925 3 -6.480174 67.687332 71.857305
1926 3 -9.761575 57.365847 95.419703
1927 2 -142.195512 30.036778 74.896714
1928 3 -116.959871 43.936294 48.904415
1929 3 -127.397542 43.689027 56.225757
1930 2 -73.589226 36.508608 45.554784
1931 3 -62.612725 31.997636 74.519159
1932 3 -80.466081 28.018269 53.077946
1933 2 -80.717415 11.677554 -56.536842
1934 3 -82.717118 30.372960 -51.118563
1935 3 -79.075979 52.714412 -29.043899
1936 2 -27.194774 69.376748 -72.127690
1937 3 -38.982216 85.377969 -64.641318
1938 3 -49.837155 85.835002 -62.364108
1939 2 81.874717 -59.586030 46.329150
1940 3 64.187115 -58.280856 -15.037971
1941 3 63.977797 -58.215546 -1.233405
1942 2 156.101003 79.998442 -39.705129
1943 3 151.732274 81.265362 -50.344850
1944 3 172.401935 80.773910 -34.965048
1945 2 56.653444 146.272669 182.269952
1946 3 48.650075 155.859168 172.161830
1947 3 20.675451 181.882182 146.394986
1948 2 -68.589439 105.445670 -8.055350
1949 3 -68.981544 77.400349 25.635986
1950 3 -82.164533 93.909602 8.996322
1951 2 -29.285859 -4.248630 156.123556
1952 3 -37.784534 0.990933 152.410589
1953 3 -21.980807 -7.241706 168.479180
1954 2 -47.864204 28.066838 79.962127
1955 3 -65.213500 30.391490 90.508099
1956 3 -44.879686 26.240922 69.668197
1957 2 175.216231 108.955237 100.860959
1958 3 161.457085 113.939231 111.166458
1959 3 169.661147 88.491981 126.492773
1960 2 -76.331980 116.569534 60.892530
1961 3 -45.551905 104.829045 81.353507
1962 3 -63.079940 97.114421 58.458150
1963 2 23.063452 102.039644 -29.483488
1964 3 34.471703 123.899892 -15.625873
1965 3 22.862891 97.410494 -9.988212
1966 2 61.193027 -27.603910 62.946778
1967 3 45.441687 -45.607189 87.599410
1968 3 58.159785 -51.119509 99.189399
1969 2 -67.584836 -20.371901 76.716769
1970 3 -120.757638 -2.528969 67.196708
1971 3 -103.854327 6.564215 66.531182
1972 2 35.948763 34.986065 80.007329
1973 3 34.366016 80.758922 40.470991
1974 3 24.153151 65.124061 58.683406
1975 2 -4.444873 3.787370 188.877624
1976 3 -5.864392 19.793542 169.469715
1977 3 2.824993 -4.901344 187.497233
1978 2 -84.028420 -75.230037 43.101595
1979 3 -98.941567 -84.562974 23.634614
1980 3 -81.643063 -76.885084 3.204915
1981 2 -24.575699 12.620807 195.624294
1982 3 -18.118530 16.018281 195.725575
1983 3 -25.694833 24.390177 191.790118
1984 2 15.902306 166.413389 69.318048
1985 3 9.408291 166.965836 76.326164
1986 3 17.891185 132.676481 59.527979
1987 2 -17.914297 62.849325 50.989275
1988 3 -12.178406 64.507702 97.489137
1989 3 -4.044217 52.943054 79.314070
1990 2 -2.625182 115.133931 131.526403
1991 3 2.048364 147.920053 102.216598
1992 3 -15.914581 138.614689 96.471008
1993 2 64.960957 78.860751 84.333520
1994 3 67.532987 68.685094 67.564567
1995 3 85.995106 68.963800 36.309944
1996 2 25.399774 113.571508 68.676583
1997 3 23.976714 124.675790 86.246922
1998 3 42.583282 104.307211 79.548675
1999 2 203.993164 13.966641 28.424864
2000 3 223.013859 26.783321 32.799970
2001 3 208.821522 18.325980 29.687051
2002 2 42.680404 28.802078 169.504035
2003 3 42.831752 54.620759 162.605397
2004 3 39.088704 58.574462 187.567718
2005 2 33.303710 49.416110 88.400764
2006 3 37.689598 48.327212 58.345075
2007 3 48.438795 33.001739 66.412510
2008 2 69.452805 72.790954 4.204571
2009 3 57.955631 72.794242 -16.804175
2010 3 65.127125 81.411585 14.486899
2011 2 119.082039 -10.665233 77.860868
2012 3 149.413437 0.505746 75.095430
2013 3 139.398530 -7.107733 68.937112
2014 2 -24.971416 80.843188 100.501123
2015 3 -38.331906 76.547568 54.695551
2016 3 -52.952498 89.468704 100.340556
2017 2 10.659916 35.419887 61.083648
2018 3 19.719316 55.694105 75.748335
2019 3 23.864812 25.816733 80.850204
2020 2 -41.529198 -50.347489 69.385899
2021 3 -31.482344 -12.367222 66.564917
2022 3 -44.888800 -19.222556 31.714038
2023 2 -9.452834 137.160012 88.309940
2024 3 -4.333223 115.553949 88.268106
2025 3 -20.885580 121.952733 72.567682
2026 2 -48.659933 150.576546 80.787468
2027 3 -49.783436 154.227991 72.871637
2028 3 -44.381239 160.137805 97.373030
2029 2 10.833448 214.552204 162.044446
2030 3 28.482900 206.877644 169.512689
2031 3 -1.132675 191.332359 142.755153
2032 2 -79.272171 46.783418 44.555291
2033 3 -86.233434 53.745809 67.212867
2034 3 -75.210597 49.240480 34.650195
2035 2 -59.406977 138.666506 64.682467
2036 3 -61.703118 141.009501 90.153369
2037 3 -68.820972 114.487300 93.175540
2038 2 -138.664670 90.085846 -5.782848
2039 3 -159.071005 95.107304 10.364752
2040 3 -135.797894 82.815309 0.069944
2041 2 33.104838 106.079088 5.799426
2042 3 25.586807 128.529513 10.921927
2043 3 44.560064 113.923099 16.742885
2044 2 86.662537 49.870891 91.436497
2045 3 72.685403 32.165472 83.161582
2046 3 85.909342 46.146942 95.569955
2047 2 8.778001 154.705740 -2.509420
2048 3 10.930399 154.399861 6.773875
2049 3 23.835849 138.810285 23.486111
2050 2 130.586605 8.119094 -64.246405
2051 3 112.350214 9.494703 -25.012285
2052 3 121.804993 20.520436 -30.508652
2053 2 -59.755834 162.973404 68.904351
2054 3 -79.840328 132.429336 74.134279
2055 3 -56.799269 150.376047 51.659910
2056 2 -166.279085 27.722905 100.416577
2057 3 -159.684205 -3.836687 82.376194
2058 3 -163.405543 -2.328498 60.363242
2059 2 -49.624423 136.493220 47.618148
2060 3 -47.260032 133.852996 16.728069
2061 3 -64.837275 122.742861 -4.342898
2062 2 -120.367215 17.356059 -17.581878
2063 3 -101.464817 28.013995 12.944772
2064 3 -106.789187 42.069507 -10.330180
2065 2 -7.934963 125.968055 -20.494058
2066 3 9.680759 124.396958 -40.868123
2067 3 2.648166 122.246936 -7.096216
2068 2 -70.433777 -48.948634 40.527796
2069 3 -88.970624 -20.134357 45.881112
2070 3 -56.750634 -58.588751 44.667960
2071 2 28.394108 137.640779 71.741552
2072 3 -0.725074 172.058496 60.269636
2073 3 30.671994 129.519456 60.160287
2074 2 26.331144 127.687310 48.849547
2075 3 55.221480 132.514138 63.841922
2076 3 53.786311 134.253272 56.298971
2077 2 -6.525883 171.072422 62.688897
2078 3 -21.971058 165.429793 86.180551
2079 3 -36.610917 152.947958 103.519566
2080 2 35.798112 153.541792 118.095542
2081 3 13.365857 144.703868 130.794165
2082 3 48.113710 154.498035 124.649824
2083 2 45.834221 144.482730 -55.699692
2084 3 78.583168 123.414845 -25.780366
2085 3 59.707007 135.568009 -39.190686
2086 2 -56.634698 111.922907 -62.503696
2087 3 -64.032512 100.306644 -28.955022
2088 3 -57.551811 112.847890 -56.946120
2089 2 -14.060432 -64.703807 4.588797
2090 3 -15.066160 -41.120724 10.974066
2091 3 -14.418332 -31.210362 34.873144
2092 2 64.960437 102.891167 -46.314975
2093 3 51.280375 85.591900 -51.997151
2094 3 63.851964 105.824948 -39.568195
2095 2 89.749094 98.125757 125.168927
2096 3 62.015590 130.812018 108.201064
2097 3 70.841175 96.172212 122.496887
2098 2 -89.431707 14.066320 0.335176
2099 3 -76.003411 1.566052 -8.789060
2100 3 -79.129224 4.266582 -16.090861
2101 2 -8.466567 108.460291 40.494655
2102 3 -11.344439 134.019856 3.819565
2103 3 -11.511996 98.107778 24.112047
2104 2 79.235272 124.938618 12.744043
2105 3 97.058882 124.990245 36.546292
2106 3 88.726152 96.812145 0.574587
2107 2 10.983193 20.594051 26.112047
2108 3 43.697228 64.397547 9.077400
2109 3 37.875913 19.522570 13.919797
2110 2 -205.546664 128.944438 -40.321971
2111 3 -187.985992 145.030494 -11.708750
2112 3 -200.286151 126.922260 -19.663841
2113 2 40.354305 122.227543 73.374013
2114 3 40.345850 111.706703 82.761858
2115 3 46.629891 92.859351 78.170040
2116 2 22.196886 74.309459 -20.755764
2117 3 50.639607 87.740205 -13.667421
2118 3 41.059153 73.125638 -12.806060
2119 2 9.946165 34.498694 75.806504
2120 3 23.181771 33.935703 76.016881
2121 3 19.423675 59.334205 92.693161
2122 2 140.224954 177.234384 -42.327087
2123 3 157.094383 187.765373 -10.639897
2124 3 169.523919 163.612638 -25.990591
2125 2 -10.085251 231.362730 -13.214996
2126 3 5.713901 219.844359 -14.574058
2127 3 -29.154762 213.318377 -34.067339
2128 2 119.628936 69.989374 9.393640
2129 3 120.331567 77.626361 -26.883410
2130 3 108.046920 80.336726 -51.062695
2131 2 133.646922 180.071792 58.564988
2132 3 140.813960 171.270002 72.145230
2133 3 139.892866 153.538629 88.357472
2134 2 -75.372364 -54.976319 73.962904
2135 3 -74.274534 -54.025413 76.055071
2136 3 -77.601234 -30.163023 56.949738
2137 2 -178.601873 159.205874 -18.625685
2138 3 -170.968551 168.185494 -24.379880
2139 3 -188.101676 152.306687 -20.033678
2140 2 29.423311 236.506856 26.867848
2141 3 38.545688 214.227943 31.293778
2142 3 36.750819 213.093338 -12.905227
2143 2 54.276260 175.041607 197.276129
2144 3 55.704372 175.815292 214.431102
2145 3 58.446840 179.179118 224.375806
2146 2 -26.824330 104.219573 -23.801290
2147 3 -23.685317 111.944596 -12.905893
2148 3 -22.519637 124.345773 -46.966851
2149 2 88.439562 46.951302 43.521695
2150 3 106.164262 49.555862 -0.451308
2151 3 75.986263 60.813737 37.688264
2152 2 54.550700 138.838451 93.502167
2153 3 51.630615 182.787338 79.878495
2154 3 60.885241 170.458473 109.891878
2155 2 20.881619 200.348013 44.850742
2156 3 39.530896 200.639600 21.092467
2157 3 42.627971 185.132781 39.290836
2158 2 72.483061 246.705479 79.977959
2159 3 48.188786 259.316551 58.718183
2160 3 73.085883 272.764785 91.492489
2161 2 76.989202 204.354509 -29.643234
2162 3 67.404279 232.403493 -45.350494
2163 3 80.061216 202.579226 -26.470617
2164 2 60.285697 84.342557 127.998019
2165 3 55.825911 88.580302 108.876415
2166 3 65.886676 113.461140 63.188920
2167 2 146.635685 28.848849 -1.508015
2168 3 147.542285 -7.550835 2.757365
2169 3 123.028194 13.084835 -20.219303
2170 2 -17.877398 78.599656 -31.456185
2171 3 -20.542862 57.325639 -31.650445
2172 3 -1.686018 79.663271 -16.673055
2173 2 -14.994554 -70.011083 -39.039793
2174 3 -34.432623 -52.834872 -84.113062
2175 3 -27.088762 -60.380910 -54.189727
2176 2 -49.150910 -10.989533 94.757138
2177 3 -54.854259 8.132261 91.493416
2178 3 -59.666384 -18.500356 127.462135
2179 2 -64.290551 104.562194 12.856359
2180 3 -68.901733 91.126959 20.141221
2181 3 -67.540465 86.019817 40.903939
2182 2 -6.669768 16.927110 39.851541
2183 3 -8.190990 12.538223 28.529769
2184 3 -17.620093 25.639136 48.358897
2185 2 -126.272578 -64.188831 53.626209
2186 3 -89.120239 -77.494061 1.649054
2187 3 -93.867003 -80.911057 41.536432
2188 2 6.049925 -19.654130 49.960596
2189 3 0.780458 -18.906942 39.510198
2190 3 3.333040 -64.580295 65.262382
2191 2 112.866119 -16.063984 14.407937
2192 3 111.398880 -28.180612 44.443909
2193 3 111.250332 -25.053391 42.440059
2194 2 188.313209 -20.817569 75.109218
2195 3 161.356302 -39.144041 46.343941
2196 3 164.059450 -42.504310 95.570762
2197 2 119.739517 -70.843677 66.900452
2198 3 120.019926 -76.328022 64.927981
2199 3 116.742157 -94.326929 72.329530
2200 2 -30.478019 -71.706429 38.023325
2201 3 -13.348804 -114.052253 -9.678901
2202 3 -28.616964 -65.115235 33.164506
2203 2 41.475724 57.381222 50.800540
2204 3 54.362437 75.319852 41.886681
2205 3 24.046398 47.713112 33.381608
2206 2 153.262143 -70.909778 106.175111
2207 3 177.819199 -28.417544 142.071314
2208 3 146.908120 -28.062076 141.723517
2209 2 211.133124 1.098737 57.502574
2210 3 229.019204 14.068859 62.901009
2211 3 216.102136 3.408673 73.568074
2212 2 -139.365871 48.047287 74.164766
2213 3 -123.525849 47.888899 50.173458
2214 3 -127.363993 39.363258 108.661489
2215 2 -6.381775 64.578599 -8.501338
2216 3 6.910704 69.385171 -30.037792
2217 3 11.491420 63.245625 7.855656
2218 2 -116.905271 -100.186508 0.545819
2219 3 -99.259099 -110.257826 16.217649
2220 3 -119.725100 -93.559128 13.444066
2221 2 53.666317 13.093088 28.760150
2222 3 57.417193 15.832848 21.018065
2223 3 39.669475 10.731661 43.665535
2224 2 -50.900888 -32.619438 104.074908
2225 3 -65.454690 -12.672581 139.915119
2226 3 -61.855654 -39.236654 120.860330
2227 2 78.546821 -84.983661 84.957668
2228 3 102.482222 -78.566549 106.870205
2229 3 80.131420 -86.175495 68.279663
2230 2 27.271778 74.399772 92.995700
2231 3 44.227043 66.592046 54.910954
2232 3 46.572829 92.915584 90.271432
2233 2 -131.530503 -17.969081 125.764678
2234 3 -106.892459 -14.742526 161.883436
2235 3 -141.224784 -18.936849 153.836585
2236 2 88.606894 -18.829974 23.482547
2237 3 90.849013 -30.487566 17.463853
2238 3 108.878872 -1.558626 27.999042
2239 2 29.921508 -12.664314 53.582693
2240 3 41.694792 -46.911321 55.643895
2241 3 31.982842 -64.941078 55.984088
2242 2 108.418892 -8.262234 -52.255217
2243 3 125.610975 -9.441473 -29.423304
2244 3 131.237371 -15.661078 -30.623150
2245 2 169.529342 -37.557239 96.462488
2246 3 157.914658 -40.086388 105.210741
2247 3 169.399657 -27.481329 110.658741
2248 2 -26.466994 -92.499656 -35.735370
2249 3 -11.948574 -45.483464 -70.253299
2250 3 -38.322033 -75.993018 -42.590273
2251 2 -96.921602 -38.458241 7.061283
2252 3 -81.416293 -58.021167 2.189512
2253 3 -104.052811 -37.628474 11.227113
2254 2 8.942431 90.579278 54.154357
2255 3 -4.302744 72.137652 27.466777
2256 3 15.608003 93.491355 22.319708
2257 2 -91.923626 69.291448 46.237567
2258 3 -82.510771 65.157453 38.608176
2259 3 -63.974602 88.205745 59.332685
2260 2 14.631881 28.813275 65.517219
2261 3 15.120501 47.943178 48.326710
2262 3 15.838873 26.891223 64.114616
2263 2 -4.032068 79.015287 90.260393
2264 3 16.059773 78.005962 80.981160
2265 3 -10.762308 69.547937 66.332319
2266 2 -49.405061 58.775512 -52.466055
2267 3 -44.947844 53.581348 -31.508436
2268 3 -46.043283 57.082420 -35.201032
2269 2 31.496443 45.831041 77.701311
2270 3 31.130996 50.639397 59.408725
2271 3 24.851393 11.952399 91.173592
2272 2 47.661856 57.312647 13.351989
2273 3 55.044707 58.486935 38.741943
2274 3 42.932268 61.501579 35.263254
2275 2 15.717273 22.508303 39.967491
2276 3 17.501293 8.834988 47.015249
2277 3 -2.306899 -19.105913 62.153649
2278 2 -45.819434 23.856400 -41.331317
2279 3 -53.628069 34.781381 -36.949784
2280 3 -46.879093 10.836502 -45.993108
2281 2 20.787967 -34.925993 0.640472
2282 3 4.586573 -24.002802 13.115849
2283 3 12.785603 -52.322510 -20.205773
2284 2 32.989121 102.671047 -23.688896
2285 3 37.550691 100.901246 -39.761283
2286 3 44.920880 103.043811 -42.709453
2287 2 155.168003 115.232348 -26.371707
2288 3 175.890341 98.123127 -33.250472
2289 3 147.303325 100.416678 0.590652
2290 2 -149.304671 159.502586 -83.939570
2291 3 -118.439946 167.899486 -78.812491
2292 3 -129.668299 155.592181 -118.719868
2293 2 19.044553 -48.683411 108.111739
2294 3 6.477738 -66.975730 75.027274
2295 3 -1.589618 -46.966201 97.776015
2296 2 -40.401585 -14.060671 127.925107
2297 3 -30.059695 -29.737466 111.754432
2298 3 -47.360790 -16.373828 98.329844
2299 2 -148.341659 -102.213604 96.583402
2300 3 -147.953886 -104.979583 115.647976
2301 3 -124.413049 -113.687608 107.369103
2302 2 14.919185 -35.977761 -50.145142
2303 3 6.831308 -27.952947 -34.725351
2304 3 14.977150 -25.653847 -57.781337
2305 2 -15.791084 64.201704 155.002549
2306 3 -12.527168 88.091660 159.877826
2307 3 4.336355 84.283557 178.901442
2308 2 60.110554 176.465716 48.868882
2309 3 76.385733 202.768687 72.927357
2310 3 74.849720 156.559599 80.896679
2311 2 20.549661 17.956164 -7.163265
2312 3 27.242789 20.256845 -12.446923
2313 3 32.269940 22.340067 16.105624
2314 2 73.683128 -108.024195 104.850148
2315 3 49.693268 -109.071603 104.448491
2316 3 66.015206 -106.534365 105.991092
2317 2 52.997290 53.314502 -156.387843
2318 3 82.239510 49.203545 -136.219021
2319 3 64.332388 42.111147 -158.778651
2320 2 -8.234618 7.011942 -97.450899
2321 3 2.099385 -6.372159 -86.647369
2322 3 8.055054 23.851251 -91.630156
2323 2 18.856891 69.598115 87.399901
2324 3 18.768140 41.210987 71.668654
2325 3 16.387779 53.035781 70.807983
2326 2 81.302905 103.374268 14.725510
2327 3 92.470138 101.065696 22.293527
2328 3 98.267157 110.766318 29.794674
2329 2 -115.253062 198.793055 -46.038397
2330 3 -136.230149 179.722641 -29.232028
2331 3 -131.173703 206.501658 -36.956962
2332 2 -21.282086 107.791288 122.008958
2333 3 -30.572010 115.291067 154.547031
2334 3 -41.191810 90.237744 118.517468
2335 2 41.295814 -125.429193 21.360785
2336 3 34.489884 -101.058847 28.700310
2337 3 19.529349 -110.081122 32.211738
2338 2 113.852092 148.771630 71.949923
2339 3 139.449568 119.713415 72.568272
2340 3 129.928973 123.302052 47.735097
2341 2 79.050814 83.028888 118.713149
2342 3 90.369443 63.215676 106.915375
2343 3 57.748449 84.207832 118.263517
2344 2 -46.784424 102.907961 4.456825
2345 3 -48.499361 117.807421 36.575356
2346 3 -42.544986 80.577391 45.596342
2347 2 -26.441881 133.493902 -44.756695
2348 3 -45.626916 112.527187 -52.696669
2349 3 -49.394732 108.807671 -40.240589
2350 2 41.890338 16.355506 13.843876
2351 3 43.742659 -6.432973 32.289212
2352 3 32.996009 -0.840136 36.722891
2353 2 9.631272 212.681956 101.447069
2354 3 -6.508938 188.248747 114.666381
2355 3 0.823647 216.203481 108.238844
2356 2 -23.760127 -20.006645 141.626904
2357 3 -23.306834 -55.077344 159.862631
2358 3 -21.786979 -40.823852 150.307167
2359 2 -92.027601 7.178093 75.469917
2360 3 -86.875722 -11.496241 104.278781
2361 3 -95.531056 -2.298936 66.344525
2362 2 -42.394712 70.843057 55.775608
2363 3 -36.602289 47.458057 47.229213
2364 3 -51.396721 73.177477 46.285973
2365 2 71.804193 26.763592 -37.770900
2366 3 40.861019 39.163738 -39.306692
2367 3 46.905013 14.377079 -26.862744
2368 2 106.833443 76.088288 141.576900
2369 3 73.367395 88.764578 165.307384
2370 3 98.751572 100.380172 153.072047
2371 2 -98.488767 4.046856 113.363081
2372 3 -95.301895 4.171576 145.801265
2373 3 -91.117945 -6.264424 141.817944
2374 2 -65.812069 42.049355 38.692104
2375 3 -40.203446 19.093620 69.439829
2376 3 -51.757897 18.646671 78.546635
2377 2 115.586343 156.412087 205.807597
2378 3 135.307450 128.180111 178.318866
2379 3 111.268530 151.379089 181.235899
2380 2 77.452818 115.240383 -53.295331
2381 3 84.914149 110.166471 -30.248603
2382 3 69.465395 118.328708 -53.651532
2383 2 21.031686 84.661261 -4.617377
2384 3 24.278741 84.759876 19.705184
2385 3 6.019403 81.679120 27.979002
2386 2 -127.749659 -5.153620 260.920236
2387 3 -129.243822 29.906824 229.466618
2388 3 -121.128008 17.633393 237.919315
2389 2 -158.708954 3.673959 122.263804
2390 3 -133.067015 -0.320727 85.907973
2391 3 -140.972082 32.441749 118.147982
2392 2 -127.125995 91.355540 118.506083
2393 3 -110.246385 89.408875 98.497782
2394 3 -117.557923 62.630665 76.743478
2395 2 38.613017 101.089217 55.698395
2396 3 29.207405 87.819701 54.792860
2397 3 15.657923 74.043650 26.639915
2398 2 -23.711206 72.328470 28.523883
2399 3 -8.116854 49.179693 42.344108
2400 3 -17.399670 42.317023 38.371265
2401 2 6.626828 137.178690 -8.082604
2402 3 11.592603 146.104586 -5.719883
2403 3 16.474281 147.226821 20.288571
2404 2 -13.111641 133.917022 66.828555
2405 3 0.014325 166.880556 48.074284
2406 3 8.494424 138.873588 36.066428
2407 2 150.742801 156.912277 39.425970
2408 3 157.572672 170.928574 38.572787
2409 3 134.824366 139.996439 7.290401
2410 2 172.428274 -12.049549 28.124593
2411 3 177.009919 -32.115409 43.589680
2412 3 189.555348 -27.245819 43.437878
2413 2 56.573858 74.669922 -9.316154
2414 3 71.437995 81.923928 28.907478
2415 3 47.595066 74.660009 12.416997
2416 2 -86.572523 126.648462 -13.653538
2417 3 -88.499853 100.122437 24.840307
2418 3 -97.740175 112.966355 32.965620
2419 2 -19.760635 147.091883 112.264788
2420 3 -12.538112 149.203188 91.881571
2421 3 -10.391253 134.733058 72.975267
2422 2 73.590794 104.644837 108.145875
2423 3 105.533943 113.896264 91.942051
2424 3 90.801882 122.982397 100.049821
2425 2 -59.037735 216.550108 -3.644224
2426 3 -64.065192 217.366958 -43.635001
2427 3 -52.758211 210.685131 -18.418373
2428 2 -83.107338 19.029644 153.043151
2429 3 -101.187280 28.679704 178.919248
2430 3 -106.405074 23.601118 158.302123
2431 2 -73.178633 26.018683 127.091135
2432 3 -68.908684 -0.337725 108.066025
2433 3 -39.152081 22.719477 117.730991
2434 2 28.853335 193.817362 -43.195462
2435 3 44.874078 213.618524 -34.712319
2436 3 20.915837 232.370986 -49.705336
2437 2 65.829839 110.560839 138.641249
2438 3 45.941551 101.530521 147.273500
2439 3 59.564366 120.260770 135.385221
2440 2 136.441596 85.132131 111.125643
2441 3 144.445091 79.958208 83.363610
2442 3 139.667489 84.094301 138.051145
2443 2 186.704508 48.539842 -133.492797
2444 3 174.612028 36.982873 -139.960274
2445 3 179.179191 50.308624 -135.564225
2446 2 134.977185 63.178327 98.608354
2447 3 148.333312 56.641712 97.355390
2448 3 121.604771 41.477079 100.978137
2449 2 -4.076550 -1.266293 -44.103125
2450 3 5.558847 6.371873 -56.135010
2451 3 3.044627 -6.846607 -39.616999
2452 2 58.247259 127.205646 111.023375
2453 3 41.715492 140.220277 100.425452
2454 3 60.481448 150.997689 126.873728
2455 2 188.787517 67.309232 109.049262
2456 3 169.478809 99.911348 107.797119
2457 3 189.764172 55.931212 103.385653
2458 2 97.528938 96.183113 146.144467
2459 3 95.895112 81.092075 159.170775
2460 3 90.216309 70.784387 192.435689
2461 2 193.827447 112.151572 179.476416
2462 3 208.625330 134.293982 161.577507
2463 3 176.643160 121.914942 149.564697
2464 2 -54.187574 191.240692 58.572897
2465 3 -35.812828 195.002171 52.965282
2466 3 -63.119294 167.196896 85.478260
2467 2 -136.386629 64.257861 64.873530
2468 3 -111.768502 85.783687 62.532177
2469 3 -107.501431 71.644771 55.410497
2470 2 -25.030475 103.216433 24.947257
2471 3 -35.836474 114.457933 16.305936
2472 3 -29.482087 120.808329 29.626832
2473 2 24.592498 130.934146 19.116305
2474 3 20.908441 120.031071 6.027634
2475 3 20.167302 152.597058 7.462782
2476 2 -6.676176 -72.882100 -52.849648
2477 3 -12.555210 -39.864367 -87.958410
2478 3 -1.246009 -48.076798 -64.191115
2479 2 3.134282 107.418106 47.448761
2480 3 4.614379 134.297904 17.764739
2481 3 -18.139036 101.348001 18.202480
2482 2 38.742876 36.733508 -8.657693
2483 3 47.264897 21.763207 -30.650292
2484 3 51.000595 57.635563 -38.261637
2485 2 74.917101 264.455933 -86.459854
2486 3 67.461809 236.893227 -101.884821
2487 3 52.428208 258.114287 -110.772960
2488 2 -10.450747 86.147427 29.068485
2489 3 -35.992411 109.093345 10.228583
2490 3 -3.117942 124.281094 21.061143
2491 2 69.041623 105.082622 -31.751524
2492 3 81.213566 121.414402 -30.405152
2493 3 66.883101 102.023710 -8.656800
2494 2 17.483459 166.187453 96.741404
2495 3 18.278050 165.735825 89.701052
2496 3 -7.158554 185.694975 88.899348
2497 2 26.372751 76.452666 24.098333
2498 3 39.024636 65.194187 33.426491
2499 3 42.570071 60.606108 29.638738
2500 2 -87.046696 27.004449 118.181850
2501 3 -61.968527 44.024958 133.538324
2502 3 -81.565304 28.461297 171.165391
2503 2 -15.334542 72.318074 39.268887
2504 3 -8.267612 76.294298 33.702219
2505 3 -11.978521 98.392349 58.404610
2506 2 5.483736 82.965813 118.441918
2507 3 17.609635 132.440465 150.134542
2508 3 17.393013 101.814659 113.774093
2509 2 -77.649247 151.433794 32.767234
2510 3 -91.658870 137.939361 13.814482
2511 3 -91.406760 142.010825 0.360808
2512 2 -49.497949 161.687548 82.114368
2513 3 -53.574806 218.707930 104.372064
2514 3 -47.507730 179.022225 92.798096
2515 2 -17.359345 103.130719 -43.004574
2516 3 -9.759507 108.050589 -40.839804
2517 3 -23.523257 96.849114 -54.072305
2518 2 30.914868 61.401930 87.200295
2519 3 44.887189 67.918931 118.905600
2520 3 42.926319 86.528013 123.054747
2521 2 -89.783331 204.574712 152.899818
2522 3 -62.043470 220.631318 134.417788
2523 3 -78.067217 227.998599 136.857826
2524 2 57.415476 143.678841 85.932496
2525 3 73.011353 137.703557 87.134109
2526 3 57.723256 123.289022 77.870338
2527 2 -6.264839 212.448524 51.144413
2528 3 11.401588 211.100284 27.634461
2529 3 27.453085 239.696289 53.250082
2530 2 162.576268 171.284461 82.559276
2531 3 162.316898 167.413253 62.023057
2532 3 178.903305 172.602384 71.061745
2533 2 106.504245 65.883135 -17.247457
2534 3 103.260961 56.757497 -15.978031
2535 3 87.439784 56.197664 -5.384410
2536 2 103.602583 224.379235 22.274743
2537 3 101.507446 211.527297 43.670941
2538 3 120.728621 218.608221 44.706408
2539 2 24.467438 160.608864 126.291816
2540 3 30.839781 190.885277 117.309037
2541 3 34.387662 147.625607 113.158414
2542 2 -46.517881 -39.299631 42.264572
2543 3 -48.881452 -44.870252 6.421708
2544 3 -28.981012 -43.659767 43.225113
2545 2 -37.449636 26.755741 4.964220
2546 3 -44.077246 28.834782 7.901662
2547 3 -52.720255 31.712806 14.699462
2548 2 -33.298286 -111.711508 166.476052
2549 3 -36.283543 -100.633157 166.022951
2550 3 -27.434180 -115.717350 150.757010
2551 2 -60.826080 48.218182 24.264281
2552 3 -55.156853 44.249769 19.711733
2553 3 -55.862461 53.854045 33.945737
2554 2 39.054643 8.689983 10.108932
2555 3 21.639782 -14.824534 -31.278380
2556 3 27.340510 -39.572620 -0.895881
2557 2 -98.778949 -89.798972 80.592461
2558 3 -106.264456 -72.896848 119.837661
2559 3 -117.160080 -64.361787 117.405318
2560 2 175.314943 -2.071765 61.299173
2561 3 173.196142 -2.360004 50.869734
2562 3 153.430233 7.581854 51.141534
2563 2 73.215821 -66.341635 -34.592042
2564 3 69.197274 -46.167611 17.095193
2565 3 40.494862 -51.801216 -32.042789
2566 2 23.380727 15.932954 62.226059
2567 3 12.009710 41.597415 64.087962
2568 3 22.505458 21.745026 72.378174
2569 2 90.431395 -15.158630 192.423381
2570 3 84.593376 -30.442116 173.280872
2571 3 79.086095 -29.821002 179.678868
2572 2 75.391927 78.757339 51.494677
2573 3 86.850896 75.061508 33.770368
2574 3 93.963980 50.909918 38.757538
2575 2 122.157794 156.268254 38.130520
2576 3 119.681478 130.140278 34.138973
2577 3 115.151666 167.814828 44.372427
2578 2 130.331425 -50.827215 81.205824
2579 3 140.032436 -65.925935 58.292096
2580 3 147.402691 -75.792755 29.244714
2581 2 19.507815 67.401351 163.114987
2582 3 17.828562 63.558935 176.716869
2583 3 -0.119323 76.322841 156.744355
2584 2 -23.447100 -36.109593 -15.961865
2585 3 -33.861575 -14.103163 9.094571
2586 3 -15.978090 -64.031261 -7.599399
2587 2 -164.051232 5.693019 181.380136
2588 3 -169.769439 -9.496784 197.977885
2589 3 -165.640952 2.612449 194.270270
2590 2 -14.986370 -17.459775 28.427106
2591 3 -27.412162 -18.976224 30.771005
2592 3 -4.837783 -9.249376 57.391525
2593 2 -132.539968 37.797268 54.248002
2594 3 -146.075068 22.491162 32.240937
2595 3 -137.659778 33.581600 35.673297
2596 2 -18.839359 3.248509 119.881567
2597 3 -21.840661 -4.236115 112.889038
2598 3 -18.317199 -14.051157 133.378560
2599 2 -26.744321 52.796838 114.674602
2600 3 -65.581343 81.874795 83.948100
2601 3 -50.252740 91.353077 93.281863
2602 2 20.338632 -28.263586 -6.707484
2603 3 22.169492 -35.497834 7.661921
2604 3 18.565414 -38.185301 -5.019680
2605 2 64.983858 -49.402771 134.314302
2606 3 65.728379 -44.520158 165.788808
2607 3 89.014252 -36.699755 131.491179
2608 2 20.611979 31.451147 165.183629
2609 3 13.393788 45.805670 175.276121
2610 3 29.726499 26.706659 145.915260
2611 2 -7.169086 53.843763 61.067867
2612 3 -35.803991 13.997111 46.247242
2613 3 -8.946936 23.924084 47.524169
2614 2 74.148137 146.630798 43.942834
2615 3 55.522059 103.510385 48.654846
2616 3 55.196796 105.154082 -0.214489
2617 2 30.321772 19.434095 30.476622
2618 3 30.830297 -15.037584 12.793109
2619 3 23.975770 -7.296297 -14.393531
2620 2 -116.607224 37.953813 88.108540
2621 3 -109.111081 16.914169 84.541471
2622 3 -107.862976 -10.680622 89.145185
2623 2 -72.531046 -1.798272 69.055516
2624 3 -82.053108 -9.444658 95.021076
2625 3 -80.732976 -38.996940 55.225680
2626 2 -65.399036 -127.260351 47.194374
2627 3 -80.419018 -119.817976 61.507738
2628 3 -56.996003 -127.330397 37.722218
2629 2 -24.196705 74.241960 -33.285623
2630 3 -29.409563 83.921543 -14.604107
2631 3 -25.976386 95.075854 11.228837
2632 2 137.080740 109.630413 37.676666
2633 3 122.758792 115.621304 14.423376
2634 3 128.739166 119.257933 40.651158
2635 2 75.504523 -37.003632 80.893556
2636 3 84.122315 -24.020576 61.177553
2637 3 87.250371 -6.313737 83.192544
2638 2 -50.943311 -33.255198 233.299520
2639 3 -39.014373 -12.878827 219.218697
2640 3 -44.863368 -17.030003 233.312898
2641 2 17.235585 33.370627 69.178124
2642 3 6.417383 -2.989552 113.856277
2643 3 6.716120 29.906318 103.768369
2644 2 51.881543 57.498352 170.522339
2645 3 57.837969 48.792314 170.853206
2646 3 56.654600 68.445611 190.178213
2647 2 92.321675 39.806020 61.153561
2648 3 88.779205 30.576533 32.154142
2649 3 101.385921 54.340536 61.743841
2650 2 -157.424146 73.457890 27.534538
2651 3 -143.890328 52.584970 51.300231
2652 3 -137.185211 62.577484 38.105075
2653 2 108.427951 34.643217 80.346098
2654 3 97.281689 39.470980 114.478183
2655 3 84.571954 39.615936 70.004004
2656 2 31.914876 -10.618801 126.457586
2657 3 32.776940 31.082233 111.514080
2658 3 26.230053 23.259630 97.040899
2659 2 -18.571365 -38.348302 -28.555556
2660 3 -12.503842 -66.553066 -18.633693
2661 3 -28.042336 -30.982693 -33.274976
2662 2 45.672595 7.802886 4.653119
2663 3 42.021756 11.504836 19.140934
2664 3 43.747586 17.670345 26.573585
2665 2 -100.593812 -118.958265 153.546348
2666 3 -102.468760 -100.155697 147.271554
2667 3 -91.635822 -76.543018 127.050587
2668 2 5.193367 89.553217 116.371007
2669 3 4.060361 79.206839 108.655779
2670 3 -6.199343 68.645323 87.002751
2671 2 58.531640 -29.489363 50.125647
2672 3 47.305025 -22.806343 27.745508
2673 3 55.230410 -40.522465 42.593596
2674 2 6.416478 21.607540 -62.367596
2675 3 3.191017 5.951494 -17.394708
2676 3 -1.036896 34.936501 1.437882
2677 2 184.010617 2.538159 -9.859636
2678 3 165.415497 35.712024 4.729778
2679 3 158.165696 37.551852 9.283627
2680 2 186.600484 55.550128 125.825697
2681 3 160.229933 55.828720 134.911824
2682 3 182.843674 37.482612 136.290887
2683 2 79.162856 3.989897 4.181715
2684 3 73.632496 -8.946068 48.050751
2685 3 71.552662 -8.365449 20.301397
2686 2 33.063389 -4.943660 142.236623
2687 3 25.453067 -21.744681 137.011436
2688 3 41.551773 2.554232 132.284160
2689 2 129.483259 52.637501 -11.499328
2690 3 140.939701 63.708568 -25.562903
2691 3 122.858206 58.836694 -27.182383
2692 2 116.476211 -53.958149 76.133067
2693 3 97.804546 -40.865839 36.219977
2694 3 102.629723 -49.307136 58.640771
2695 2 -111.437695 -26.068623 131.612351
2696 3 -114.111004 -37.857212 130.670197
2697 3 -120.045221 -31.077021 119.933619
2698 2 150.312900 24.440774 -1.428308
2699 3 134.190201 41.471326 21.797270
2700 3 143.187472 18.244526 47.033692
2701 2 12.971224 112.453104 128.170349
2702 3 22.089552 127.266539 122.578379
2703 3 14.982298 127.924998 82.935880
2704 2 58.272859 96.403256 179.619915
2705 3 37.020513 109.865182 151.847904
2706 3 37.246827 105.557505 144.911016
2707 2 -16.082274 -19.958576 70.050839
2708 3 -49.860289 -17.623248 96.333529
2709 3 -19.013945 17.584142 99.579542
2710 2 20.129751 8.875328 149.596951
2711 3 3.180017 32.753420 115.414331
2712 3 -0.600031 16.551232 138.937280
2713 2 -147.827578 20.322324 37.259334
2714 3 -155.351996 16.870721 30.967575
2715 3 -149.134831 12.444099 51.554113
2716 2 23.791707 36.428525 126.135354
2717 3 27.389594 37.531130 92.890230
2718 3 15.936745 37.389231 131.155072
2719 2 -19.229329 41.953372 13.878125
2720 3 -46.125227 39.265124 4.134390
2721 3 -6.095838 24.851071 34.833832
2722 2 -145.600797 163.495565 -34.171938
2723 3 -146.355021 177.245209 -13.025497
2724 3 -118.108290 141.863275 -1.368796
2725 2 -74.138760 166.430752 -25.542307
2726 3 -85.177947 169.872804 -17.893177
2727 3 -66.633878 171.603219 -20.446513
2728 2 -85.920056 87.174461 98.518974
2729 3 -81.612762 69.539054 109.371290
2730 3 -58.808407 73.810591 68.644237
2731 2 -38.981520 176.785478 4.510923
2732 3 -43.657951 191.890721 3.760531
2733 3 -25.940960 194.506238 -20.325622
2734 2 -85.218830 155.845241 -47.679438
2735 3 -65.891197 136.743255 -62.920363
2736 3 -82.682713 149.207278 -34.282745
2737 2 89.799670 94.321676 151.043289
2738 3 113.700444 95.857278 182.951669
2739 3 102.055662 113.941664 178.568573
2740 2 -116.630174 -78.077313 108.400416
2741 3 -103.831057 -62.813056 129.327742
2742 3 -128.166051 -73.240055 133.673713
2743 2 79.295930 -43.379214 -81.967099
2744 3 85.364084 -13.285466 -76.402447
2745 3 68.701536 -44.066546 -113.016727
2746 2 138.337595 70.006738 136.027526
2747 3 135.438897 80.487670 133.327956
2748 3 126.149373 80.691605 180.478806
2749 2 -123.765487 58.374035 118.101354
2750 3 -112.103967 66.078103 111.162897
2751 3 -121.499980 52.496584 107.281965
2752 2 40.416125 137.811082 66.002868
2753 3 43.571535 109.424722 72.130962
2754 3 36.064015 122.964540 70.312305
2755 2 77.737257 97.850955 81.929011
2756 3 48.990810 103.852093 83.137839
2757 3 70.740423 126.660967 81.357253
2758 2 -48.529360 80.628188 105.311432
2759 3 -30.796041 62.331467 125.639972
2760 3 -36.527796 70.969762 81.573230
2761 2 -19.296215 50.604026 127.042478
2762 3 -3.796862 37.309978 103.812487
2763 3 -14.056004 52.812821 110.966137
2764 2 45.262169 133.777583 100.850405
2765 3 38.125635 112.628797 114.285418
2766 3 53.511501 124.133514 152.966512
2767 2 -6.960441 173.698415 -18.226787
2768 3 -20.340773 149.758935 -18.464862
2769 3 10.086115 164.527115 -11.462106
2770 2 4.104893 60.581758 67.913355
2771 3 -9.257517 38.619257 59.858956
2772 3 10.760447 55.918745 48.505161
2773 2 4.979505 117.669800 101.121876
2774 3 -22.154631 90.066795 125.534382
2775 3 -12.415132 96.048031 103.515147
2776 2 7.049443 76.711238 57.480603
2777 3 -18.010602 87.944748 95.018885
2778 3 -1.143845 89.237280 83.017317
2779 2 45.165228 95.852329 36.340978
2780 3 44.611543 134.388279 -30.906273
2781 3 40.681425 85.962140 -11.091035
2782 2 -84.022565 83.716300 106.227366
2783 3 -102.542921 70.810033 102.554643
2784 3 -80.832094 80.929172 83.080224
2785 2 146.158124 6.880453 96.003834
2786 3 158.133096 -3.996562 103.302223
2787 3 157.379575 19.342579 107.469370
2788 2 -0.920903 118.935359 89.335012
2789 3 -11.322821 127.180931 65.522164
2790 3 2.940808 129.530951 68.816973
2791 2 -66.151097 62.335971 78.471767
2792 3 -44.188209 47.456631 77.624930
2793 3 -74.908015 39.106393 72.118964
2794 2 -124.293274 47.754941 96.264132
2795 3 -132.997699 42.572521 119.929708
2796 3 -102.496714 60.754882 77.895871
2797 2 52.031878 -30.387058 94.080371
2798 3 45.798897 -52.493452 64.311920
2799 3 42.465093 -26.546775 68.130564
2800 2 -59.016579 120.078660 -110.758005
2801 3 -66.004440 104.566550 -112.173437
2802 3 -41.847402 113.502017 -122.481575
2803 2 -30.441198 98.818267 11.118189
2804 3 -21.471951 89.552890 28.289175
2805 3 -26.540901 120.368218 -5.322041
2806 2 128.991573 70.276903 43.874734
2807 3 138.348712 53.938417 47.185743
2808 3 113.969471 83.204896 70.350680
2809 2 205.745909 50.049939 50.297345
2810 3 217.876572 51.336573 44.082938
2811 3 204.448159 60.269694 55.916580
2812 2 44.564720 44.045343 168.578063
2813 3 33.672538 27.618855 154.522011
2814 3 44.598852 37.814065 130.497378
2815 2 83.772775 134.883520 64.270957
2816 3 77.193288 124.388071 64.175852
2817 3 78.215170 109.236577 72.643680
2818 2 -21.656721 136.514658 125.939369
2819 3 -36.238630 117.056877 118.166037
2820 3 -20.331039 116.382985 98.410773
2821 2 113.609195 68.408262 174.694643
2822 3 102.874636 75.506241 187.163828
2823 3 78.190834 71.785723 189.229591
2824 2 100.859477 43.287271 10.724836
2825 3 95.773624 61.942762 12.655944
2826 3 87.537510 16.518004 -12.423021
2827 2 28.591016 141.022311 60.492801
2828 3 38.607674 140.887388 79.352768
2829 3 50.029501 149.524850 43.431300
2830 2 13.810952 123.615967 251.047458
2831 3 18.114024 117.878692 206.546699
2832 3 21.112982 110.516732 229.386039
2833 2 -91.855320 175.533101 100.102335
2834 3 -74.541681 195.948744 99.088450
2835 3 -110.822055 190.846916 127.852961
2836 2 51.789160 63.153795 103.494850
2837 3 56.813076 29.516247 96.171537
2838 3 50.390704 26.645386 119.974038
2839 2 -17.558054 214.761126 57.196114
2840 3 3.640242 198.519180 84.540244
2841 3 6.486954 202.465118 88.083538
2842 2 -37.132634 143.358061 114.475295
2843 3 -48.188010 161.037716 119.796486
2844 3 -22.251214 134.724803 111.690183
2845 2 66.871923 138.427867 18.214855
2846 3 56.865030 151.479802 23.264181
2847 3 66.245014 119.032750 0.050939
2848 2 23.701763 89.035230 -35.840190
2849 3 42.116586 96.052691 -77.360802
2850 3 50.109854 88.665690 -60.292635
2851 2 -14.485933 151.955954 173.827191
2852 3 -23.529666 163.004467 151.107492
2853 3 4.126929 143.910577 167.050768
2854 2 77.429511 28.169643 32.054520
2855 3 77.432636 41.224333 68.363360
2856 3 96.607493 23.942438 49.601406
2857 2 39.723986 129.261348 23.379737
2858 3 29.673589 147.018409 10.864412
2859 3 22.672908 125.675198 6.103500
2860 2 40.837675 131.774852 29.308975
2861 3 45.920648 141.064442 -2.503730
2862 3 56.669307 139.305876 19.092949
2863 2 166.590883 93.053410 164.718867
2864 3 156.773536 79.656315 133.853562
2865 3 157.717998 59.364872 147.224207
2866 2 -28.093344 -48.197626 106.442827
2867 3 -30.991425 -65.260999 91.575337
2868 3 -42.959548 -67.217828 77.023284
2869 2 76.603734 42.533902 7.376056
2870 3 98.631531 53.437406 40.316676
2871 3 97.667515 48.037294 9.026309
2872 2 165.102439 -41.476998 71.226583
2873 3 167.089361 -48.788601 58.572874
2874 3 176.812088 -37.904801 48.879969
2875 2 -12.796453 41.102968 147.682271
2876 3 -36.765523 26.782924 143.125627
2877 3 -22.796632 31.847263 127.068762
2878 2 5.986708 75.134519 -80.482123
2879 3 -9.079182 70.417329 -117.200009
2880 3 1.777445 50.404786 -102.590027
2881 2 41.439491 0.292867 45.627754
2882 3 22.462841 2.788030 40.905856
2883 3 9.692286 -18.022976 15.309482
2884 2 -5.841266 -72.349471 131.096644
2885 3 5.679976 -67.182889 99.546311
2886 3 -14.420779 -70.104620 120.769907
2887 2 64.188628 47.751403 128.512757
2888 3 75.016011 18.635753 104.154831
2889 3 99.417234 42.171713 119.265879
2890 2 100.319495 -162.265220 39.454204
2891 3 82.916801 -161.968113 48.669052
2892 3 68.659285 -142.254892 30.878827
2893 2 139.730914 -58.150670 51.685595
2894 3 143.233531 -58.589929 66.725225
2895 3 122.401868 -73.566901 42.497315
2896 2 182.617804 -28.538430 48.146917
2897 3 165.063418 -24.814973 44.000051
2898 3 164.689954 -43.428818 50.453774
2899 2 3.645440 -76.194247 16.815364
2900 3 16.283645 -67.650109 52.088322
2901 3 9.792029 -100.241700 36.758213
2902 2 101.044989 -50.344509 71.332717
2903 3 109.445674 -63.403909 56.436549
2904 3 102.809196 -50.430345 77.755389
2905 2 -50.050509 -21.321903 236.894377
2906 3 -45.328148 -13.673023 195.051073
2907 3 -60.465940 -19.320810 200.218921
2908 2 -27.927423 63.722203 17.769427
2909 3 -14.455893 50.064221 41.122895
2910 3 -20.005147 31.504575 31.997429
2911 2 111.506848 -3.294421 66.204951
2912 3 124.990219 -17.057675 55.304294
2913 3 136.702913 -1.092939 37.945576
2914 2 -70.751753 -90.403350 63.169943
2915 3 -58.931591 -92.607720 51.781470
2916 3 -42.240118 -103.146220 28.829021
2917 2 33.736718 135.788661 5.836937
2918 3 9.740803 110.737802 -3.892517
2919 3 36.824060 129.827267 6.585725
2920 2 105.842022 37.599884 63.187666
2921 3 95.174783 64.977997 75.617374
2922 3 103.452000 26.052334 106.582405
2923 2 -11.840735 -65.736307 18.517587
2924 3 -11.451298 -78.236099 42.654115
2925 3 11.204984 -49.565822 33.082236
2926 2 3.494818 43.005714 116.415845
2927 3 -8.684528 47.202496 89.744728
2928 3 9.853362 36.300665 86.594996
2929 2 -23.991550 -40.921924 134.917027
2930 3 -25.920269 -21.035682 144.804937
2931 3 -52.777678 -47.610885 122.460980
2932 2 73.286820 47.166843 113.837751
2933 3 73.438739 32.252006 131.686638
2934 3 81.139837 62.492416 117.311749
2935 2 204.557902 -38.466922 55.853290
2936 3 207.419255 -22.726376 51.792929
2937 3 204.945946 -20.086950 56.638120
2938 2 68.273250 9.930390 39.341697
2939 3 54.033461 -6.998445 3.489919
2940 3 52.006393 -4.576676 38.349591
2941 2 164.519584 -96.545136 142.230718
2942 3 191.908461 -74.257313 151.788277
2943 3 165.231372 -88.778590 141.707990
2944 2 49.840313 45.246383 55.794646
2945 3 39.906966 87.942384 66.613269
2946 3 53.044255 73.201302 44.169698
2947 2 -42.729764 50.825386 32.705815
2948 3 -45.623341 39.530636 13.248183
2949 3 -47.241877 45.812503 35.529281
2950 2 -42.011018 116.122734 -30.580845
2951 3 -44.955498 106.580867 -21.963470
2952 3 -39.762255 100.899338 -34.477719
2953 2 -47.946172 -27.425108 145.135730
2954 3 -53.231200 -6.795973 131.429172
2955 3 -61.680587 -19.565249 177.544779
2956 2 49.984249 117.076521 41.137850
2957 3 55.601661 133.220939 53.879655
2958 3 66.590296 116.887000 77.132574
2959 2 97.858610 44.004322 75.177484
2960 3 78.556312 54.928011 70.501919
2961 3 74.675936 62.261945 66.374449
2962 2 -11.282656 161.428406 97.129347
2963 3 -22.919402 142.910683 103.217336
2964 3 -17.247455 127.091005 87.782170
2965 2 -13.501521 45.022452 129.275884
2966 3 -13.968403 58.534125 154.701232
2967 3 -17.985943 54.523649 119.667675
2968 2 -30.811278 12.081939 121.307728
2969 3 -33.420120 11.576960 122.711951
2970 3 -46.580412 37.655017 134.160359
2971 2 -69.334117 48.807680 119.368646
2972 3 -64.992997 -19.939533 95.664912
2973 3 -62.921845 10.638164 140.599254
2974 2 -8.733299 -40.533633 -41.693423
2975 3 -2.943070 -5.412573 -26.578177
2976 3 -10.765170 -31.977255 -25.998811
2977 2 82.029360 30.419662 25.006342
2978 3 94.748339 36.716093 13.568017
2979 3 74.624373 3.812136 24.622304
2980 2 152.536982 17.512829 27.584758
2981 3 141.621342 -2.668565 31.405995
2982 3 153.386627 10.292953 16.126179
2983 2 64.980385 -114.473001 77.626840
2984 3 64.603640 -80.645507 69.871101
2985 3 66.122909 -81.553392 87.110744
2986 2 -105.855965 5.367125 169.431686
2987 3 -95.847097 27.361378 137.197614
2988 3 -72.217723 4.661126 149.113100
2989 2 -8.912592 37.269913 130.069437
2990 3 -3.897006 30.973983 117.398832
2991 3 -9.791436 22.393596 93.826816
2992 2 62.330448 72.438492 41.811903
2993 3 55.457155 104.280907 51.180048
2994 3 67.265575 88.183091 61.132780
2995 2 30.966803 130.649142 58.121346
2996 3 46.980852 159.459329 23.229345
2997 3 39.293743 140.051661 46.796087
2998 2 55.532899 -13.825765 -14.718436
2999 3 64.643046 -26.682937 -5.504817
3000 3 62.984065 -7.480343 2.029065
3001 2 21.935403 58.693766 9.425849
3002 3 39.642389 49.091499 32.437166
3003 3 21.704664 45.661560 28.087034
3004 2 -37.225738 -4.416256 114.715647
3005 3 -52.976273 -24.153450 96.658934
3006 3 -55.126651 -35.865496 94.294286
3007 2 67.875419 -39.204874 139.482980
3008 3 74.872324 -39.938872 98.503714
3009 3 80.703787 -56.418088 113.762228
3010 2 -6.195955 26.697370 46.398226
3011 3 -22.439329 22.093341 32.088042
3012 3 -19.458968 31.786377 41.143397
3013 2 25.144109 -6.293603 171.448394
3014 3 22.788114 8.653620 148.772675
3015 3 29.462365 8.991637 182.544421
3016 2 -130.276064 74.693333 -53.923644
3017 3 -115.699577 75.953369 -7.371052
3018 3 -129.270506 62.619630 -18.143253
3019 2 149.241945 -7.922759 103.716409
3020 3 177.513290 -4.709103 115.693137
3021 3 150.996637 -7.322541 114.939116
3022 2 -102.951302 54.823223 76.110016
3023 3 -89.972965 50.943863 105.448611
3024 3 -102.032697 56.240038 102.899764
3025 2 57.427284 20.068471 -11.388857
3026 3 50.572645 28.902152 0.425128
3027 3 47.517716 23.921724 -4.833686
3028 2 -41.768534 11.084368 108.359924
3029 3 -38.376295 21.082855 102.817460
3030 3 -1.045703 24.996643 84.197642
3031 2 118.326601 -6.875902 155.850433
3032 3 112.097567 -11.439303 145.204297
3033 3 92.582481 -27.453216 171.429675
3034 2 -72.498514 55.965589 95.544667
3035 3 -73.465402 80.548601 115.361984
3036 3 -71.300702 54.031612 107.763140
3037 2 -163.501125 54.032657 156.405830
3038 3 -137.394381 43.542081 131.485468
3039 3 -122.746199 42.417027 139.843001
3040 2 -24.129246 69.566292 98.635875
3041 3 -29.836120 85.098559 108.824437
3042 3 -30.535137 82.252363 109.641876
3043 2 16.939684 83.437328 93.575725
3044 3 16.188911 53.771569 101.828429
3045 3 -8.071134 77.061822 121.412184
3046 2 111.716912 141.853285 91.933328
3047 3 122.547292 123.277087 112.557266
3048 3 99.562079 111.318476 91.166793
3049 2 160.806799 24.305132 28.176110
3050 3 175.893570 6.548417 34.607747
3051 3 183.665822 -3.228565 53.353049
3052 2 -156.861553 115.055765 82.708320
3053 3 -159.777493 97.709586 68.004488
3054 3 -152.350506 106.340829 84.171809
3055 2 -76.214965 31.463275 130.010041
3056 3 -78.249240 26.385315 104.875417
3057 3 -60.923868 30.446002 123.920013
3058 2 50.124386 147.418798 52.400652
3059 3 61.526988 141.721692 64.080263
3060 3 46.127217 138.594787 40.856885
3061 2 -12.279987 119.729365 91.576107
3062 3 7.506188 121.414729 97.633753
3063 3 -7.017015 148.527875 115.905581
3064 2 52.670317 30.745017 61.540120
3065 3 88.862098 42.348900 28.104290
3066 3 87.813377 32.666578 37.966349
3067 2 94.029433 33.410754 151.565971
3068 3 89.430681 28.734334 152.535664
3069 3 93.482961 64.201290 153.461978
3070 2 143.298694 26.653032 -18.257121
3071 3 127.015867 32.032131 -6.573753
3072 3 122.125181 30.653259 -2.313456
3073 2 1.029777 150.000227 72.078144
3074 3 1.013773 130.959135 108.087050
3075 3 -5.014598 147.911965 71.480119
3076 2 56.447756 93.439105 78.078308
3077 3 86.753293 106.927973 96.277426
3078 3 85.818068 114.554792 87.572028
3079 2 113.176700 81.865133 156.433296
3080 3 122.858477 79.211864 156.082824
3081 3 81.953863 86.781529 170.496350
3082 2 15.040954 100.519451 49.152300
3083 3 16.840416 87.311437 34.795002
3084 3 29.695013 104.069553 35.591854
3085 2 66.695439 -72.402109 139.428935
3086 3 63.654096 -66.400476 115.031910
3087 3 61.615964 -60.796291 144.641750
3088 2 19.735706 98.451144 95.962843
3089 3 30.504067 103.244538 125.784633
3090 3 35.728368 90.921914 116.165888
3091 2 -15.157175 114.256058 -31.288653
3092 3 -22.426718 120.568595 3.655503
3093 3 -22.868496 92.005942 -23.528416
3094 2 35.007963 225.028868 144.504312
3095 3 62.484663 198.066883 160.178848
3096 3 38.397977 180.750192 148.150935
3097 2 -43.907578 80.849023 147.620808
3098 3 -69.316418 92.009036 176.334918
3099 3 -68.812770 121.013427 174.044100
3100 2 35.946770 162.700381 -103.466198
3101 3 34.116073 181.795563 -156.400132
3102 3 38.025313 170.097676 -82.689410
3103 2 -39.748938 41.875051 72.971078
3104 3 -18.851974 70.132173 71.611357
3105 3 -36.308052 75.465942 80.550631
3106 2 45.979861 -6.973137 58.504754
3107 3 24.360240 0.871802 56.997862
3108 3 40.073053 -12.550570 30.040162
3109 2 13.293796 98.767887 1.407089
3110 3 28.129741 77.966583 1.178108
3111 3 13.159146 85.272793 -6.464556
3112 2 71.658251 122.271422 54.842955
3113 3 73.758650 133.507137 43.301586
3114 3 66.871038 122.210065 41.166962
3115 2 -26.627001 10.649764 145.331023
3116 3 -32.509924 6.138867 150.184638
3117 3 -41.908738 -13.032101 159.375497
3118 2 4.312951 43.857857 13.842441
3119 3 40.486622 45.296106 17.872881
3120 3 10.500025 28.442339 18.257389
3121 2 85.005916 148.196908 29.121734
3122 3 85.581044 148.700048 -8.543740
3123 3 100.840053 141.421499 -2.792282
3124 2 171.124140 111.162807 27.448369
3125 3 177.151633 104.899296 -0.999121
3126 3 158.859268 116.086601 34.397356
3127 2 87.205958 112.554699 91.965120
3128 3 76.581376 120.665196 45.287185
3129 3 80.330951 116.153857 46.503751
3130 2 -11.310039 48.024388 105.972446
3131 3 -17.114726 44.374482 98.948060
3132 3 -14.631646 27.182091 147.248655
3133 2 61.192377 193.908755 130.113167
3134 3 56.524268 177.899739 148.386195
3135 3 52.723164 201.488319 157.767078
3136 2 88.090261 53.620309 20.094646
3137 3 99.263995 58.253994 47.388749
3138 3 74.893486 38.688207 48.835736
3139 2 16.730388 37.032103 138.452627
3140 3 -5.822571 70.902301 181.145817
3141 3 17.868010 64.348091 147.275226
3142 2 96.560398 45.543212 -78.834725
3143 3 99.925239 79.398892 -70.083340
3144 3 94.024238 56.095449 -86.459300
3145 2 108.855269 127.583335 -3.394782
3146 3 82.382099 124.483372 19.665376
3147 3 111.054911 141.520623 15.827360
3148 2 44.189394 44.627126 138.911336
3149 3 65.672463 31.938956 115.531260
3150 3 66.565236 30.024884 107.291772
3151 2 72.563519 132.337365 4.230490
3152 3 61.743020 147.365979 -20.831868
3153 3 70.468586 159.252049 -1.765949
3154 2 -69.557516 70.534205 87.170745
3155 3 -37.926095 107.781724 106.056798
3156 3 -57.064229 58.494347 135.411727
3157 2 13.557348 18.156981 129.182905
3158 3 14.641472 50.730399 127.044138
3159 3 -8.066595 43.394889 84.246022
3160 2 93.308413 135.953491 64.359221
3161 3 106.081043 156.986687 121.051619
3162 3 97.570794 157.528613 101.403661
3163 2 -0.337790 166.425704 61.292641
3164 3 12.089765 187.814361 39.581343
3165 3 11.230454 155.013749 55.178790
3166 2 46.251309 135.445189 54.815263
3167 3 42.518572 133.687315 21.464034
3168 3 41.912482 144.018087 28.538723
3169 2 32.571011 -44.911152 51.025775
3170 3 13.028717 -28.519843 17.440595
3171 3 25.299446 -53.393120 19.023896
3172 2 -129.169440 -10.270365 81.158846
3173 3 -154.851940 3.367340 58.773977
3174 3 -164.296736 -2.123030 60.070662
3175 2 69.947779 57.143993 55.450231
3176 3 58.048138 86.437517 41.654496
3177 3 72.756106 66.430800 52.756367
3178 2 15.475743 23.926271 90.954815
3179 3 20.832393 19.619958 137.714170
3180 3 22.967737 45.570530 85.830149
3181 2 45.260372 -112.543167 122.374007
3182 3 45.501892 -106.393999 119.064479
3183 3 51.501275 -83.375367 139.687462
3184 2 27.739739 -19.539048 53.060645
3185 3 36.225830 -16.970011 34.060364
3186 3 43.389653 -5.663879 70.834489
3187 2 1.842621 11.010360 87.228351
3188 3 -14.510306 15.994693 88.413966
3189 3 -7.963391 17.692785 92.884302
3190 2 10.687135 13.483953 -2.063045
3191 3 1.791196 8.313532 4.757429
3192 3 -3.396071 19.172078 15.748117
3193 2 14.740050 -0.357493 118.941646
3194 3 16.432955 5.586999 109.422577
3195 3 23.297206 -10.024232 100.611132
3196 2 101.652920 -66.401715 103.845811
3197 3 97.255739 -67.749522 109.379548
3198 3 104.179695 -78.760578 111.034602
3199 2 229.721909 35.870688 151.993110
3200 3 222.246200 35.939356 120.820769
3201 3 208.118410 7.879203 159.994284
3202 2 1.711603 48.993304 125.353878
3203 3 -1.587635 24.903666 144.887757
3204 3 -7.012654 7.382039 158.414642
3205 2 -64.971329 38.935103 198.000691
3206 3 -63.002347 31.321295 184.822895
3207 3 -55.972013 39.061424 195.874518
3208 2 -7.938550 49.357408 94.157430
3209 3 1.752250 0.324813 92.186121
3210 3 -1.398925 27.020368 81.791288
3211 2 -9.397984 29.806850 122.585031
3212 3 -24.035843 16.108367 128.426163
3213 3 -24.989999 33.370050 108.923329
3214 2 120.876788 -42.165482 199.581377
3215 3 109.716968 -33.112916 216.218834
3216 3 102.091768 -3.520459 239.185232
3217 2 -14.296298 80.224716 72.842225
3218 3 -9.614089 64.867557 71.994862
3219 3 11.308370 71.948792 71.268104
3220 2 -6.463401 -5.758066 163.303915
3221 3 -15.540252 -1.828008 146.211917
3222 3 -26.147187 -8.372321 126.582550
3223 2 35.139537 -33.765077 46.828047
3224 3 40.793909 -28.897247 49.162873
3225 3 34.323086 -31.780405 5.542213
3226 2 83.195922 39.595355 -1.605555
3227 3 90.796712 44.337663 -9.064897
3228 3 66.791757 23.351892 12.766650
3229 2 86.571959 2.554933 -21.936106
3230 3 57.948187 9.064060 18.627679
3231 3 80.332024 -1.223881 -5.444418
3232 2 46.790663 -47.396444 190.093501
3233 3 22.569878 -21.751523 195.789972
3234 3 30.738367 -38.919801 219.489236
3235 2 -13.622120 -52.455837 58.409031
3236 3 -27.285527 -52.263966 89.294492
3237 3 -16.223246 -49.536006 58.783761
3238 2 -2.374248 52.401044 93.857977
3239 3 5.634294 62.572801 92.828767
3240 3 -17.390565 76.360053 86.222917
3241 2 115.670708 84.175796 9.764542
3242 3 117.208798 69.088665 -17.912395
3243 3 111.098295 78.177307 -32.366861
3244 2 75.128866 24.332056 98.549023
3245 3 93.408906 33.497666 118.043425
3246 3 72.336651 33.024569 134.958258
3247 2 -34.550636 -10.111678 32.980096
3248 3 -44.388560 -1.119642 20.162845
3249 3 -40.256586 -25.320489 15.921143
3250 2 -23.734774 -62.016108 68.791343
3251 3 -30.253292 -29.058409 76.151869
3252 3 -32.063274 -45.453793 83.799370
3253 2 119.617911 29.428066 197.363664
3254 3 125.203826 77.469726 214.740279
3255 3 131.218341 58.890973 169.904345
3256 2 -71.958353 15.756546 35.621371
3257 3 -36.518676 14.972311 23.622100
3258 3 -64.418288 31.600371 12.294941
3259 2 5.678301 -20.582712 150.505716
3260 3 14.776757 -56.043827 176.614628
3261 3 14.533271 -40.655184 143.912538
3262 2 51.347738 5.816872 69.912973
3263 3 65.738655 7.517727 56.761440
3264 3 63.428941 25.951641 55.739867
3265 2 21.082567 39.279918 81.976741
3266 3 3.447929 46.209753 63.954224
3267 3 13.234388 49.980921 93.059183
3268 2 -50.629531 57.189534 103.834399
3269 3 -42.283299 30.053172 116.814346
3270 3 -23.769346 20.867189 112.911964
3271 2 -3.124747 13.930903 151.806508
3272 3 9.487358 2.071452 174.770027
3273 3 15.952276 26.830306 149.456192
3274 2 131.879276 1.541665 7.200893
3275 3 134.783607 14.392020 37.105256
3276 3 128.634353 8.539942 40.283157
3277 2 66.400699 -40.970562 161.728017
3278 3 59.581273 -61.013918 150.052810
3279 3 67.668280 -53.390885 141.973741
3280 2 126.530380 14.280164 60.884831
3281 3 125.456849 1.763178 18.424830
3282 3 127.390501 3.506657 9.316151
3283 2 79.534711 67.522400 43.343981
3284 3 105.637295 70.369542 60.543386
3285 3 79.218072 75.036440 23.014233
3286 2 -24.141371 -6.420173 84.800256
3287 3 -26.409525 28.251770 67.094131
3288 3 7.659435 11.470224 71.629112
3289 2 -84.125880 16.825653 29.047504
3290 3 -78.604062 10.976566 58.022698
3291 3 -80.842404 2.021039 67.965633
3292 2 103.404592 -37.881029 119.254910
3293 3 115.838571 -56.803897 102.599776
3294 3 114.797726 -24.312414 91.150906
3295 2 -53.380291 38.699477 156.627491
3296 3 -58.452519 26.053541 153.899394
3297 3 -50.569428 22.449676 139.364871
3298 2 103.734135 25.961593 79.658901
3299 3 102.140305 35.377796 65.062614
3300 3 83.522513 1.164346 87.287115
3301 2 -16.602148 2.541639 19.196494
3302 3 -10.659630 5.964847 37.691393
3303 3 -4.122691 12.489780 41.894271
3304 2 -29.501822 105.155268 55.362933
3305 3 -45.239142 101.396199 44.006772
3306 3 -31.583176 90.475357 43.223450
3307 2 5.542315 96.140633 68.437933
3308 3 5.632834 89.749527 89.360729
3309 3 23.414254 83.640499 92.216433
3310 2 96.709372 47.850052 93.536395
3311 3 94.678474 49.103314 93.938786
3312 3 118.796102 63.534411 89.858464
3313 2 -90.023338 -13.914760 85.783623
3314 3 -93.855874 -18.965874 67.338874
3315 3 -107.890486 -33.157149 70.810077
3316 2 143.282400 47.535496 61.424691
3317 3 127.164508 33.906112 94.727256
3318 3 117.114425 35.244896 97.756226
3319 2 10.264659 5.203814 132.201616
3320 3 8.853170 23.590607 124.168548
3321 3 8.137101 -3.942745 123.662851
3322 2 173.183583 97.253001 62.949016
3323 3 173.598866 120.736010 94.928269
3324 3 158.591098 98.671621 83.852714
3325 2 -77.357295 74.684560 60.966682
3326 3 -80.257053 42.638998 87.241604
3327 3 -74.776678 69.235656 72.708902
3328 2 226.314306 110.684572 73.485734
3329 3 210.242843 111.344856 103.293007
3330 3 213.097885 117.052468 93.088936
3331 2 -118.270106 56.984322 49.919680
3332 3 -138.321847 33.067954 37.242099
3333 3 -119.897220 20.383362 57.128588
3334 2 3.235735 94.254785 -47.368997
3335 3 -0.066807 78.464322 -91.456912
3336 3 -14.490462 101.692690 -41.032579
3337 2 19.095064 115.456360 -90.864252
3338 3 26.224243 121.617668 -101.796040
3339 3 4.864992 136.683434 -117.610218
3340 2 -25.171262 79.871213 43.222957
3341 3 -8.927715 104.079664 22.997415
3342 3 -7.701833 86.833961 47.052526
3343 2 44.380698 107.115936 83.863642
3344 3 40.316875 81.026343 115.067300
3345 3 40.928841 94.148028 77.222244
3346 2 -54.524026 78.991846 13.018788
3347 3 -62.578294 85.625791 37.212664
3348 3 -31.398866 78.188710 56.043968
3349 2 -10.847887 27.032863 129.483465
3350 3 -14.320582 -1.733716 155.156621
3351 3 -11.537068 34.244804 140.790368
3352 2 14.826987 84.997116 21.956559
3353 3 -1.987817 92.086616 -15.929768
3354 3 16.749453 117.312347 33.773399
3355 2 19.474299 55.602100 137.349730
3356 3 11.034996 42.721383 140.775256
3357 3 29.762205 48.551230 135.077437
3358 2 -71.774369 137.005476 -30.243067
3359 3 -59.864917 117.763329 -43.640661
3360 3 -74.035254 125.788621 -56.824740
3361 2 19.546558 19.736261 43.062321
3362 3 16.358723 -47.271936 24.397531
3363 3 32.312879 -38.477250 56.858535
3364 2 -44.207973 85.669853 142.524811
3365 3 -26.038970 117.264636 166.428677
3366 3 -29.428651 104.283355 179.206800
3367 2 68.919801 50.721569 105.156031
3368 3 66.154166 86.295859 89.734427
3369 3 54.749686 54.174464 76.632343
3370 2 68.951837 60.638979 -4.220130
3371 3 30.237467 37.860582 -21.247793
3372 3 44.747052 55.844149 -17.634738
3373 2 -124.367483 134.136306 12.225264
3374 3 -127.263433 129.182826 18.455450
3375 3 -109.128089 106.481948 -4.560433
3376 2 30.853535 128.387338 201.988385
3377 3 54.933596 148.819675 162.006934
3378 3 29.199078 151.266547 179.355041
3379 2 -63.995438 116.444738 14.770196
3380 3 -83.549126 95.982310 59.650184
3381 3 -80.495951 86.410195 41.502638
3382 2 -28.710343 120.348612 -46.502910
3383 3 3.234020 117.263101 -57.875810
3384 3 -5.584909 113.685137 -41.234418
3385 2 43.954913 59.536931 56.926302
3386 3 57.513131 66.657534 36.501481
3387 3 69.368153 68.431973 47.797381
3388 2 36.675861 167.763240 83.898627
3389 3 56.456523 165.497787 69.572520
3390 3 35.853599 199.390325 72.097813
3391 2 55.656357 151.998161 48.258007
3392 3 78.786224 116.036130 46.065112
3393 3 55.118473 134.751676 42.168157
3394 2 13.073332 195.012814 23.953479
3395 3 12.494064 212.277020 -14.136390
3396 3 -12.012689 213.161149 -5.508249
3397 2 -111.445904 178.188088 144.725926
3398 3 -117.235313 144.116428 175.735163
3399 3 -105.517726 170.221317 157.993232
3400 2 18.838743 142.274368 52.241896
3401 3 31.946612 133.844345 40.211206
3402 3 33.154781 130.507317 37.253003
3403 2 69.685371 155.998728 182.298441
3404 3 79.875606 174.567933 209.272941
3405 3 70.859336 172.044158 163.157832
3406 2 114.658951 162.629194 71.416714
3407 3 107.255794 149.614297 86.062128
3408 3 122.472159 170.212012 58.002194
3409 2 95.888925 121.977219 2.010479
3410 3 83.364018 103.228535 -7.347182
3411 3 90.634014 119.974123 14.666703
3412 2 -90.298669 32.920758 94.474453
3413 3 -104.154308 40.857942 118.873208
3414 3 -105.542685 55.148929 110.992025
3415 2 35.303872 35.563897 27.687683
3416 3 58.184635 39.021515 48.726377
3417 3 56.334889 26.852073 21.653288
3418 2 -58.775499 130.201756 149.848890
3419 3 -48.912869 163.188058 143.062679
3420 3 -46.266072 128.139318 145.812816
3421 2 37.946568 172.795022 181.347181
3422 3 27.352830 138.197446 167.472334
3423 3 36.040818 137.784946 151.594451
3424 2 -48.200495 95.797084 -50.510615
3425 3 -36.688769 114.026055 -25.819419
3426 3 -41.165909 110.951453 -27.092588
3427 2 -55.018880 101.052802 67.246164
3428 3 -73.154543 105.487808 83.295191
3429 3 -76.402985 96.884381 31.813660
3430 2 75.768108 120.548131 127.575650
3431 3 75.759179 121.938692 154.225584
3432 3 79.152638 123.773066 121.439105
3433 2 70.976591 136.884001 -38.725583
3434 3 60.565927 87.873204 -34.018050
3435 3 59.470476 100.891492 -3.625246
3436 2 79.609833 43.106133 188.745529
3437 3 93.750152 57.275887 176.516501
3438 3 101.141630 25.283136 156.358926
3439 2 92.732053 126.688267 81.308319
3440 3 88.348189 128.591349 32.016238
3441 3 84.730129 124.419719 25.382705
3442 2 -2.500316 -12.242874 120.911773
3443 3 -11.025757 1.135798 148.656051
3444 3 -1.195763 -19.932163 130.208517
3445 2 12.710884 21.217822 57.391340
3446 3 -7.426801 45.304492 25.121813
3447 3 -15.672118 27.741151 44.457345
3448 2 94.167363 105.715280 87.388337
3449 3 116.235144 91.036707 121.973199
3450 3 83.998423 111.499499 93.683262
3451 2 -54.496418 -20.520264 101.140438
3452 3 -60.380650 3.702087 130.357477
3453 3 -52.169593 -10.881085 89.982077
3454 2 -71.041394 117.308561 37.211060
3455 3 -68.346936 93.521155 24.415759
3456 3 -66.290204 86.435655 11.289995
3457 2 -177.486424 133.431002 26.875908
3458 3 -166.633495 119.695398 58.544430
3459 3 -174.543726 123.979973 48.616476
3460 2 -30.319733 124.362376 -26.151712
3461 3 -37.352465 134.534627 -17.404714
3462 3 -32.224135 135.510172 -24.899181
3463 2 -134.182279 -29.326069 173.902861
3464 3 -151.528358 -39.684782 164.061229
3465 3 -151.980592 -58.843065 140.157769
3466 2 72.871192 172.280296 -4.090326
3467 3 66.180483 153.947913 -29.063103
3468 3 76.530874 163.224427 -32.182869
3469 2 19.354752 228.767343 30.933820
3470 3 23.594461 178.974788 29.561638
3471 3 26.513035 195.747059 38.703596
3472 2 -86.778365 17.567707 116.765745
3473 3 -101.673297 37.333631 126.081531
3474 3 -95.727420 31.173779 138.041771
3475 2 57.160328 217.841758 11.468689
3476 3 33.685708 235.608176 22.484634
3477 3 29.109440 214.627025 38.270495
3478 2 -45.065198 109.157682 84.768436
3479 3 -41.338418 119.521568 59.278341
3480 3 -46.307355 111.307468 100.170210
3481 2 58.235627 141.071078 5.838816
3482 3 66.028018 196.926106 26.269746
3483 3 70.550382 198.013015 10.081711
3484 2 52.201444 150.767314 93.968096
3485 3 56.136017 138.419368 56.736634
3486 3 33.232975 146.207222 75.684856
3487 2 188.517695 112.609677 -4.801723
3488 3 171.723042 120.630614 7.111860
3489 3 174.623429 126.920512 -28.086559
3490 2 72.009708 -79.715856 157.249166
3491 3 58.700171 -78.778420 164.906198
3492 3 49.451625 -86.801539 151.354440
3493 2 73.008050 -120.054874 127.341045
3494 3 69.835734 -93.300861 82.172459
3495 3 78.851615 -91.934558 101.345234
3496 2 -26.369064 56.587999 47.502195
3497 3 -30.449378 17.484355 41.872249
3498 3 -13.845208 67.201046 77.041021
3499 2 47.247115 -74.193158 27.769460
3500 3 38.230767 -55.155973 54.866833
3501 3 7.704364 -52.994274 73.131059
3502 2 54.036745 10.451751 103.119800
3503 3 51.189638 0.350755 88.362505
3504 3 55.078795 -0.478371 96.215410
3505 2 -48.748255 -13.654219 110.242691
3506 3 -52.486232 -20.955727 110.611274
3507 3 -73.826953 -23.410367 129.521504
3508 2 -104.830403 109.465979 100.251517
3509 3 -121.070905 119.464362 104.627085
3510 3 -104.087481 117.116531 120.047928
3511 2 -16.713974 40.851256 2.112875
3512 3 -15.262188 40.945277 -0.623923
3513 3 -7.662384 36.707455 -21.334202
3514 2 73.325687 -75.460215 153.023242
3515 3 98.582083 -37.749273 141.032408
3516 3 72.520061 -71.705319 114.665809
3517 2 89.400441 -48.350634 102.974484
3518 3 84.932230 -57.184749 67.029439
3519 3 115.055623 -48.788457 125.155891
3520 2 99.414793 40.822909 142.930279
3521 3 116.028100 25.694373 161.282741
3522 3 106.512564 32.180370 139.677055
3523 2 98.699147 -54.947150 84.515159
3524 3 116.110703 -46.884212 86.653142
3525 3 108.146747 -60.374593 95.979316
3526 2 234.269561 -22.297809 29.705833
3527 3 233.581030 -32.389071 18.222571
3528 3 244.673203 -44.239198 46.364323
3529 2 42.162044 -97.363613 16.508988
3530 3 40.198682 -108.997634 10.615689
3531 3 29.754841 -99.317895 -29.099231
3532 2 -38.328208 -117.793434 187.822407
3533 3 -55.893724 -98.270601 189.455957
3534 3 -53.528088 -126.537692 186.395517
3535 2 -31.933651 24.188802 125.133546
3536 3 -19.511584 11.412733 137.175804
3537 3 -20.507458 24.499038 141.828914
3538 2 -23.306451 -86.216668 34.643376
3539 3 -24.995663 -89.753085 58.397794
3540 3 -42.326314 -93.774345 34.463842
3541 2 101.044576 -8.268960 166.962116
3542 3 105.952794 35.974658 152.185257
3543 3 113.497874 2.500131 165.268045
3544 2 -38.804741 27.667295 183.390894
3545 3 -36.191216 58.446487 214.071404
3546 3 -30.128981 47.201950 202.674457
3547 2 99.285170 -85.940893 76.646851
3548 3 103.181267 -64.302498 65.414461
3549 3 114.390189 -75.242961 76.873535
3550 2 110.057851 -54.989562 114.355165
3551 3 98.721480 -27.639556 137.288738
3552 3 106.162888 -50.879852 105.053283
3553 2 57.749420 -5.653687 61.329965
3554 3 47.929477 -20.625018 79.106710
3555 3 31.881190 -37.448193 33.494381
3556 2 41.736399 36.754387 26.295825
3557 3 47.573146 51.979060 23.610551
3558 3 28.184166 48.746219 4.301691
3559 2 27.091478 -22.374111 57.454731
3560 3 29.290420 -19.459264 83.953456
3561 3 0.686907 -12.124014 66.805260
3562 2 42.046390 -40.506950 100.323765
3563 3 36.349983 -51.307396 81.268638
3564 3 31.070462 -13.587594 73.446279
3565 2 88.151640 -60.301217 50.925898
3566 3 87.479070 -63.053603 60.865299
3567 3 102.911223 -71.856921 81.860809
3568 2 25.024557 -22.668580 109.563991
3569 3 29.431954 -36.567215 108.864957
3570 3 39.677307 -26.626803 108.520205
3571 2 5.705100 -31.051200 109.869884
3572 3 5.224678 3.415087 132.355282
3573 3 3.894052 -3.491744 97.943557
3574 2 30.877973 -12.863478 87.535314
3575 3 44.400984 -7.793230 82.041253
3576 3 34.913067 -5.296234 109.146272
3577 2 -0.253268 13.829927 146.983901
3578 3 -22.354804 23.119113 126.942451
3579 3 -16.172762 24.002568 139.545494
3580 2 111.314515 86.035828 89.028423
3581 3 83.742245 65.112274 82.738913
3582 3 98.718553 86.105912 83.132479
3583 2 74.572331 100.004847 46.379334
3584 3 63.935454 96.381499 48.957072
3585 3 73.919444 108.391576 89.849141
3586 2 40.312695 106.690308 28.552572
3587 3 17.978330 111.914682 23.137501
3588 3 23.766594 115.741152 32.005453
3589 2 103.074981 -38.492652 64.927340
3590 3 94.927189 -63.730353 80.935386
3591 3 84.914038 -40.493615 106.433361
3592 2 111.693032 -31.978334 86.430475
3593 3 87.869229 -27.380791 113.400049
3594 3 69.325532 -19.995177 101.218286
3595 2 -20.148042 21.301266 123.619822
3596 3 -23.728516 0.370798 136.737963
3597 3 -25.867105 21.384771 129.687689
3598 2 83.743225 0.089752 121.882204
3599 3 92.886419 -5.776630 115.407301
3600 3 87.178183 -6.619526 104.158716
3601 2 -7.719908 116.705103 87.166436
3602 3 -17.388750 88.956327 90.904289
3603 3 -7.372903 93.615452 102.495819
3604 2 104.333235 -13.032025 202.850579
3605 3 106.633776 0.062968 201.486000
3606 3 74.997184 0.832892 195.845918
3607 2 -138.109978 11.989897 140.388674
3608 3 -119.998619 21.680084 107.926317
3609 3 -128.213860 -4.920333 148.852562
3610 2 -60.882498 115.067845 1.970855
3611 3 -53.157052 93.082390 -6.568935
3612 3 -57.562133 91.511628 6.675091
3613 2 -65.298968 35.202888 136.603561
3614 3 -71.532415 39.209125 170.770266
3615 3 -62.771953 37.695878 155.342061
3616 2 37.641154 -13.446996 -27.154729
3617 3 55.264051 13.589832 20.104726
3618 3 62.745556 18.269272 -3.061558
3619 2 -26.886415 13.260860 160.397353
3620 3 -7.844309 15.196143 135.407963
3621 3 -24.167873 14.277634 143.958464
3622 2 -71.023270 81.700379 48.244409
3623 3 -70.289438 91.497434 33.915550
3624 3 -61.804628 89.358838 38.284549
3625 2 4.467325 34.755896 90.725677
3626 3 10.298619 36.723912 89.241669
3627 3 1.611722 41.938197 83.861603
3628 2 57.265476 136.505209 27.414502
3629 3 56.574163 123.749719 22.969842
3630 3 69.915666 174.465532 38.125941
3631 2 -36.582674 35.880420 161.385065
3632 3 -19.699937 52.484010 167.118282
3633 3 -15.037729 35.106892 144.256256
3634 2 110.687893 111.311931 77.764785
3635 3 99.600311 90.458822 57.809134
3636 3 121.180029 114.982017 45.918802
3637 2 67.360081 13.256203 50.160343
3638 3 49.807180 22.036599 68.771461
3639 3 64.600284 25.343014 70.424418
3640 2 254.766941 -61.438581 186.727131
3641 3 218.246708 -41.065490 172.641188
3642 3 226.517819 -43.663819 191.002137
3643 2 2.763815 -11.677329 212.325262
3644 3 45.246999 1.770480 174.609156
3645 3 39.599388 -13.825590 165.779527
3646 2 -17.969772 108.808690 137.436158
3647 3 -41.976594 96.284792 149.027909
3648 3 -19.691439 77.664383 146.118257
3649 2 141.760924 101.067946 52.465570
3650 3 165.140006 106.546513 55.169458
3651 3 144.059536 99.790702 47.513236
3652 2 107.228531 -42.688966 199.403687
3653 3 94.819424 -62.650066 237.639218
3654 3 85.526419 -43.828044 190.690875
3655 2 -41.807611 -48.740457 127.930024
3656 3 -27.828535 -50.349808 163.516423
3657 3 -42.090423 -47.691308 149.133499
3658 2 74.774746 39.245927 73.939568
3659 3 76.903770 25.415935 31.160917
3660 3 98.817419 47.937499 67.883841
3661 2 -18.186556 30.976913 134.417345
3662 3 -32.398490 27.354708 113.089848
3663 3 -27.828625 16.978708 122.303863
3664 2 -59.313251 33.355444 132.916842
3665 3 -78.911981 18.797243 126.494840
3666 3 -65.304212 35.406524 105.173634
3667 2 177.594229 157.291335 64.577076
3668 3 167.289114 149.356995 36.596777
3669 3 162.687046 181.486825 35.758305
3670 2 68.617423 193.569684 -17.848143
3671 3 61.730461 156.865707 -4.447725
3672 3 59.379141 190.383611 5.533918
3673 2 179.153555 -11.193062 158.588448
3674 3 211.068614 -11.161750 196.010156
3675 3 174.698181 -10.024189 164.257011
3676 2 -55.743104 59.149978 19.969351
3677 3 -53.224329 63.689502 34.225735
3678 3 -45.675045 58.437228 28.059139
3679 2 -107.103835 152.726568 119.157983
3680 3 -108.372584 162.101803 113.666815
3681 3 -122.716064 166.160192 120.266212
3682 2 51.949232 -75.411227 67.394700
3683 3 63.897354 -76.179096 51.183044
3684 3 43.558746 -83.921710 88.731908
3685 2 88.105446 77.345815 61.097703
3686 3 92.675554 70.928897 99.701416
3687 3 116.193442 50.445518 69.597121
3688 2 10.132255 -23.137754 69.825821
3689 3 28.415643 -58.290762 90.692630
3690 3 11.885659 -41.526803 90.569091
3691 2 -154.357111 122.285364 10.240276
3692 3 -137.577816 104.136155 25.207375
3693 3 -137.689444 112.661874 24.873104
3694 2 71.753777 68.450823 24.085747
3695 3 61.145088 79.743478 36.069641
3696 3 66.360276 83.101796 35.055363
3697 2 -50.237457 -27.784138 73.592145
3698 3 -58.097820 -25.018148 29.272453
3699 3 -50.990658 -40.709630 54.327088
3700 2 19.835286 177.460274 25.491626
3701 3 33.034925 168.442035 4.989066
3702 3 35.319990 151.669749 8.387843
3703 2 56.815717 37.964088 58.521301
3704 3 56.264611 37.389989 67.553772
3705 3 44.940732 32.579243 67.842408
3706 2 67.970566 11.708233 40.559321
3707 3 75.959148 -3.248713 56.996755
3708 3 64.371770 2.595213 64.874245
3709 2 21.653534 104.744897 -31.619229
3710 3 22.449076 124.396023 -11.811199
3711 3 31.003490 117.253476 -20.349120
3712 2 121.190413 190.891146 172.829174
3713 3 150.625133 190.864432 131.697866
3714 3 137.688825 191.580675 169.172291
3715 2 39.293236 78.358622 116.448366
3716 3 41.605726 82.619737 115.831054
3717 3 32.414012 88.457946 115.642920
3718 2 80.367551 13.948124 109.989294
3719 3 102.335504 18.040802 106.808973
3720 3 97.975644 9.757173 132.785567
3721 2 -24.723872 101.764416 175.693813
3722 3 13.097699 121.436935 138.062483
3723 3 2.677368 125.123784 171.728095
3724 2 -2.656270 63.839622 79.110063
3725 3 9.911412 60.063912 45.927896
3726 3 20.288398 60.297115 88.356798
3727 2 -20.786264 138.876515 161.843332
3728 3 -13.554723 135.691514 147.440922
3729 3 9.124369 143.858829 154.225750
3730 2 -27.654412 204.521421 137.853831
3731 3 -6.320579 192.908055 138.553853
3732 3 -34.585911 192.464485 141.999066
3733 2 -43.989325 56.852417 181.662705
3734 3 -26.820429 46.900824 147.653458
3735 3 -26.534304 52.278208 168.840299
3736 2 -18.675244 83.575866 226.417600
3737 3 -42.595642 76.023176 220.113347
3738 3 -42.489418 54.402277 203.035484
3739 2 89.928456 175.308990 50.267059
3740 3 82.920282 163.058305 96.008553
3741 3 62.121109 159.397782 77.573436
3742 2 -106.401241 22.119694 77.010797
3743 3 -138.835755 30.085296 79.933564
3744 3 -116.053962 50.082974 99.884254
3745 2 -81.978295 139.308309 73.113299
3746 3 -84.549680 127.601595 67.328647
3747 3 -81.163924 140.514624 66.490524
3748 2 30.681216 8.376007 119.747949
3749 3 31.479098 10.147350 99.712607
3750 3 16.328343 10.074086 108.926087
3751 2 30.025668 81.046941 84.525127
3752 3 56.039970 71.145862 98.669559
3753 3 38.343899 86.422488 74.120242
3754 2 120.122046 67.119091 -51.151135
3755 3 123.123098 53.535736 -116.627673
3756 3 109.781078 58.508981 -60.447731
3757 2 15.586254 28.373833 240.055840
3758 3 15.319511 11.008998 258.278596
3759 3 21.388045 32.670197 268.855031
3760 2 -3.518193 25.015009 5.397216
3761 3 -0.590462 42.119990 0.707137
3762 3 8.154811 2.145028 -10.991292
3763 2 87.779662 73.378558 192.021521
3764 3 62.470992 108.181582 187.638628
3765 3 73.410539 97.208794 167.332249
3766 2 -11.518362 23.684923 156.410637
3767 3 -33.378824 11.513695 139.833996
3768 3 -36.416488 0.806034 125.097500
3769 2 -27.282458 105.927691 -65.241249
3770 3 -6.539577 75.633425 -42.517375
3771 3 -28.950963 90.064408 -38.158234
3772 2 -64.766597 176.949000 102.380957
3773 3 -74.378675 172.796238 120.770829
3774 3 -80.210742 170.619699 112.944937
3775 2 -60.127923 68.379686 57.608803
3776 3 -61.347901 75.838702 66.880317
3777 3 -67.090549 73.399296 75.475853
3778 2 -90.409718 163.841478 33.306240
3779 3 -94.423212 187.614166 -3.262375
3780 3 -85.238414 184.126486 18.632609
3781 2 67.851567 157.371325 142.303612
3782 3 43.029151 133.727645 175.283188
3783 3 50.349107 139.009453 164.350118
3784 2 -99.734159 0.456638 153.595928
3785 3 -61.808307 -35.185807 132.723533
3786 3 -89.544396 -4.984483 134.711309
3787 2 54.590378 89.663691 69.582202
3788 3 59.935414 55.659675 100.170256
3789 3 48.387467 76.501689 66.635269
3790 2 53.524362 95.845654 162.769202
3791 3 41.585989 100.664348 180.550675
3792 3 55.299316 111.712412 165.212312
3793 2 10.550735 110.038314 -6.196644
3794 3 -0.783257 107.829884 -7.496884
3795 3 14.373622 104.231463 10.835263
3796 2 105.955968 19.654951 47.050868
3797 3 91.356772 7.465343 71.263108
3798 3 99.938993 -9.643699 22.977190
3799 2 128.022965 89.569873 177.454827
3800 3 135.404769 91.664932 167.207524
3801 3 131.494326 70.611081 176.586323
3802 2 -47.302523 58.792221 79.982207
3803 3 -31.418272 64.161420 77.858206
3804 3 -24.430500 56.464259 89.439739
3805 2 -6.670069 26.864203 185.219884
3806 3 13.096613 5.880840 206.783287
3807 3 -3.964085 14.434534 215.576068
3808 2 10.096322 -24.039212 120.418309
3809 3 17.092583 -28.976488 127.817496
3810 3 4.984293 -28.578417 117.876898
3811 2 -109.654878 -28.738845 138.281625
3812 3 -125.165967 -5.463447 67.239678
3813 3 -110.349239 -25.738280 131.767927
3814 2 89.528006 65.454993 18.878929
3815 3 94.521015 65.198729 2.596805
3816 3 97.640431 53.197877 -12.946113
3817 2 73.681563 51.342071 105.546626
3818 3 57.783477 46.740512 66.291421
3819 3 58.548156 37.873282 66.822295
3820 2 36.461616 120.627064 145.774436
3821 3 52.439911 122.125985 140.986140
3822 3 46.594228 140.141192 150.553543
3823 2 -63.745632 46.715440 116.201860
3824 3 -91.826245 22.086207 103.423424
3825 3 -90.163955 47.948057 91.559496
3826 2 99.347036 49.912790 17.574756
3827 3 131.514601 56.476970 28.797954
3828 3 107.800737 71.599550 32.436973
3829 2 -57.130797 25.298419 41.766479
3830 3 -45.971156 47.489841 37.239659
3831 3 -41.426062 39.709750 87.368090
3832 2 71.610959 68.323916 97.015094
3833 3 53.649379 67.454094 122.308495
3834 3 51.094598 79.178791 118.967432
3835 2 94.217342 90.001759 90.061613
3836 3 85.434775 104.554022 111.891667
3837 3 86.434768 85.377474 95.927822
3838 2 101.083493 65.986147 -18.815865
3839 3 84.136175 84.746360 46.440861
3840 3 86.682128 90.734537 34.260776
3841 2 -60.660788 -38.197639 274.860163
3842 3 -44.119497 -37.367269 246.967782
3843 3 -84.171249 -31.899090 276.185107
3844 2 40.546041 -10.033535 130.898694
3845 3 57.367377 17.432200 140.563845
3846 3 19.146771 35.930408 165.569675
3847 2 -0.773154 95.694873 50.473893
3848 3 -3.009405 92.777141 53.352016
3849 3 -6.354717 101.476819 69.566528
3850 2 -58.484786 -2.594934 159.072999
3851 3 -64.703295 -18.024778 165.759931
3852 3 -64.371015 -5.092784 156.781683
3853 2 -32.741141 35.005550 23.206058
3854 3 -38.850566 13.332249 64.062153
3855 3 -26.307568 22.825990 78.115234
3856 2 -9.905606 -26.885853 117.806975
3857 3 6.562098 -28.040022 131.270995
3858 3 -23.508738 -23.433154 152.281778
3859 2 72.059237 -15.829690 166.867514
3860 3 78.715682 -3.181031 163.941772
3861 3 88.891684 -2.493119 170.784566
3862 2 43.208432 34.755479 172.212923
3863 3 40.725461 -7.258801 169.297016
3864 3 27.240295 25.348478 187.457561
3865 2 30.826111 -37.201569 153.245253
3866 3 5.744146 -43.607635 143.117231
3867 3 17.832414 -61.519947 157.250688
3868 2 91.518397 -70.656383 91.996428
3869 3 69.032068 -79.073581 104.947711
3870 3 85.007888 -68.212272 77.083617
3871 2 137.130151 35.571228 159.185951
3872 3 143.664997 31.725965 178.103903
3873 3 125.208658 32.571517 166.840612
3874 2 19.523322 -128.644640 184.818375
3875 3 25.902701 -122.556678 145.419674
3876 3 55.416368 -106.910854 176.848891
3877 2 179.609301 73.007714 173.137954
3878 3 184.743888 62.638852 181.971255
3879 3 184.649996 62.699213 154.483013
3880 2 -25.103902 59.011365 231.655158
3881 3 -24.428359 88.868196 214.126704
3882 3 -30.805112 85.427124 224.258600
3883 2 -26.449729 45.775600 103.339090
3884 3 -49.159513 47.919092 95.426811
3885 3 -35.754900 31.256121 92.495252
3886 2 -12.760143 -8.843471 64.501816
3887 3 10.739664 23.423492 30.453797
3888 3 4.998798 -6.107206 55.733566
3889 2 -71.709644 92.927846 159.088332
3890 3 -79.687158 96.251350 163.539894
3891 3 -64.727908 97.556805 200.744223
3892 2 21.817687 126.264447 -14.316693
3893 3 7.528633 125.406553 -3.077913
3894 3 11.572162 137.042027 -1.010077
3895 2 31.533166 -58.950848 96.307826
3896 3 15.283699 -38.198609 91.619469
3897 3 27.860296 -61.056018 104.762880
3898 2 56.164904 46.753528 65.717927
3899 3 51.093517 23.598926 75.473552
3900 3 63.883109 45.297982 81.616979
3901 2 191.702299 61.035648 -2.964691
3902 3 183.720804 67.023300 -20.091215
3903 3 174.353718 71.954661 -25.384314
3904 2 -100.525531 -45.635142 -63.336708
3905 3 -96.000064 -72.667097 -77.993843
3906 3 -115.342888 -57.901791 -38.433612
3907 2 132.781106 152.468673 19.404037
3908 3 110.105882 147.325779 10.232405
3909 3 87.409902 143.129100 7.544153
3910 2 95.751327 59.620281 94.656839
3911 3 78.262376 91.876895 82.490682
3912 3 96.195476 51.376649 70.859703
3913 2 52.999315 -67.729391 49.428476
3914 3 40.607811 -67.839159 19.909455
3915 3 37.878677 -19.562984 18.894946
3916 2 162.373951 -30.369048 -41.133833
3917 3 167.335013 -59.600026 -32.306395
3918 3 150.426205 -37.372719 -50.367089
3919 2 -28.583816 -27.121660 122.417175
3920 3 -53.735556 -27.269530 106.931290
3921 3 -32.091748 10.556658 138.919926
3922 2 -75.720931 56.438408 48.769791
3923 3 -69.516603 54.788416 48.042032
3924 3 -90.747550 58.053107 19.829983
3925 2 48.386043 114.933774 28.019153
3926 3 49.301360 126.892300 27.905107
3927 3 41.531178 127.525909 41.457014
3928 2 -3.808545 65.867668 184.123132
3929 3 -2.714642 49.521031 216.427283
3930 3 -13.835240 55.036756 196.007518
3931 2 112.047841 51.771814 103.542972
3932 3 126.712718 67.734686 119.512643
3933 3 121.199515 77.599324 124.490891
3934 2 72.997623 7.335813 212.266973
3935 3 78.494575 12.641774 225.782897
3936 3 86.309323 -11.106834 221.481376
3937 2 3.773349 104.278140 126.868017
3938 3 -27.515767 126.255226 114.748861
3939 3 -16.367650 140.202822 116.165261
3940 2 94.867197 -32.485964 185.101553
3941 3 75.726659 -39.070297 198.021671
3942 3 79.008656 -40.833427 169.033654
3943 2 -5.011388 -98.978262 -4.520895
3944 3 -3.638774 -96.307766 -6.454140
3945 3 11.546709 -79.997781 28.562904
3946 2 163.840321 26.411731 88.617729
3947 3 198.018558 35.476084 105.120770
3948 3 207.458116 31.279779 93.412958
3949 2 86.202840 131.101774 163.914381
3950 3 87.074590 87.913100 160.578863
3951 3 79.581054 127.429939 156.069944
3952 2 91.993833 -125.166250 -62.348203
3953 3 119.560655 -146.335448 -55.318590
3954 3 123.973815 -128.205525 -59.616582
3955 2 109.208588 -50.278583 61.112068
3956 3 127.288486 -58.965110 65.126766
3957 3 118.385552 -31.745040 44.915003
3958 2 44.067238 -16.303181 -53.480775
3959 3 68.786647 -36.018850 -12.852226
3960 3 73.275826 -35.683645 -14.341617
3961 2 -123.319293 36.673318 116.927234
3962 3 -122.239328 52.655628 118.980080
3963 3 -141.927662 68.980323 125.732913
3964 2 -75.195147 35.033672 130.844834
3965 3 -73.357729 15.916287 135.359407
3966 3 -56.620087 36.320609 115.356697
3967 2 31.971444 46.967434 197.476773
3968 3 49.604003 74.029795 192.712335
3969 3 38.228585 60.169950 189.031401
3970 2 97.970042 83.655050 152.722470
3971 3 83.022119 78.511201 157.781664
3972 3 117.274861 66.263242 153.678509
3973 2 131.262786 -5.273433 37.895033
3974 3 128.237866 -22.755214 33.170591
3975 3 117.384333 -13.543201 5.626734
3976 2 -12.189801 18.980129 124.698924
3977 3 -23.260167 11.845884 157.451425
3978 3 -35.319145 25.166002 144.104795
3979 2 64.767444 -55.218546 62.228614
3980 3 66.867196 -49.620496 22.008176
3981 3 79.032690 -56.389269 9.426777
3982 2 60.552527 -78.454022 164.148588
3983 3 64.358188 -103.279052 125.918925
3984 3 50.790294 -80.096085 144.552757
3985 2 111.754053 184.525507 12.064049
3986 3 129.661431 169.869672 13.216395
3987 3 111.401764 163.246063 3.686084
3988 2 66.857006 91.519146 121.049570
3989 3 30.493350 55.247255 125.630377
3990 3 61.364075 69.912810 110.953987
3991 2 112.399071 -18.350750 172.869325
3992 3 95.667677 -12.816794 158.954465
3993 3 107.226547 -17.100152 171.572611
3994 2 56.544290 37.806269 133.023207
3995 3 49.745209 48.798784 134.318297
3996 3 44.963115 48.756073 159.684572
3997 2 -51.481826 167.969790 1.525949
3998 3 -59.181064 177.500079 29.794143
3999 3 -40.656690 183.290722 27.885687
4000 2 -41.821797 63.306772 85.429894
4001 3 -31.143373 37.168394 54.288007
4002 3 -37.216888 48.978776 67.730134
4003 2 40.085608 -122.297749 135.286671
4004 3 31.110351 -99.504551 143.957255
4005 3 42.125662 -98.893863 123.027983
4006 2 152.893758 -44.422600 174.525431
4007 3 139.996816 -41.404717 211.704159
4008 3 154.490700 -39.768797 220.928249
4009 2 176.593367 92.165898 30.105532
4010 3 194.247759 95.334099 39.156185
4011 3 182.001165 101.289883 7.174981
4012 2 -47.486876 28.811805 188.971599
4013 3 -27.436575 35.225909 147.111624
4014 3 -56.787936 54.807737 146.549326
4015 2 -51.146491 139.010624 194.462334
4016 3 -63.571460 128.312289 215.321508
4017 3 -58.555576 104.989108 207.429393
4018 2 101.802134 111.679875 89.231258
4019 3 105.693750 109.301332 113.519514
4020 3 116.042132 115.673728 125.038252
4021 2 46.361693 -122.333388 195.355120
4022 3 26.103615 -117.782320 144.394201
4023 3 47.264860 -133.981298 178.011017
4024 2 9.513014 55.203482 97.137184
4025 3 -2.047146 46.545385 73.189178
4026 3 12.397214 64.403575 77.515968
4027 2 162.828970 59.661150 19.928198
4028 3 153.841264 50.601886 25.107382
4029 3 143.090806 56.259321 58.291464
4030 2 7.819467 196.552765 -28.966208
4031 3 20.924169 186.673964 -0.732936
4032 3 24.230290 157.916079 -3.196931
4033 2 -61.097972 170.053309 153.876948
4034 3 -62.977924 154.812672 145.543043
4035 3 -54.208490 187.094301 110.609216
4036 2 -36.691819 -22.709898 108.749034
4037 3 -58.529724 -39.041926 91.669127
4038 3 -42.496290 -24.580572 124.021469
4039 2 100.279629 5.494639 139.685109
4040 3 144.094860 -7.189876 149.166924
4041 3 100.480455 -6.548176 126.097722
4042 2 135.385443 -2.463541 169.325487
4043 3 136.027890 2.800956 195.444906
4044 3 127.799326 2.998621 190.176201
4045 2 -113.165974 84.389059 144.173353
4046 3 -125.456384 60.129852 136.679112
4047 3 -107.012160 54.688083 145.324842
4048 2 64.478515 108.535971 88.067152
4049 3 91.181971 109.002081 79.470808
4050 3 85.441745 131.769667 52.054369
4051 2 -122.221247 1.016741 86.627733
4052 3 -104.651664 17.797532 64.642123
4053 3 -108.049665 34.281738 76.726779
4054 2 33.159214 -51.221127 173.900665
4055 3 48.039020 -42.204964 210.951642
4056 3 49.938125 -75.766049 232.994292
4057 2 84.614871 -49.231601 122.949489
4058 3 113.027757 -29.023317 132.794738
4059 3 89.224987 -54.467561 109.877458
4060 2 131.814816 5.836725 -6.926195
4061 3 120.167057 33.895841 -31.722407
4062 3 140.665553 3.784080 -31.408930
4063 2 40.828533 31.599680 49.239058
4064 3 55.660837 25.989693 43.598258
4065 3 32.247596 49.931079 51.650936
4066 2 92.396242 70.716709 61.125031
4067 3 104.198287 46.588222 50.019001
4068 3 81.877570 57.262241 34.711338
4069 2 12.436523 114.084280 168.793348
4070 3 26.653691 137.422552 181.675142
4071 3 49.330795 119.722523 181.530204
4072 2 -45.212218 60.186694 31.836448
4073 3 -44.853477 65.231228 -19.633087
4074 3 -44.776574 88.437679 14.825616
4075 2 124.252511 54.200782 22.430362
4076 3 126.708527 65.114892 30.447512
4077 3 123.737875 47.706352 27.855663
4078 2 75.433346 32.100401 94.593508
4079 3 85.932575 53.918093 120.467114
4080 3 83.718864 51.249549 127.644659
4081 2 17.179367 83.283875 134.055064
4082 3 26.557344 90.073219 139.500851
4083 3 11.195834 78.428106 181.888038
4084 2 -103.131618 129.989489 83.175282
4085 3 -89.047533 125.898997 100.348361
4086 3 -69.620898 114.541701 63.944712
4087 2 47.219476 112.407042 33.827819
4088 3 40.602033 94.305111 28.559443
4089 3 22.698806 95.241953 -9.064729
4090 2 -123.813197 32.951702 185.193387
4091 3 -127.054312 29.410287 198.286435
4092 3 -113.470972 28.089980 182.055598
4093 2 -2.146574 -3.548652 18.383953
4094 3 -2.108146 0.530903 9.574843
4095 3 -22.491298 39.129268 -5.672283
4096 2 -32.857647 73.560564 -10.319109
4097 3 -22.650391 65.539031 14.782156
4098 3 -17.712987 91.483720 29.196078
4099 2 28.446993 128.276430 83.014591
4100 3 24.393444 145.245224 77.949455
4101 3 24.927440 145.593136 88.387788
4102 2 32.699029 66.197867 -6.522393
4103 3 19.739448 79.043183 -14.502788
4104 3 47.031509 67.338348 4.069569
4105 2 35.916932 15.057541 110.359020
4106 3 40.462458 35.510334 108.655419
4107 3 36.135161 43.517091 105.897892
4108 2 80.403306 59.978661 210.634623
4109 3 85.790460 62.827598 222.808110
4110 3 99.555232 52.037296 197.151156
4111 2 -63.242853 3.545308 62.490347
4112 3 -69.521921 -7.795790 37.429192
4113 3 -32.824662 -9.488969 31.185031
4114 2 -1.753008 157.066403 162.719890
4115 3 -8.120059 122.053697 137.679785
4116 3 -6.736313 113.774189 135.033329
4117 2 -153.369153 15.507278 157.554551
4118 3 -166.505535 4.875843 157.969374
4119 3 -172.330687 31.294851 166.033607
4120 2 30.923849 74.780856 150.221403
4121 3 26.276340 102.861588 172.380326
4122 3 25.289944 89.108864 157.781175
4123 2 -76.941236 172.399391 95.579988
4124 3 -81.091495 174.176681 60.011677
4125 3 -72.406920 164.663953 93.377411
4126 2 41.416865 120.052554 83.606914
4127 3 31.523719 85.097731 47.948570
4128 3 34.837434 105.147491 68.671019
4129 2 45.347582 6.812959 85.810442
4130 3 35.454274 18.759177 133.265395
4131 3 44.472558 7.368306 85.631267
4132 2 60.197249 69.121187 47.676778
4133 3 46.056369 84.825088 47.742236
4134 3 57.935819 109.928295 58.773723
4135 2 -4.193625 55.670862 106.829842
4136 3 8.129341 30.185695 89.801633
4137 3 10.343258 38.204524 99.583805
4138 2 -44.113901 42.893944 -3.545775
4139 3 -32.468580 46.101399 21.658487
4140 3 -32.529802 35.510540 51.357281
4141 2 46.194059 17.179896 63.245493
4142 3 37.406153 24.674151 101.286271
4143 3 37.525351 19.226078 103.344044
4144 2 -27.723685 124.229460 159.609335
4145 3 -58.784238 131.414442 128.681314
4146 3 -40.870506 121.554380 107.283127
4147 2 -28.141664 132.751560 1.480885
4148 3 -36.714769 172.596317 -8.421901
4149 3 -44.784659 179.709870 18.630047
4150 2 -43.175885 42.512955 17.911755
4151 3 -29.906903 36.201096 50.615563
4152 3 -25.451914 32.314833 76.795784
4153 2 118.965493 181.993887 110.640317
4154 3 134.958969 181.844004 86.072696
4155 3 122.628145 200.282710 91.890562
4156 2 -72.025728 42.396942 181.076956
4157 3 -56.005439 46.142303 137.985291
4158 3 -59.553665 44.812000 164.582877
4159 2 59.268153 20.951869 55.993362
4160 3 56.036270 33.071409 78.382350
4161 3 39.301681 32.934227 57.757321
4162 2 -69.971419 95.575824 58.987020
4163 3 -84.000183 108.250457 82.904489
4164 3 -76.555398 99.625439 70.354522
4165 2 83.421361 68.714457 61.126913
4166 3 89.272796 90.396644 68.785715
4167 3 100.715273 67.845890 74.707256
4168 2 -15.972984 109.882006 25.219323
4169 3 -24.154331 122.524870 25.141549
4170 3 -21.467875 145.431728 25.400684
4171 2 96.924741 126.871296 134.402483
4172 3 90.256224 97.071028 165.822769
4173 3 98.653667 109.488268 162.655899
4174 2 -14.178824 118.729356 143.244927
4175 3 -31.653842 103.552227 164.813810
4176 3 -12.009675 93.902266 153.205683
4177 2 -3.723864 44.017831 148.156120
4178 3 0.325228 58.821934 129.058329
4179 3 13.250567 63.659044 158.481012
4180 2 55.716685 9.691389 169.266423
4181 3 49.413457 -15.538912 183.456822
4182 3 42.646513 6.677735 189.528251
4183 2 -106.553395 143.433375 94.484975
4184 3 -137.785334 127.918848 79.797990
4185 3 -126.937125 139.727993 61.701246
4186 2 99.466362 34.308647 83.713657
4187 3 91.811427 38.030690 85.228821
4188 3 106.049756 43.165287 70.351529
4189 2 -48.601345 24.495016 132.028327
4190 3 -18.343858 55.793108 128.486740
4191 3 -11.530595 76.882358 95.628378
4192 2 84.483891 34.013450 102.247255
4193 3 106.546569 27.364818 145.803092
4194 3 100.390426 11.276103 123.507635
4195 2 -41.528237 158.197602 120.215774
4196 3 -37.152828 117.522227 78.576642
4197 3 -39.416160 115.619198 88.658512
4198 2 -189.234060 21.759793 86.542939
4199 3 -207.151593 23.131382 61.204903
4200 3 -182.316618 38.103712 75.868681
4201 2 -46.580936 -29.312412 39.390880
4202 3 -75.006351 -12.773640 16.964878
4203 3 -39.457196 -20.685740 22.942780
4204 2 -12.480921 135.831811 203.184648
4205 3 -5.713369 115.969497 164.822353
4206 3 -14.393793 157.063514 235.855047
4207 2 104.335478 129.997114 127.334679
4208 3 122.583664 176.309325 134.555217
4209 3 116.034441 189.667809 124.621575
4210 2 -83.692905 122.572969 160.084366
4211 3 -71.921494 113.267529 155.528875
4212 3 -53.286688 110.090099 165.072540
4213 2 104.967381 110.197639 62.601768
4214 3 104.639890 129.508456 96.146318
4215 3 83.228719 142.592556 95.208744
4216 2 5.577104 -4.933745 141.820407
4217 3 8.668075 17.065089 162.437929
4218 3 8.227860 -8.230408 127.188283
4219 2 42.929316 119.909946 33.015762
4220 3 43.620306 128.795231 44.574552
4221 3 28.693374 93.680944 33.636226
4222 2 -55.599048 153.668808 151.063715
4223 3 -60.540630 171.027387 161.930350
4224 3 -49.221940 139.403450 168.599310
4225 2 -108.259316 138.200852 61.752883
4226 3 -120.258753 150.960363 76.601515
4227 3 -107.780053 146.981242 60.814765
4228 2 169.412993 141.832653 109.764146
4229 3 173.841338 158.811277 74.878544
4230 3 167.803072 146.562904 68.657651
4231 2 115.926516 35.151233 10.954842
4232 3 146.131982 49.871104 -7.544976
4233 3 131.373305 45.657913 15.867040
4234 2 -42.709662 -3.094779 78.721899
4235 3 -71.478745 -4.238130 89.165219
4236 3 -68.386234 -43.399317 60.516147
4237 2 -20.915916 -89.238755 227.393862
4238 3 -3.433954 -75.346008 243.378737
4239 3 -16.267055 -117.461373 244.021208
4240 2 -19.008953 7.023684 143.226659
4241 3 -32.094392 -3.813052 151.496602
4242 3 -4.259730 21.657068 166.351401
4243 2 61.971328 33.535526 -0.537080
4244 3 80.849377 29.263719 43.806534
4245 3 65.473994 -20.171379 17.635799
4246 2 -85.900040 -84.632419 117.976491
4247 3 -82.310327 -85.279225 132.057425
4248 3 -83.607239 -62.791678 148.732487
4249 2 31.594246 -8.334183 227.108912
4250 3 17.815981 1.524583 256.544503
4251 3 31.213552 -25.189439 277.775406
4252 2 -6.869426 -123.429297 40.134929
4253 3 -23.840354 -113.403121 40.395378
4254 3 -11.240852 -133.735688 37.146531
4255 2 -118.154139 14.119062 -7.324496
4256 3 -111.331736 13.918253 7.869071
4257 3 -95.877934 1.353130 -23.897538
4258 2 109.567760 -101.951543 225.673072
4259 3 117.523588 -124.927223 212.234609
4260 3 118.246845 -111.315862 241.739228
4261 2 -33.518641 35.222252 175.744352
4262 3 -49.309085 21.190980 139.965437
4263 3 -47.503681 23.872286 185.221674
4264 2 11.221798 35.899735 191.319987
4265 3 24.217013 7.218482 197.387411
4266 3 25.195220 14.881065 176.777040
4267 2 10.758584 -29.920093 95.006550
4268 3 -7.815659 -19.070011 110.537264
4269 3 3.614899 -38.634401 112.860991
4270 2 78.638797 53.833223 156.306569
4271 3 89.314165 67.638895 135.070703
4272 3 96.666986 69.666918 145.783699
4273 2 69.142606 23.781554 52.309920
4274 3 75.327251 26.772957 59.893576
4275 3 74.236495 28.947742 59.161869
4276 2 -29.421832 82.661959 217.482076
4277 3 -6.236865 99.151476 186.454599
4278 3 -12.943893 122.699491 190.561160
4279 2 -147.392821 -48.535245 62.721529
4280 3 -106.499152 -53.041057 67.960614
4281 3 -118.883910 -39.853975 54.289470
4282 2 -53.618332 36.335809 179.412942
4283 3 -36.543252 35.798380 225.991623
4284 3 -48.622323 17.006575 202.217722
4285 2 -0.702146 86.221115 128.126692
4286 3 13.931085 83.015865 105.668998
4287 3 16.280339 105.271299 111.996445
4288 2 34.555652 106.498027 131.299272
4289 3 29.249899 100.383943 127.165348
4290 3 32.950638 86.878958 158.215151
4291 2 68.783458 42.257996 87.100116
4292 3 81.381305 34.400120 101.024321
4293 3 66.476597 28.860997 113.891077
4294 2 50.376891 -0.678543 221.831867
4295 3 35.161474 11.721651 188.576382
4296 3 51.794999 26.159908 205.717386
4297 2 10.274393 27.820170 96.726647
4298 3 -2.845415 9.132581 92.395544
4299 3 -18.415236 18.919562 82.036474
4300 2 68.048202 -74.683937 70.486992
4301 3 35.686746 -68.503525 79.085181
4302 3 74.164739 -86.827371 90.690194
4303 2 78.502611 12.001630 79.295618
4304 3 111.748637 1.632090 83.837243
4305 3 116.245700 14.820878 117.505197
4306 2 155.294052 155.557013 125.067055
4307 3 156.609279 149.564138 98.914099
4308 3 147.415989 155.451115 99.690834
4309 2 200.728916 28.767335 14.083305
4310 3 187.366701 1.536073 7.145515
4311 3 179.103083 48.727358 3.034911
4312 2 -20.035282 45.960380 89.619325
4313 3 -27.001035 68.736785 103.517103
4314 3 -33.573722 45.844327 101.979835
4315 2 -33.469624 53.660141 63.506212
4316 3 -67.486297 18.193804 74.710748
4317 3 -45.396972 30.616206 49.854409
4318 2 -75.900890 68.232048 96.219963
4319 3 -86.207798 59.397306 100.908546
4320 3 -92.599709 93.224018 88.277202
4321 2 -33.083243 62.829867 77.802671
4322 3 -43.808429 43.715752 120.592346
4323 3 -28.401654 44.759663 100.004292
4324 2 84.598115 133.733164 193.891714
4325 3 64.651094 132.223873 189.197245
4326 3 76.360183 137.336883 175.743134
4327 2 46.693128 -9.115837 98.713326
4328 3 26.371378 -22.172286 74.037228
4329 3 36.445138 -18.605178 70.153422
4330 2 85.524890 -4.290030 161.918033
4331 3 76.188697 -45.594044 168.588387
4332 3 61.967843 -16.973550 118.644794
4333 2 76.804566 -45.099882 107.232404
4334 3 70.309401 -36.669574 120.813305
4335 3 70.949519 -52.845804 111.858426
4336 2 175.566227 44.310472 66.627177
4337 3 180.320165 40.186311 46.418555
4338 3 175.535760 39.839452 47.776122
4339 2 69.632000 -30.498707 153.519575
4340 3 60.089811 -33.981400 141.067217
4341 3 80.153494 -3.700307 180.748792
4342 2 171.507082 77.439367 84.227026
4343 3 189.371149 106.876317 112.324655
4344 3 183.084507 90.882041 66.203909
4345 2 47.729475 -8.077632 262.923835
4346 3 60.511786 3.630870 239.382629
4347 3 51.737690 16.162474 230.430388
4348 2 86.874289 60.873703 19.777310
4349 3 131.204044 46.365080 16.470917
4350 3 108.668470 44.709466 56.692770
4351 2 -84.546254 73.973585 -40.082998
4352 3 -74.722941 57.971620 -33.101853
4353 3 -88.829920 84.123463 -28.735516
4354 2 -73.572636 -170.283503 204.101606
4355 3 -73.042151 -151.033009 170.859129
4356 3 -57.143159 -171.721098 228.119550
4357 2 -94.283790 179.716818 153.819378
4358 3 -95.717954 176.509900 176.161195
4359 3 -93.091938 179.116948 161.832777
4360 2 57.594154 -62.175578 176.112058
4361 3 59.651433 -73.757031 164.322791
4362 3 56.626813 -98.737464 152.372145
4363 2 -42.842090 -69.145100 178.585032
4364 3 -39.331369 -52.468038 188.929603
4365 3 -56.364032 -83.276950 186.129628
4366 2 5.324131 63.666456 55.469776
4367 3 6.819150 43.546101 55.361494
4368 3 26.875115 68.774241 53.642437
4369 2 -28.369202 101.938201 -15.438337
4370 3 -34.735710 92.784591 -27.584243
4371 3 -36.607860 110.049808 25.560602
4372 2 129.816654 -7.377031 123.557335
4373 3 144.191883 21.446909 111.801890
4374 3 137.917148 17.610301 109.214211
4375 2 37.103879 -10.835470 208.268817
4376 3 51.070047 7.680419 250.291638
4377 3 45.788415 12.161111 216.896677
4378 2 74.778641 38.026265 125.015381
4379 3 58.184623 49.142931 131.659763
4380 3 55.798407 44.119781 102.677965
4381 2 1.548250 61.734106 165.229998
4382 3 10.619130 53.065706 191.933156
4383 3 5.762676 47.701935 187.105945
4384 2 36.980535 -34.498281 131.079346
4385 3 49.804376 -7.103440 132.726863
4386 3 38.381449 -20.423523 138.288157
4387 2 -70.115111 -20.904192 73.914261
4388 3 -88.195533 -19.745587 76.888766
4389 3 -69.737463 -8.309715 90.766044
4390 2 76.906772 85.911054 -12.220672
4391 3 72.099226 55.800170 -14.423137
4392 3 63.006629 48.899984 -2.176618
4393 2 -5.641598 98.652920 157.665336
4394 3 -0.583972 47.638083 156.772263
4395 3 -6.354564 106.364814 170.613279
4396 2 160.560050 -11.145115 98.235925
4397 3 175.556059 2.232336 81.880585
4398 3 153.063117 -37.536310 106.976736
4399 2 128.259472 71.865507 46.790586
4400 3 145.111782 54.036492 7.499016
4401 3 127.842797 68.555709 11.192954
4402 2 115.879669 -25.607880 160.382407
4403 3 102.398516 -17.117888 132.896149
4404 3 124.487231 3.407040 173.822329
4405 2 238.609535 -135.914371 159.043486
4406 3 218.343695 -121.589853 178.931740
4407 3 214.330559 -125.724734 182.736873
4408 2 -22.570866 121.167576 159.902708
4409 3 -4.663744 110.891951 157.462302
4410 3 -6.796850 103.420702 164.024261
4411 2 -145.282414 -28.174747 140.091029
4412 3 -155.873533 -22.812367 134.477295
4413 3 -143.229331 -27.047703 120.408594
4414 2 -106.985933 167.107099 234.661257
4415 3 -108.894220 158.978950 261.345899
4416 3 -96.174243 127.177221 206.896249
4417 2 -14.610703 77.886670 173.342639
4418 3 -45.187839 86.961692 179.579045
4419 3 -33.762838 74.925042 194.619598
4420 2 190.258632 156.827787 132.701695
4421 3 198.836491 142.174324 141.687454
4422 3 187.404305 135.094647 134.950001
4423 2 184.724033 56.859042 94.949359
4424 3 183.016435 83.106886 104.236757
4425 3 176.156022 57.159772 80.727800
4426 2 -17.795415 62.308763 123.767260
4427 3 -24.433692 61.929101 115.903043
4428 3 -13.389418 49.860497 112.316637
4429 2 -40.279529 89.459247 41.190979
4430 3 -40.125120 88.886935 61.680081
4431 3 -12.564941 72.158516 28.404201
4432 2 -6.068834 106.148412 109.487914
4433 3 -5.838890 137.563199 138.005993
4434 3 9.564990 106.311128 138.006344
4435 2 44.018320 8.402910 153.264360
4436 3 36.028659 -2.830859 156.995972
4437 3 30.892060 11.652066 167.328152
4438 2 167.189934 -67.030846 121.927070
4439 3 152.873113 -25.711269 133.583918
4440 3 157.463040 -62.592639 97.798305
4441 2 277.567247 -17.232239 134.027977
4442 3 257.166841 -29.718856 121.965680
4443 3 277.351804 -1.784605 151.249505
4444 2 22.727603 166.185309 219.752173
4445 3 -7.618996 185.088066 234.944288
4446 3 14.504480 178.682577 224.629092
4447 2 50.347277 107.445086 0.027475
4448 3 36.485902 129.562332 6.033183
4449 3 55.423745 115.223894 9.513888
4450 2 -51.299908 -45.286051 96.897672
4451 3 -49.922266 -41.352536 106.478383
4452 3 -58.358897 -18.019232 86.549849
4453 2 70.101710 -18.895428 88.298671
4454 3 73.118588 -13.096921 82.530293
4455 3 91.116660 -22.295916 97.757730
4456 2 51.042275 -43.403388 40.990312
4457 3 62.871768 -57.913521 67.875875
4458 3 57.692974 -61.088685 71.542209
4459 2 94.896155 78.818943 96.808398
4460 3 93.068011 81.886867 99.925955
4461 3 112.109775 104.695338 132.067722
4462 2 -71.409009 116.315805 73.277880
4463 3 -57.974976 75.149226 58.793448
4464 3 -60.521237 76.035339 49.890471
4465 2 71.084257 106.928277 93.622413
4466 3 82.596427 129.217507 100.303634
4467 3 70.149828 95.687439 99.649788
4468 2 -9.914561 102.068114 27.669751
4469 3 28.548374 103.511951 40.685460
4470 3 7.213688 122.603833 49.679987
4471 2 -46.174225 -78.810053 173.072358
4472 3 -32.332171 -48.272104 137.141973
4473 3 -37.882291 -62.388035 165.357121
4474 2 106.055616 55.286779 40.548642
4475 3 109.791431 54.429964 33.591675
4476 3 105.569957 59.109128 34.108727
4477 2 -95.732670 90.230203 161.232939
4478 3 -93.910881 77.563480 166.659001
4479 3 -89.776170 87.161507 150.231007
4480 2 4.607793 17.528426 212.880401
4481 3 11.906224 6.980540 222.822687
4482 3 16.340570 -5.799802 219.670284
4483 2 133.369594 134.388537 36.782277
4484 3 121.142536 109.590297 58.808878
4485 3 119.280813 130.541998 64.730179
4486 2 -51.139742 27.290371 -27.471928
4487 3 -28.814546 12.822445 -2.336315
4488 3 -36.529510 35.444622 25.486400
4489 2 -48.977459 93.196931 94.565835
4490 3 -71.871547 44.761455 81.181126
4491 3 -56.409425 80.232793 76.838610
4492 2 29.414055 -74.269263 49.480049
4493 3 22.444806 -76.819280 31.152584
4494 3 35.808599 -71.060855 35.459429
4495 2 -108.200537 -10.922937 94.494515
4496 3 -76.921602 -6.700621 83.674484
4497 3 -105.741575 20.623220 70.884691
4498 2 28.229516 1.775712 145.860163
4499 3 26.354265 4.133385 154.768083
4500 3 29.691855 -4.427708 148.751668
4501 2 -27.362168 -0.206425 136.107173
4502 3 -17.919516 20.578413 142.334186
4503 3 -25.563673 -0.662555 110.856543
4504 2 66.191822 101.603524 132.962482
4505 3 55.590420 106.049903 134.129480
4506 3 81.178951 129.572572 80.745320
4507 2 -8.966339 196.230556 160.859643
4508 3 -19.626889 212.567255 164.688587
4509 3 1.066546 176.902991 169.850346
4510 2 54.722599 141.549709 135.740795
4511 3 49.357929 119.275357 116.510327
4512 3 61.303919 151.348893 155.243953
4513 2 29.872910 -72.540323 192.306914
4514 3 38.079804 -79.308427 176.641475
4515 3 14.766813 -66.750159 194.781567
4516 2 47.100862 95.312835 243.783697
4517 3 30.250515 112.060673 247.573718
4518 3 31.302851 122.161632 242.200373
4519 2 18.604336 -28.604283 99.691092
4520 3 43.186900 -38.688183 81.066758
4521 3 19.290836 -34.508400 67.735323
4522 2 43.743292 154.466942 158.424827
4523 3 61.549223 153.707518 166.526342
4524 3 57.977749 130.742002 167.763373
4525 2 31.817503 183.772333 77.988185
4526 3 38.836153 205.813253 63.346014
4527 3 52.350261 193.779169 86.532043
4528 2 162.577994 -96.892835 88.166672
4529 3 163.375565 -101.739079 56.239028
4530 3 155.223737 -87.028577 48.982484
4531 2 21.101184 20.149538 104.852242
4532 3 22.677511 20.977035 45.583034
4533 3 31.561508 26.694844 68.995631
4534 2 25.473638 62.418861 163.980862
4535 3 17.312589 38.276361 170.792094
4536 3 13.551978 68.208535 181.363345
4537 2 -19.536028 7.303543 181.400728
4538 3 -32.277044 -9.484634 194.575719
4539 3 -43.100967 -5.203357 228.349956
4540 2 -31.633598 54.494795 74.828493
4541 3 -45.011103 34.131203 44.444161
4542 3 -39.624269 42.750577 48.842982
4543 2 130.459705 2.387665 156.118731
4544 3 124.374863 29.882991 146.274718
4545 3 125.565273 -0.937915 168.549057
4546 2 181.151766 -76.951002 197.584015
4547 3 196.791431 -82.107581 174.044653
4548 3 211.964873 -83.370266 169.207073
4549 2 -47.598412 130.956177 182.908750
4550 3 -26.163709 138.612317 201.004853
4551 3 -38.889735 144.317801 181.152977
4552 2 11.750708 90.434640 291.022765
4553 3 24.448254 88.697611 299.373000
4554 3 14.493203 66.064324 299.794917
4555 2 -6.281521 151.145247 146.569281
4556 3 -4.660483 166.181721 123.494839
4557 3 8.135688 127.352853 148.737802
4558 2 72.204402 14.557156 6.447967
4559 3 68.582838 19.355601 0.542315
4560 3 52.325022 22.164262 -19.173690
4561 2 -67.836891 83.440004 151.761578
4562 3 -66.240275 94.341745 163.343032
4563 3 -72.543913 104.416150 163.215070
4564 2 21.799011 96.728613 136.147997
4565 3 20.655213 85.433784 124.837312
4566 3 16.525267 97.365475 119.692105
4567 2 -96.934334 66.962422 85.591323
4568 3 -103.854844 80.149884 98.714535
4569 3 -118.174217 104.647080 101.305913
4570 2 0.101314 89.452755 195.497531
4571 3 27.368090 76.789008 215.701724
4572 3 -19.527012 56.477016 183.564746
4573 2 20.186993 116.098703 46.139593
4574 3 21.394843 142.128620 68.648453
4575 3 31.536390 114.484115 69.980335
4576 2 12.664312 4.206654 87.675713
4577 3 -4.077868 -27.717718 68.260695
4578 3 26.748499 -1.200014 76.281746
4579 2 -30.481042 177.553887 154.759927
4580 3 -21.875094 172.179629 128.746319
4581 3 -27.732920 162.662842 149.527249
4582 2 -72.256072 130.380642 83.932486
4583 3 -78.625502 105.913543 81.763380
4584 3 -76.503546 128.716070 91.187519
4585 2 64.873914 -3.286524 60.987630
4586 3 79.687986 -10.647041 114.857938
4587 3 93.344236 -20.740556 65.364581
4588 2 8.682705 -60.690348 80.082091
4589 3 -17.378403 -44.393727 116.166239
4590 3 -4.683652 -75.170451 100.659448
4591 2 32.379229 139.742688 97.317665
4592 3 32.648244 135.734481 82.951071
4593 3 42.455367 140.161695 65.065041
4594 2 46.428810 142.412864 118.530144
4595 3 37.480472 125.732731 127.281677
4596 3 12.806976 128.426147 122.253444
4597 2 2.396618 113.118367 212.182815
4598 3 -8.980427 128.609123 228.474155
4599 3 -9.107394 106.143128 241.423316
4600 2 -79.178093 117.465340 32.551671
4601 3 -81.074770 103.190882 34.709656
4602 3 -90.717957 95.615226 39.581677
4603 2 -75.244916 68.622354 174.289480
4604 3 -66.394044 62.363711 184.958312
4605 3 -79.713657 81.363524 198.484865
4606 2 9.533157 112.015965 184.300877
4607 3 13.410276 95.890887 190.635815
4608 3 -7.246836 85.702755 200.604027
4609 2 -23.769845 141.132739 49.366186
4610 3 -19.606762 164.391934 59.471567
4611 3 -24.322415 151.327303 49.892823
4612 2 16.656392 74.798634 36.690660
4613 3 2.241158 70.589362 37.756794
4614 3 16.361076 85.671046 26.156053
4615 2 68.109011 101.494327 74.718364
4616 3 55.302339 128.641310 82.182298
4617 3 42.900836 110.236669 75.521277
4618 2 55.910165 241.388784 141.440708
4619 3 23.879195 203.777977 125.880877
4620 3 61.514706 200.036005 170.167873
4621 2 27.587881 89.160559 152.989604
4622 3 52.679401 99.788057 149.786348
4623 3 32.942282 90.938928 137.492630
4624 2 178.245489 209.151658 115.887756
4625 3 177.067736 228.614054 116.005487
4626 3 183.176489 220.235596 99.890352
4627 2 -37.022231 192.716405 72.352051
4628 3 -45.883278 180.383784 71.170190
4629 3 -41.884797 213.684313 87.105107
4630 2 150.703410 -26.361872 33.464851
4631 3 146.971212 -40.406271 8.139447
4632 3 151.388761 -34.285144 26.619742
4633 2 -23.457872 30.996376 148.283243
4634 3 -42.511850 10.028194 168.931875
4635 3 -37.157530 28.843999 146.280115
4636 2 65.939351 -64.489868 54.072591
4637 3 56.378767 -45.963478 70.950144
4638 3 58.984213 -32.438568 90.939352
4639 2 -22.819236 52.390169 154.893638
4640 3 -21.749825 41.040414 182.359719
4641 3 -11.042747 55.086059 154.814332
4642 2 25.747806 -35.690688 61.240644
4643 3 10.693446 -20.123448 57.030524
4644 3 21.161468 2.369855 19.479724
4645 2 150.306318 51.319158 108.523415
4646 3 141.208352 34.240276 113.095522
4647 3 127.400275 37.880072 106.112412
4648 2 -10.539035 -11.739764 140.797665
4649 3 -14.704556 -5.204963 206.354709
4650 3 7.751865 18.822063 186.036207
4651 2 -133.955707 -16.718893 83.031391
4652 3 -137.069798 10.500975 91.314573
4653 3 -140.183989 -15.011300 109.821162
4654 2 -17.078453 -116.023732 48.014429
4655 3 17.941834 -112.186459 45.600570
4656 3 10.945375 -103.991761 94.085519
4657 2 67.562238 78.952007 120.300310
4658 3 60.737733 83.418995 132.002356
4659 3 55.464177 67.448921 151.517987
4660 2 19.278133 70.785923 101.634566
4661 3 12.587027 62.372845 92.138783
4662 3 8.602142 49.805218 133.888990
4663 2 94.286209 -135.399204 70.949812
4664 3 100.827105 -144.335036 40.488598
4665 3 98.884942 -136.374118 33.113728
4666 2 33.665006 24.220956 78.016347
4667 3 32.045227 5.126491 68.379888
4668 3 48.049817 30.205105 72.031360
4669 2 11.613734 6.292437 122.075671
4670 3 19.607185 29.657426 117.870375
4671 3 32.083193 22.174269 122.558912
4672 2 -31.231550 57.736907 94.910098
4673 3 -38.831154 46.223786 99.986716
4674 3 -21.230508 55.796552 108.682561
4675 2 -73.188672 92.089809 143.227213
4676 3 -63.116249 92.303558 154.087039
4677 3 -72.633320 93.641816 139.287133
4678 2 67.227657 -21.730533 88.837032
4679 3 67.748520 -12.872149 80.908460
4680 3 71.381447 -12.644932 89.923945
4681 2 42.457957 -13.341406 31.810726
4682 3 52.850717 6.802737 31.494475
4683 3 51.415474 -1.144259 38.776000
4684 2 -56.959120 74.528040 242.110163
4685 3 -55.944657 48.812447 256.677060
4686 3 -43.186275 33.052714 209.774422
4687 2 -52.088167 15.392197 220.505649
4688 3 -60.429821 4.241526 223.286305
4689 3 -46.414374 8.448180 228.650406
4690 2 105.619492 15.163146 167.789611
4691 3 111.312161 33.407171 147.845901
4692 3 113.146386 3.308214 156.671498
4693 2 8.488977 -63.246309 49.764219
4694 3 2.992524 -52.313198 46.214687
4695 3 30.561250 -74.859091 43.647842
4696 2 145.271355 -11.088264 59.962157
4697 3 145.098840 -25.509873 51.490809
4698 3 164.137505 -15.469667 60.113798
4699 2 21.958653 -2.855891 24.134162
4700 3 9.608826 -4.523930 29.499152
4701 3 3.013759 2.951569 24.240985
4702 2 139.663680 55.967398 17.930049
4703 3 119.105439 68.850680 68.936166
4704 3 140.005505 73.333351 66.054657
4705 2 87.267793 -143.514324 4.327632
4706 3 69.632009 -124.725234 13.228716
4707 3 68.884548 -142.972093 -3.700107
4708 2 125.964237 -72.833378 122.213090
4709 3 136.981116 -50.369543 137.689971
4710 3 143.357879 -67.036160 120.955531
4711 2 -88.484361 56.682931 180.504712
4712 3 -81.479170 30.849287 191.239334
4713 3 -62.556781 53.776685 200.899273
4714 2 51.555863 -50.064013 157.458999
4715 3 64.315450 -50.220275 155.622859
4716 3 44.467390 -48.649604 142.889223
4717 2 1.448500 10.745688 222.569972
4718 3 -7.412803 15.834571 242.716578
4719 3 4.490853 6.049285 238.875483
4720 2 -1.322755 66.731100 194.753815
4721 3 8.681976 22.122586 179.856134
4722 3 15.257810 37.132668 165.253810
4723 2 -69.256925 64.866732 130.925237
4724 3 -60.900265 94.754496 128.275431
4725 3 -82.652424 89.226515 137.507871
4726 2 7.961057 53.945540 128.692597
4727 3 2.930099 43.185533 119.046756
4728 3 -5.622445 58.252963 134.484307
4729 2 -157.982240 121.950057 163.037693
4730 3 -156.328651 122.778006 156.054685
4731 3 -162.493792 125.235915 172.969601
4732 2 -38.987116 1.828608 57.843502
4733 3 -34.650716 18.086119 47.715838
4734 3 -19.432404 9.163338 76.580950
4735 2 -7.220096 -56.717118 104.166696
4736 3 -7.501538 -70.662328 81.797022
4737 3 5.999877 -74.017587 74.699649
4738 2 46.393036 14.875853 174.474431
4739 3 24.812502 8.586957 124.640036
4740 3 10.473251 7.260640 141.874545
4741 2 76.653601 -31.782997 280.450961
4742 3 61.044142 -37.925718 266.934077
4743 3 76.998175 -69.646249 243.546279
4744 2 169.971950 26.586641 103.444422
4745 3 143.898644 6.386214 97.835181
4746 3 130.122687 55.552512 115.942429
4747 2 96.541775 17.413693 30.515426
4748 3 90.150308 20.649063 69.089767
4749 3 100.768561 -4.401338 47.693030
4750 2 -119.576299 56.957228 121.708906
4751 3 -135.698640 37.319694 131.503874
4752 3 -128.107926 68.729772 114.109711
4753 2 -29.420144 30.903209 154.512637
4754 3 -12.768287 62.678307 164.319285
4755 3 -7.544657 44.083462 136.563465
4756 2 16.328335 69.922236 140.752219
4757 3 32.864363 49.176757 144.439593
4758 3 6.011713 58.476702 134.343594
4759 2 29.262312 116.733140 39.091179
4760 3 34.567971 101.343630 25.300254
4761 3 52.833437 100.648399 54.071723
4762 2 4.413447 -99.019184 119.248608
4763 3 9.629594 -112.856618 117.729681
4764 3 1.554186 -93.288522 104.175553
4765 2 48.105465 29.785095 200.565001
4766 3 49.208986 5.973697 165.013642
4767 3 48.405529 20.163211 187.796925
4768 2 86.136303 -17.480362 -36.683711
4769 3 83.725896 10.500453 -36.603473
4770 3 73.366538 -15.937218 -40.742190
4771 2 39.957843 102.794453 138.184754
4772 3 50.493594 104.980381 172.494155
4773 3 52.419661 112.225883 128.263428
4774 2 135.814604 -8.588317 96.326111
4775 3 115.718166 -16.619799 125.822404
4776 3 110.634568 -8.371112 84.037882
4777 2 40.702049 -105.414707 23.306325
4778 3 61.097008 -107.819059 34.186545
4779 3 38.073896 -114.236103 -1.867920
4780 2 60.950610 -12.204232 39.495626
4781 3 44.710508 -10.912548 72.075035
4782 3 55.042122 -9.367905 92.813946
4783 2 115.746933 -96.607017 -6.477105
4784 3 108.071896 -100.442617 26.352456
4785 3 121.856136 -92.658419 -0.331494
4786 2 64.391672 67.748107 56.906748
4787 3 88.905310 81.355371 62.165883
4788 3 65.901762 55.855837 70.388391
4789 2 -58.879147 99.307046 134.829834
4790 3 -59.059365 89.383750 111.797664
4791 3 -45.442482 75.470158 109.137267
4792 2 -57.851028 95.573201 142.449030
4793 3 -60.301036 80.767726 125.392386
4794 3 -47.289538 82.216356 122.057127
4795 2 -96.461455 -26.336405 132.310841
4796 3 -114.246716 -44.921947 127.579285
4797 3 -111.648455 -22.408127 123.191446
4798 2 -23.072872 128.249351 71.252056
4799 3 -7.790207 105.322872 66.362118
4800 3 11.608305 132.318519 39.467535
4801 2 59.213799 1.209274 85.909532
4802 3 58.767358 -1.259379 64.849898
4803 3 55.995027 -5.318873 61.827575
4804 2 30.578929 19.113053 123.626879
4805 3 29.936697 20.908045 143.589448
4806 3 32.810485 15.587319 122.458784
4807 2 104.668595 85.347051 212.243742
4808 3 121.125613 95.607388 186.171753
4809 3 114.779380 100.714697 203.494618
4810 2 207.362510 -53.419294 132.996323
4811 3 205.886637 -61.849423 117.387005
4812 3 222.266722 -40.723637 140.426859
4813 2 102.053523 89.007216 69.235135
4814 3 122.611260 94.858653 54.916591
4815 3 101.863951 94.458476 64.904478
4816 2 -73.098285 66.482757 192.192827
4817 3 -51.154027 88.479278 156.585725
4818 3 -65.919218 57.182673 170.526722
4819 2 7.863247 188.592030 117.167088
4820 3 -12.565169 161.409111 132.292759
4821 3 5.310787 205.901666 155.965720
4822 2 -92.028599 -39.518485 187.490756
4823 3 -101.372785 -37.161585 204.027744
4824 3 -95.928813 -40.598723 206.615912
4825 2 42.836882 102.945196 265.316359
4826 3 29.331608 114.077963 253.870996
4827 3 31.881524 113.441078 246.873641
4828 2 194.786244 12.865762 123.573582
4829 3 191.302644 14.085183 111.745769
4830 3 198.904685 -1.675269 131.062831
4831 2 71.913911 25.571102 246.478073
4832 3 47.044043 57.415432 243.484484
4833 3 61.739415 14.628921 219.431408
4834 2 -14.492949 -73.554145 -2.430516
4835 3 -6.710614 -80.174189 15.351276
4836 3 -3.868080 -54.186715 28.976158
4837 2 191.000543 -12.105784 190.193804
4838 3 194.544388 -14.904897 144.085006
4839 3 200.524084 -19.326093 175.339042
4840 2 23.908533 121.394006 25.004339
4841 3 38.732739 110.633364 29.284319
4842 3 10.277128 110.897538 39.731169
4843 2 -61.493239 10.429041 135.713764
4844 3 -33.366931 -14.477637 117.047189
4845 3 -43.487008 25.994180 130.885676
4846 2 21.960112 154.580351 142.340340
4847 3 4.641902 155.311266 150.863957
4848 3 0.547023 156.750656 147.476027
4849 2 30.782799 18.484887 141.900239
4850 3 57.149864 15.990126 145.005830
4851 3 58.638764 -1.757714 143.128736
4852 2 -23.171319 109.561545 29.861922
4853 3 -34.475508 116.651174 57.074515
4854 3 -38.821478 96.333613 51.265929
4855 2 -36.359503 110.183492 179.778748
4856 3 -25.260745 112.711645 127.588824
4857 3 -43.443303 96.271564 128.209429
4858 2 189.617774 -41.114691 166.466937
4859 3 191.480915 -66.192352 147.531991
4860 3 200.216535 -48.253882 168.713692
4861 2 134.911147 141.555266 120.239401
4862 3 142.932440 158.640153 156.153152
4863 3 130.391473 151.509830 136.914888
4864 2 -113.018060 7.220087 106.949013
4865 3 -109.296931 4.642676 81.344701
4866 3 -109.713890 48.865037 125.318109
4867 2 -109.819529 112.280246 210.899387
4868 3 -118.533679 129.462471 210.364582
4869 3 -118.474087 103.315823 227.495697
4870 2 -77.971765 30.444411 40.432659
4871 3 -72.286546 50.052354 34.397632
4872 3 -67.497032 49.297699 45.376155
4873 2 -58.358608 159.733402 109.163985
4874 3 -63.473302 158.302663 88.183896
4875 3 -44.925591 147.405844 130.121249
4876 2 166.138231 32.005426 188.723239
4877 3 145.797330 42.892953 170.662591
4878 3 156.738397 19.783863 198.614654
4879 2 0.871387 127.701815 160.884220
4880 3 -15.500229 129.197604 154.791378
4881 3 1.686906 110.225668 147.858715
4882 2 61.164999 126.461510 174.705714
4883 3 62.784263 98.760566 200.003368
4884 3 62.597740 88.442605 205.835680
4885 2 53.298492 79.974043 115.340414
4886 3 55.574475 95.884912 97.852747
4887 3 69.115167 80.871959 109.514863
4888 2 -42.875090 -5.182635 174.301547
4889 3 -53.087396 4.793635 125.244653
4890 3 -57.625219 8.439974 142.494329
4891 2 -10.376072 141.081189 160.276503
4892 3 -9.615248 117.926942 152.985084
4893 3 -16.291644 138.049569 179.817976
4894 2 -34.697496 36.471439 12.325410
4895 3 -22.040765 68.365059 -3.683152
4896 3 -35.236517 28.338725 11.343312
4897 2 -21.590196 75.711127 -12.192157
4898 3 -20.786643 81.508733 -9.544024
4899 3 -22.751953 100.026141 -7.259495
4900 2 -49.443349 73.167229 92.485417
4901 3 -30.951101 75.333388 102.889172
4902 3 -27.838771 54.853502 100.144866
4903 2 -18.477962 146.758765 61.859967
4904 3 21.745524 144.973904 69.586617
4905 3 7.227591 132.271667 62.362472
4906 2 37.783761 54.968431 157.290028
4907 3 16.310134 34.781785 142.549269
4908 3 30.043596 53.132799 157.163984
4909 2 162.519745 66.267940 125.113885
4910 3 180.421724 48.322449 120.792067
4911 3 188.203700 58.470335 129.945220
4912 2 -64.331224 133.675030 157.540214
4913 3 -32.620268 136.246546 176.411493
4914 3 -45.166288 157.368497 139.575940
4915 2 30.139863 -0.555031 57.310552
4916 3 13.515296 23.203692 44.707149
4917 3 29.974144 -0.886110 80.390170
4918 2 11.904355 -38.935575 83.158759
4919 3 -2.155143 -21.459357 60.140991
4920 3 10.497370 -23.308916 54.727325
4921 2 101.851903 53.449041 157.434209
4922 3 98.294008 65.389254 159.886443
4923 3 87.234312 49.248194 145.363987
4924 2 -35.601082 -35.142213 147.824146
4925 3 -48.775142 0.262532 115.414995
4926 3 -53.255548 -10.093626 114.936136
4927 2 122.336286 145.674259 189.301627
4928 3 120.982063 124.218323 195.756501
4929 3 115.807160 137.522132 177.145373
4930 2 98.541250 117.406887 114.162170
4931 3 89.002111 129.486433 121.628004
4932 3 99.396139 116.762454 127.164407
4933 2 143.016152 77.969476 82.721767
4934 3 121.323475 82.938650 63.578865
4935 3 129.335468 76.210318 76.021872
4936 2 32.223534 32.778679 68.019512
4937 3 16.871315 28.315623 78.073565
4938 3 7.186894 17.603386 53.820623
4939 2 -21.894352 48.964659 79.987830
4940 3 -35.050445 62.043258 64.393670
4941 3 -54.297662 22.796892 78.358091
4942 2 39.152674 216.353729 43.771436
4943 3 24.661176 241.538911 36.050617
4944 3 46.623017 258.953928 64.901471
4945 2 -36.880418 40.150163 271.985089
4946 3 -24.316237 20.947536 253.920040
4947 3 -4.893713 29.969194 250.997398
4948 2 82.794172 -9.055315 27.662824
4949 3 75.048087 7.508005 29.811602
4950 3 64.114914 -3.066896 31.469119
4951 2 70.193714 98.424658 108.045912
4952 3 73.725348 110.968588 87.130875
4953 3 63.829276 114.834064 93.488596
4954 2 34.100388 174.980440 192.341603
4955 3 64.238008 158.572539 212.021768
4956 3 56.117067 173.150726 224.922936
4957 2 -54.429313 106.640802 147.016634
4958 3 -77.583030 111.010825 177.895140
4959 3 -80.238929 97.207464 171.054755
4960 2 65.764208 61.106306 181.145541
4961 3 72.072535 55.100081 178.735174
4962 3 88.592954 51.670299 175.437721
4963 2 -63.751536 115.109292 103.651662
4964 3 -69.888205 118.738517 84.719950
4965 3 -93.868285 116.507242 94.204149
4966 2 -21.070282 91.476924 -22.666573
4967 3 -23.586614 57.472889 -29.938729
4968 3 -4.624282 86.324466 18.020473
4969 2 -37.721676 64.995630 152.026969
4970 3 -34.348393 33.909196 142.207755
4971 3 -28.704433 32.809317 113.868473
4972 2 -44.020372 58.395762 132.263817
4973 3 -32.625679 57.576453 106.089531
4974 3 -21.439123 66.992112 122.237049
4975 2 19.903131 -69.400122 84.530774
4976 3 4.549555 -50.841735 72.542149
4977 3 19.407224 -69.754708 75.053217
4978 2 87.171608 -33.558436 149.749002
4979 3 91.508839 -29.202830 142.640476
4980 3 78.667823 -43.213928 154.720883
4981 2 2.910696 115.148648 121.930797
4982 3 2.953537 129.883500 120.594219
4983 3 -2.375481 130.624078 152.231645
4984 2 87.637233 -2.966347 206.622277
4985 3 76.038756 -43.158615 208.617942
4986 3 74.561065 -32.530740 196.179654
4987 2 2.088957 39.405792 134.325465
4988 3 17.002460 33.938686 90.930532
4989 3 17.093656 60.575376 136.268570
4990 2 -61.380409 68.238742 63.921901
4991 3 -36.271304 76.633073 76.432289
4992 3 -40.964171 73.415181 75.860932
4993 2 55.511484 155.756660 31.273299
4994 3 62.717402 148.882697 25.833122
4995 3 34.898808 140.453830 19.626674
4996 2 87.124193 132.733870 20.842933
4997 3 77.679705 117.686365 56.118218
4998 3 76.913655 116.965332 27.709973
4999 2 -57.624498 94.890765 169.549897
5000 3 -35.896417 98.407987 159.858369
5001 3 -37.384288 62.833615 151.799035
5002 2 55.991372 118.103989 114.332202
5003 3 58.726352 130.415163 76.092934
5004 3 59.488079 86.540473 93.408926
5005 2 74.686560 96.277319 135.559664
5006 3 63.760665 75.815333 126.210545
5007 3 48.785424 84.289258 109.961404
5008 2 82.825656 51.721579 40.583627
5009 3 71.443017 89.998414 41.421317
5010 3 76.617273 77.001012 42.646882
5011 2 -28.411005 126.576850 123.017917
5012 3 -45.809414 97.871040 109.285462
5013 3 -18.911437 119.615652 150.919386
5014 2 -19.480035 49.270841 111.528251
5015 3 -49.990159 59.391867 131.117670
5016 3 -45.286859 75.570369 112.641249
5017 2 95.721038 87.235446 118.743760
5018 3 83.893826 97.849237 97.264649
5019 3 82.803896 64.328660 82.807959
5020 2 185.104411 -19.551155 13.624388
5021 3 179.766582 18.196263 -0.953423
5022 3 155.016465 6.980160 21.504209
5023 2 43.078370 147.738803 135.251539
5024 3 42.683733 131.549342 137.675182
5025 3 40.263535 139.875353 137.299431
5026 2 51.504649 197.599184 143.377844
5027 3 43.731893 196.800108 171.622274
5028 3 46.270620 212.521657 163.196166
5029 2 -83.441059 78.214010 42.213096
5030 3 -102.467626 96.406046 32.803908
5031 3 -94.244448 101.134693 47.284787
5032 2 -58.819728 123.503843 100.639963
5033 3 -59.305732 122.752387 86.279028
5034 3 -74.551800 112.187219 124.505947
5035 2 26.524029 148.618477 3.224310
5036 3 36.290078 136.119096 -5.023292
5037 3 34.573670 137.217157 -19.764431
5038 2 -50.743644 109.421651 47.594147
5039 3 -16.975769 103.100622 49.748678
5040 3 -40.948420 99.624839 72.024592
5041 2 -90.135053 131.207687 218.830196
5042 3 -61.561964 171.176876 197.447859
5043 3 -59.041673 145.361545 195.251329
5044 2 58.477049 2.789763 218.050131
5045 3 54.551052 40.784051 224.775119
5046 3 63.153508 5.293583 241.138569
5047 2 -25.106182 58.247418 127.471951
5048 3 -36.678798 67.371558 123.750146
5049 3 -49.576639 31.708032 146.769427
5050 2 -37.188448 56.645935 -3.944828
5051 3 -45.599239 36.452312 5.867322
5052 3 -26.910855 57.080417 13.017686
5053 2 -135.616961 160.901258 73.241211
5054 3 -120.095581 169.379897 73.441962
5055 3 -110.687440 190.676187 55.681036
5056 2 86.526104 10.884949 138.556657
5057 3 89.468981 -14.849184 134.918199
5058 3 82.934216 -4.080577 137.865806
5059 2 169.861406 -59.952491 75.296332
5060 3 164.449540 -60.256478 74.147735
5061 3 168.317708 -41.666892 83.106042
5062 2 84.532785 37.898855 130.879384
5063 3 92.059988 52.946315 101.549531
5064 3 61.871870 36.487292 126.377902
5065 2 108.138711 148.545588 132.008095
5066 3 89.329960 145.407249 122.146036
5067 3 84.574734 174.343350 108.825415
5068 2 -44.190915 -4.113958 147.719359
5069 3 -13.850702 -9.275604 132.722103
5070 3 -39.582684 27.224489 140.512374
5071 2 -4.931993 -60.212614 112.631322
5072 3 -16.328422 -36.990001 119.188216
5073 3 5.617954 -44.110943 139.488091
5074 2 -74.498938 -79.045142 99.763497
5075 3 -69.371980 -88.368089 78.896069
5076 3 -78.063987 -63.658391 82.552421
5077 2 71.321042 -140.685810 182.571434
5078 3 55.496611 -149.469644 191.193297
5079 3 75.730911 -150.562741 193.578422
5080 2 39.862511 -49.086111 -13.096838
5081 3 49.560702 -36.221964 35.662180
5082 3 45.866990 -24.821678 6.337593
5083 2 18.158806 -27.460594 251.202249
5084 3 31.731275 12.658817 280.647915
5085 3 23.909431 9.438752 265.034509
5086 2 21.041842 -32.446235 89.428488
5087 3 27.797713 -50.649484 100.253085
5088 3 31.723103 -23.175168 75.679565
5089 2 37.778211 -104.154135 120.145408
5090 3 0.248598 -97.249185 84.116754
5091 3 15.933883 -92.369994 116.698746
5092 2 -15.510779 2.372666 164.659111
5093 3 4.815533 14.062183 171.814827
5094 3 5.977934 14.329796 198.526732
5095 2 146.156041 84.409364 82.955947
5096 3 123.350410 104.325030 78.855549
5097 3 143.017656 91.008601 73.176866
5098 2 -14.077570 -92.752526 120.946702
5099 3 -11.689237 -102.079579 113.300520
5100 3 -28.748344 -94.556210 138.436694
5101 2 131.517103 70.491222 123.872223
5102 3 133.925618 78.023930 95.632562
5103 3 150.461517 55.334402 114.639386
5104 2 58.113356 -31.974571 106.468484
5105 3 80.891055 -59.689640 119.114916
5106 3 59.481763 -22.829164 122.289960
5107 2 -166.786905 67.073550 296.475895
5108 3 -177.254058 68.340683 291.588366
5109 3 -186.770476 80.537107 334.978755
5110 2 4.974072 -0.678972 160.775254
5111 3 -16.607623 -0.708273 154.305978
5112 3 -7.878517 20.925532 160.721227
5113 2 44.486715 -53.069261 110.940591
5114 3 42.087679 -62.188639 92.168804
5115 3 29.723560 -50.625515 92.837024
5116 2 125.404529 56.149071 14.256837
5117 3 127.993915 54.683815 26.422568
5118 3 122.917441 70.397625 2.538290
5119 2 133.525569 -7.308458 50.101422
5120 3 144.352763 6.854203 40.382833
5121 3 153.800098 6.742648 69.346380
5122 2 9.830631 26.822896 89.249857
5123 3 2.793626 44.114507 82.861663
5124 3 3.936378 19.968096 69.454743
5125 2 84.310206 98.651194 128.106469
5126 3 65.282089 95.891891 105.699407
5127 3 59.366874 86.991021 97.347995
5128 2 -54.419238 98.085261 213.959328
5129 3 -70.621434 106.970370 203.450057
5130 3 -50.113934 95.964286 214.330411
5131 2 183.110340 85.336689 134.526644
5132 3 186.035956 64.524905 115.695951
5133 3 159.589396 76.784956 102.669163
5134 2 -53.020471 8.931512 44.464739
5135 3 -83.015836 -12.481338 21.014644
5136 3 -44.400688 -13.846564 14.801167
5137 2 143.802779 -124.957754 249.471791
5138 3 154.306032 -106.654320 237.941236
5139 3 147.619662 -104.324985 248.665617
5140 2 52.756285 -35.809673 158.585080
5141 3 60.450767 -36.070476 163.154087
5142 3 67.078313 -17.641022 168.214813
5143 2 -3.971241 -131.823111 143.163259
5144 3 -12.738787 -143.868766 135.308785
5145 3 -3.718991 -129.516591 175.135169
5146 2 -10.155495 -38.392018 25.523249
5147 3 3.519642 -32.545260 38.511719
5148 3 -15.606632 -57.537412 38.391681
5149 2 3.730527 70.568692 173.692050
5150 3 -20.466686 89.585268 138.768123
5151 3 -7.277929 79.942570 150.585594
5152 2 -177.187589 8.727321 148.346145
5153 3 -145.366003 24.777134 129.061539
5154 3 -164.257764 28.913255 145.052771
5155 2 96.760355 48.978964 68.845481
5156 3 89.810517 53.641785 86.426065
5157 3 100.816931 49.532662 67.541742
5158 2 -10.722454 -36.780991 174.176629
5159 3 -17.331078 -15.819769 181.834122
5160 3 -9.300926 -3.951062 182.455004
5161 2 -102.334293 126.753151 185.348087
5162 3 -108.825187 123.585391 232.505174
5163 3 -137.349690 105.777115 206.029405
5164 2 -111.692641 14.483908 87.386856
5165 3 -102.967447 -14.486038 126.457697
5166 3 -120.009465 -18.671055 104.032506
5167 2 92.738098 96.034492 124.489608
5168 3 97.466369 85.539590 134.024518
5169 3 83.902453 91.492592 76.441354
5170 2 -26.736174 -12.938093 131.849345
5171 3 -58.599866 2.804040 126.343158
5172 3 -22.147427 4.174897 146.094417
5173 2 92.292693 -15.839569 118.305190
5174 3 109.493840 -5.796660 95.958276
5175 3 99.885009 -19.960842 135.830065
5176 2 35.775644 160.424604 104.473391
5177 3 38.588254 152.848020 122.608224
5178 3 34.472698 128.578942 133.151880
5179 2 81.816302 -102.517105 124.416678
5180 3 105.387989 -118.816074 127.318442
5181 3 107.378633 -117.657705 134.623128
5182 2 189.148680 -138.307693 171.385170
5183 3 184.648529 -111.947357 156.959972
5184 3 190.248994 -123.842428 192.885911
5185 2 -74.416372 18.778139 185.645953
5186 3 -70.365952 39.825845 186.277574
5187 3 -82.524248 7.814651 204.465603
5188 2 -60.838276 210.182539 233.677596
5189 3 -65.602764 196.732525 213.454452
5190 3 -70.410175 211.531463 213.577950
5191 2 -74.427304 88.290174 130.233980
5192 3 -74.493736 100.732296 105.838191
5193 3 -73.825936 75.722024 101.257542
5194 2 17.106870 216.405895 135.046365
5195 3 21.288350 215.075399 121.926378
5196 3 28.697649 209.241378 172.403050
5197 2 9.292010 44.395321 105.716991
5198 3 4.406437 66.422107 129.384961
5199 3 -3.684585 69.122403 107.785346
5200 2 -11.052358 124.277399 102.558804
5201 3 -29.762653 104.482592 133.791251
5202 3 -10.293364 127.430099 134.493339
5203 2 82.905270 -34.170564 82.936199
5204 3 65.894053 -38.733472 126.958430
5205 3 80.524148 -48.751062 92.878388
5206 2 101.085187 -1.370450 104.646404
5207 3 107.515596 -2.236539 65.282997
5208 3 88.826774 -13.665497 67.468119
5209 2 -27.716198 -19.127408 9.966022
5210 3 -52.318148 3.693582 -14.686042
5211 3 -49.764585 -20.753597 0.737003
5212 2 10.765867 42.923358 107.403257
5213 3 -8.670367 40.890002 93.834455
5214 3 19.497663 51.366586 120.269598
5215 2 42.259752 -43.178107 201.332888
5216 3 46.668151 -51.742026 217.708866
5217 3 35.446187 -31.789729 187.335632
5218 2 53.707628 -112.312944 92.023968
5219 3 61.434491 -122.159907 70.015052
5220 3 40.575008 -93.973506 83.727100
5221 2 99.259867 -62.451460 155.252173
5222 3 104.253695 -68.936954 186.694933
5223 3 106.205274 -90.368806 218.125912
5224 2 -41.370635 -5.535844 142.117757
5225 3 -61.332550 -31.695197 157.475043
5226 3 -41.860886 -30.418128 121.753310
5227 2 36.313325 148.967841 165.151393
5228 3 40.135583 118.133082 159.171282
5229 3 17.773584 160.866501 168.775967
5230 2 72.795971 84.804934 198.639988
5231 3 53.182426 87.429726 189.668299
5232 3 60.368707 60.110049 176.923510
5233 2 45.460350 18.849312 82.588928
5234 3 42.084940 29.676595 66.956882
5235 3 37.917287 26.071111 84.884364
5236 2 21.655939 48.296041 51.734471
5237 3 26.036376 25.022441 36.566156
5238 3 12.828518 56.867469 41.511672
5239 2 43.049336 82.387035 147.618409
5240 3 24.565544 97.293847 142.372944
5241 3 41.134581 113.604334 129.954317
5242 2 -51.618937 131.683535 119.356569
5243 3 -53.742120 138.051036 114.295908
5244 3 -42.345781 133.608991 111.252665
5245 2 127.814597 4.712409 79.517989
5246 3 112.964387 -6.139228 121.378048
5247 3 139.417917 -8.998981 89.855272
5248 2 153.447378 89.718959 26.966588
5249 3 159.239461 57.897160 5.394903
5250 3 149.940558 85.114364 18.014822
5251 2 -69.238406 49.075025 73.775324
5252 3 -73.884327 70.582231 63.455082
5253 3 -83.290736 56.197044 59.302891
5254 2 27.288620 5.411156 124.274230
5255 3 19.583361 15.285667 133.619290
5256 3 18.956123 24.676363 135.843636
5257 2 155.729634 117.386316 28.029216
5258 3 175.074147 147.847970 51.334927
5259 3 181.018310 138.577165 34.210170
5260 2 146.279415 58.025720 99.133592
5261 3 166.346550 55.416638 124.770443
5262 3 146.035710 56.861931 116.906577
5263 2 10.144090 33.422884 120.303420
5264 3 6.291879 -1.066499 107.095713
5265 3 24.438224 2.870673 137.363975
5266 2 17.901587 24.437543 130.989477
5267 3 17.649316 -2.319229 129.746541
5268 3 14.399840 11.874193 145.878836
5269 2 -23.038589 58.516017 261.398191
5270 3 -34.753428 54.502922 282.258030
5271 3 -42.086097 38.549618 265.188563
5272 2 116.172477 -2.586544 70.202582
5273 3 96.510050 -8.695184 80.232223
5274 3 108.133171 0.546331 65.717346
5275 2 38.147668 163.915446 195.557831
5276 3 51.084156 128.351988 191.375268
5277 3 33.156850 142.145763 198.940456
5278 2 -51.060338 57.934916 137.149640
5279 3 -43.865377 76.333351 135.749302
5280 3 -53.307246 84.380978 142.470397
5281 2 112.710853 22.831360 72.525275
5282 3 115.471423 -2.741986 36.788215
5283 3 116.132081 4.611495 65.197455
5284 2 57.279515 108.524172 128.451774
5285 3 60.931269 113.543791 119.672638
5286 3 37.641546 102.045049 125.022771
5287 2 132.237901 52.179563 100.202620
5288 3 121.341895 42.488556 82.567187
5289 3 132.819179 62.516397 90.376515
5290 2 26.633970 50.659106 97.115900
5291 3 21.661184 33.839466 112.068268
5292 3 30.451829 41.641071 109.614724
5293 2 -29.711969 66.646439 201.043344
5294 3 -45.800903 86.520266 159.321756
5295 3 -33.783150 57.075209 181.846429
5296 2 0.244201 47.145305 190.525658
5297 3 -9.622717 51.814303 171.975477
5298 3 -11.475424 45.776138 163.015597
5299 2 102.369213 68.728985 250.650856
5300 3 87.368600 112.891101 194.128671
5301 3 117.685886 97.541624 218.364105
5302 2 -92.177117 124.582086 3.611943
5303 3 -79.822629 103.307058 50.224062
5304 3 -88.255138 111.411648 46.289432
5305 2 -27.530301 -34.891787 76.670529
5306 3 -31.081537 -56.117028 106.432383
5307 3 -27.371288 -13.820345 89.873770
5308 2 29.192945 -37.988580 239.293987
5309 3 59.404019 -8.487666 230.094511
5310 3 31.024694 -0.046818 203.818815
5311 2 61.853435 146.888648 66.253258
5312 3 82.169497 148.135300 48.195336
5313 3 58.373829 160.060674 85.957964
5314 2 42.608260 94.478918 170.223707
5315 3 34.056770 102.157964 139.217100
5316 3 57.015982 97.819178 140.603037
5317 2 -20.935124 -40.902512 33.144491
5318 3 -6.263423 -46.063849 36.631225
5319 3 -26.502037 -33.868083 37.117805
5320 2 53.788098 127.551490 150.628605
5321 3 39.159763 138.209419 161.244490
5322 3 34.518281 125.789595 166.848020
5323 2 -6.013183 34.105463 185.126002
5324 3 -31.581676 43.029473 204.007521
5325 3 -31.146063 71.369661 187.118677
5326 2 2.192815 127.064436 112.467683
5327 3 0.012159 130.918516 126.352328
5328 3 -2.034312 137.101384 94.160225
5329 2 6.575392 34.627498 88.354510
5330 3 25.035086 49.349126 140.825638
5331 3 -4.328381 32.759615 115.248524
5332 2 -2.356406 126.578013 198.389506
5333 3 -22.867717 100.010640 205.494416
5334 3 -6.852180 129.218320 205.246314
5335 2 71.619353 43.845783 80.389224
5336 3 67.712422 50.532080 73.770347
5337 3 57.557782 31.107807 66.283722
5338 2 20.202355 34.201011 115.838416
5339 3 17.291121 21.633831 130.822009
5340 3 19.064754 25.864476 144.550820
5341 2 117.369222 81.859579 184.450650
5342 3 97.643956 84.050323 188.285453
5343 3 99.914263 91.038569 177.760720
5344 2 55.681956 103.195816 80.288916
5345 3 76.845584 77.834424 78.734658
5346 3 83.409368 117.918580 96.888178
5347 2 -76.074872 105.462516 137.717076
5348 3 -48.077546 91.120125 143.195171
5349 3 -52.882362 83.213464 175.837570
5350 2 -32.515129 83.478908 129.758719
5351 3 -43.576735 76.536313 168.239797
5352 3 -16.722090 98.657405 133.087004
5353 2 -61.147119 2.147133 180.323775
5354 3 -56.897729 4.082797 204.652814
5355 3 -47.068906 20.149724 182.931114
5356 2 -23.177734 29.283699 135.094404
5357 3 -27.021239 49.322353 115.686974
5358 3 -13.500859 39.486014 135.102744
5359 2 80.650154 114.893019 133.075259
5360 3 104.818290 96.479072 162.705405
5361 3 84.884298 95.513426 162.489520
5362 2 34.375218 161.219058 131.472377
5363 3 70.957524 128.277890 130.858183
5364 3 45.968214 134.179432 133.129185
5365 2 -27.211841 198.357574 149.974242
5366 3 -40.058059 196.252435 157.176282
5367 3 -56.997550 191.818957 143.033322
5368 2 24.969527 64.953222 176.544124
5369 3 13.619515 45.273836 183.216377
5370 3 21.405089 40.237023 169.846268
5371 2 -101.998249 72.573324 149.353923
5372 3 -88.965361 62.554871 117.648134
5373 3 -82.175219 81.698847 145.380741
5374 2 -1.586207 177.540477 164.072512
5375 3 -9.411939 189.294513 122.861345
5376 3 -37.475962 153.978732 150.184204
5377 2 -14.095186 -3.945126 113.193270
5378 3 -20.334416 24.233259 104.442817
5379 3 -4.629205 16.576369 146.087479
5380 2 3.272587 18.007779 156.015678
5381 3 -14.554513 37.259447 102.718300
5382 3 10.817283 36.759958 159.396661
5383 2 167.767662 126.795335 -48.929718
5384 3 159.649235 129.082903 10.391089
5385 3 155.392419 124.030345 -4.245238
5386 2 -82.139852 181.271502 189.953600
5387 3 -65.667791 181.944519 160.241740
5388 3 -76.336879 176.077870 172.025989
5389 2 38.307435 -11.457120 117.289976
5390 3 43.197589 20.357931 119.366644
5391 3 27.333917 29.854081 114.062789
5392 2 -77.593050 169.275093 46.948842
5393 3 -94.492762 149.248695 48.733476
5394 3 -96.513578 196.134647 69.930714
5395 2 4.218148 164.149729 307.827635
5396 3 8.502635 177.336009 261.503901
5397 3 -15.419475 169.222395 275.462058
5398 2 -22.507500 30.348389 129.589185
5399 3 -12.346771 53.700242 128.827036
5400 3 -3.075739 31.170007 135.569656
5401 2 174.089319 24.952722 100.814931
5402 3 176.863040 36.297318 108.058146
5403 3 180.009597 46.791807 126.775020
5404 2 -95.991535 0.262298 65.031177
5405 3 -91.066068 8.282763 75.299501
5406 3 -129.066710 1.777899 38.414499
5407 2 18.880375 75.009650 148.456016
5408 3 29.248743 66.895972 135.394180
5409 3 33.284760 88.149063 139.869986
5410 2 -23.450702 77.718085 97.330291
5411 3 -23.111619 98.856787 110.561021
5412 3 -45.325307 96.747291 79.273928
5413 2 7.708355 30.655363 89.902199
5414 3 20.207418 51.818510 132.555622
5415 3 20.781442 46.119244 116.096132
5416 2 -30.098162 19.143322 147.359532
5417 3 -16.459010 36.356900 131.240125
5418 3 -25.370079 -2.172257 144.390050
5419 2 34.629512 54.974988 82.263320
5420 3 42.938039 79.362017 68.806026
5421 3 47.757181 83.301208 73.831994
5422 2 29.121998 67.849041 102.497655
5423 3 37.218207 68.395677 82.985331
5424 3 18.269034 48.512945 94.356602
5425 2 -9.915944 14.628766 121.344558
5426 3 -30.808850 32.839808 105.602960
5427 3 -27.137588 -1.965568 128.360936
5428 2 -8.597380 100.725530 150.927200
5429 3 -4.822554 107.079522 132.060442
5430 3 -8.698665 93.826571 130.626559
5431 2 -112.975810 71.057696 129.409548
5432 3 -103.298858 110.347295 86.456382
5433 3 -98.276417 83.092179 140.431648
5434 2 -90.746675 -19.482755 73.162792
5435 3 -94.892775 -31.626948 74.091905
5436 3 -99.534492 -36.469095 94.824049
5437 2 32.962295 114.750197 83.026428
5438 3 30.547231 100.146794 55.018011
5439 3 16.654378 107.611436 68.451587
5440 2 -77.978069 113.332618 76.337277
5441 3 -84.770429 98.342114 117.927170
5442 3 -89.818334 105.137251 92.991622
5443 2 4.245033 -4.567854 186.816050
5444 3 20.092886 -15.712058 205.807597
5445 3 13.963326 -3.763536 177.183125
5446 2 117.082219 225.769104 215.821974
5447 3 101.131727 215.623088 180.250263
5448 3 111.801647 217.534996 180.267681
5449 2 -115.404538 94.247730 50.243667
5450 3 -102.350772 97.826773 43.678050
5451 3 -99.941345 108.230357 38.767334
5452 2 40.211352 66.460403 101.604065
5453 3 53.136533 68.107012 80.357907
5454 3 56.842540 88.658559 106.012210
5455 2 -71.792937 25.115265 92.776189
5456 3 -62.565446 40.945646 86.613752
5457 3 -76.138420 29.948001 94.853641
5458 2 -6.228888 28.464798 237.953155
5459 3 -16.944380 52.809187 267.392787
5460 3 -24.967639 65.356321 234.545989
5461 2 83.943860 68.000358 116.830925
5462 3 77.158026 77.290502 108.521727
5463 3 81.262214 98.583657 117.479411
5464 2 29.006605 122.814238 49.568294
5465 3 29.907003 103.816021 69.695657
5466 3 26.200268 85.528407 38.663218
5467 2 -43.036833 141.702375 182.700135
5468 3 -53.924069 136.447904 150.857249
5469 3 -45.029954 136.783371 183.627150
5470 2 -105.043172 89.279107 211.781434
5471 3 -99.404807 120.277015 222.582206
5472 3 -100.938152 94.875096 198.055917
5473 2 -1.577615 29.001745 224.792150
5474 3 -21.425763 57.629759 185.261031
5475 3 -29.528648 1.166896 205.270578
5476 2 77.214241 54.079467 157.563510
5477 3 52.342826 48.660716 152.876791
5478 3 64.581063 54.781905 148.770018
5479 2 74.287947 109.422821 272.297587
5480 3 56.503337 115.490357 246.352214
5481 3 68.930312 122.295316 278.307756
5482 2 70.835425 58.208004 59.776865
5483 3 81.895380 38.265309 120.985432
5484 3 77.196751 55.112310 91.532580
5485 2 55.792858 105.488561 61.199326
5486 3 55.250382 127.409345 107.486751
5487 3 65.250462 141.125380 89.172300
5488 2 92.934894 121.221794 110.848701
5489 3 94.851950 129.093242 119.378647
5490 3 92.885168 150.332182 135.154603
5491 2 106.916403 79.685903 99.827210
5492 3 123.642849 92.733064 96.825470
5493 3 108.890322 91.282157 84.717288
5494 2 17.392354 119.651922 156.257940
5495 3 15.324394 86.605175 179.831095
5496 3 24.056115 97.300788 147.033268
5497 2 112.949024 215.292075 -104.087938
5498 3 115.994372 201.976118 -111.841970
5499 3 126.667596 216.151011 -72.875630
5500 2 -95.691172 81.783189 123.638098
5501 3 -85.656520 73.980279 115.594568
5502 3 -107.435159 99.717729 99.794892
5503 2 -9.961861 164.829832 79.733464
5504 3 -27.552683 162.791667 99.592837
5505 3 -17.514574 143.462841 73.877473
5506 2 13.679258 24.001365 104.484075
5507 3 10.526086 35.781632 149.377403
5508 3 15.519087 30.513813 126.969584
5509 2 109.524746 65.552856 152.475955
5510 3 104.852462 68.127234 156.631938
5511 3 112.928188 56.677678 175.370852
5512 2 24.921981 147.851786 217.542118
5513 3 28.846947 131.146406 209.640223
5514 3 39.759299 135.607480 190.439710
5515 2 -61.719627 151.387466 249.601009
5516 3 -57.414891 156.748603 241.022212
5517 3 -57.400421 141.149791 226.999272
5518 2 -27.192891 155.003030 177.206910
5519 3 -25.617161 169.357227 181.676267
5520 3 -35.033892 175.214632 187.793327
5521 2 -52.832445 250.361136 139.344749
5522 3 -48.937359 241.416213 118.666438
5523 3 -31.737259 235.077927 118.295909
5524 2 71.911317 46.779343 163.432929
5525 3 54.070504 79.728980 142.404847
5526 3 79.620870 67.627659 145.873199
5527 2 37.428922 217.520917 33.540777
5528 3 53.484173 214.121497 34.153774
5529 3 32.281533 227.223515 25.571612
5530 2 127.872513 115.271066 146.623686
5531 3 111.494246 155.493642 146.565480
5532 3 113.809139 125.025017 133.953063
5533 2 132.448007 178.233716 138.038330
5534 3 120.449919 178.053865 188.440927
5535 3 96.379280 153.172358 170.030038
5536 2 202.593905 108.100239 -16.439050
5537 3 177.398974 69.585313 7.228921
5538 3 186.586446 92.992380 -1.744135
5539 2 170.522883 92.340983 186.344775
5540 3 180.762342 97.669530 220.267751
5541 3 173.844320 88.255212 212.007191
