ITEM: TIMESTEP
601000
ITEM: NUMBER OF ATOMS
5541
ITEM: BOX BOUNDS pp pp pp
-19.1 19.1
-19.1 19.1
-19.1 19.1
ITEM: ATOMS id type xu yu zu
1 1 6.627857 -570.970178 -692.251361
2 1 27.290482 -587.022435 -676.889711
3 1 4.904976 -590.548187 -716.097851
4 1 14.823532 -576.959510 -704.096407
5 1 9.251133 -550.807838 -710.661973
6 1 46.109607 -578.798985 -702.543658
7 1 28.902680 -577.773426 -691.256518
8 1 43.758074 -574.924265 -719.704720
9 1 28.383975 -562.378845 -700.915626
10 1 30.078494 -543.750982 -720.904082
11 1 -6.031683 -619.482000 -706.160270
12 1 -1.282089 -584.623199 -692.782401
13 1 16.428037 -576.471696 -703.016022
14 1 20.923408 -554.007245 -728.687535
15 1 45.969819 -557.052785 -695.792320
16 1 49.261624 -570.724963 -742.140318
17 1 -5.346030 -594.548069 -717.899477
18 1 11.358153 -569.164760 -702.139196
19 1 20.662639 -563.020953 -709.970993
20 1 10.080095 -609.118821 -735.518954
21 1 -2.438974 -535.232508 -704.391118
22 1 27.971543 -566.295225 -731.616636
23 1 51.920875 -609.799790 -704.811153
24 1 22.354758 -569.068304 -746.792883
25 1 1.601744 -590.745843 -737.387080
26 1 33.488316 -599.038077 -715.142864
27 1 4.620586 -612.243545 -747.006554
28 1 -0.770658 -588.040514 -710.662490
29 1 0.639112 -558.223879 -761.426354
30 1 11.507750 -565.353898 -750.878611
31 1 50.764211 -606.658525 -782.717206
32 1 22.152724 -529.887169 -718.508901
33 1 9.219586 -577.135089 -731.417652
34 1 12.089135 -574.124033 -755.495232
35 1 21.427438 -588.358344 -722.240651
36 1 -17.666981 -560.313556 -719.435841
37 1 24.040352 -626.090086 -690.971697
38 1 10.536207 -600.517089 -704.247712
39 1 52.917229 -613.399861 -708.660847
40 1 5.311944 -607.494213 -739.621362
41 1 21.467359 -602.261689 -740.487929
42 1 11.761020 -580.944067 -697.260782
43 1 12.934836 -585.572494 -730.638178
44 1 30.279280 -585.062907 -686.987822
45 1 10.173774 -597.959181 -745.891922
46 1 24.187335 -597.706060 -730.947798
47 1 5.164244 -578.873547 -726.154852
48 1 25.130803 -619.561914 -708.890165
49 1 37.306117 -606.059719 -686.082286
50 1 38.084412 -546.082103 -733.019410
51 1 37.266153 -609.908836 -686.673036
52 1 30.721774 -576.889814 -714.871328
53 1 10.987192 -592.319729 -709.704181
54 1 26.940875 -576.154960 -701.457885
55 1 56.163607 -601.479824 -672.279437
56 1 45.373461 -569.799813 -712.193688
57 1 16.822625 -577.230268 -733.609569
58 1 35.550646 -596.974916 -733.136836
59 1 15.529871 -582.943551 -710.970781
60 1 23.169455 -566.361151 -716.021977
61 1 112.108376 -618.390637 -700.366576
62 1 112.885118 -596.565738 -698.193037
63 1 105.427139 -568.682845 -686.146867
64 1 81.807027 -585.712738 -659.666504
65 1 119.732935 -577.148773 -691.879595
66 1 93.870439 -631.530848 -706.901217
67 1 118.785250 -564.566438 -666.616161
68 1 117.360527 -568.356744 -621.566574
69 1 96.368551 -602.337954 -717.969963
70 1 93.448697 -581.163069 -652.769692
71 1 109.590087 -605.600002 -678.250193
72 1 127.257982 -561.437457 -681.366763
73 1 144.723306 -553.457580 -665.167553
74 1 118.322417 -591.159338 -676.934659
75 1 97.714942 -542.432892 -680.373470
76 1 125.327349 -543.189032 -655.720049
77 1 107.247943 -562.971447 -648.803901
78 1 103.462224 -556.737873 -646.802036
79 1 85.661465 -604.453903 -671.807221
80 1 90.776733 -583.648179 -690.001653
81 1 116.332192 -583.159635 -660.687474
82 1 78.420593 -589.491915 -723.502896
83 1 92.622322 -562.497135 -619.714169
84 1 100.492453 -582.173911 -701.934456
85 1 112.127770 -593.076842 -672.759551
86 1 86.298847 -549.160727 -684.569982
87 1 100.360242 -614.284446 -668.663195
88 1 109.315508 -582.675834 -684.905361
89 1 117.303850 -569.161172 -715.168696
90 1 113.616405 -561.707789 -671.731938
91 1 114.120318 -562.094282 -660.059525
92 1 111.364056 -577.381703 -747.558186
93 1 125.354600 -585.641217 -718.126507
94 1 100.172764 -590.947208 -687.080302
95 1 104.251827 -551.618104 -665.221137
96 1 146.591574 -600.092220 -648.603589
97 1 82.254208 -569.489767 -671.465790
98 1 96.712577 -579.993616 -655.134760
99 1 102.682037 -589.513566 -681.361966
100 1 100.111330 -573.082661 -648.805746
101 1 121.163470 -582.629188 -669.670806
102 1 107.065057 -566.616644 -698.312309
103 1 111.989186 -562.148896 -665.948503
104 1 100.713246 -541.051674 -683.558311
105 1 119.749297 -587.871625 -695.786268
106 1 110.618003 -590.167654 -670.138816
107 1 138.477152 -548.165820 -666.795659
108 1 122.758323 -527.083073 -668.893472
109 1 69.338874 -568.562732 -658.977664
110 1 138.031426 -591.474858 -701.632586
111 1 102.796032 -560.298534 -650.676381
112 1 102.093642 -598.797302 -647.989884
113 1 103.603144 -594.041767 -721.460955
114 1 84.725273 -533.951943 -667.897596
115 1 124.193868 -603.920294 -700.578181
116 1 100.311262 -562.442277 -648.663741
117 1 88.079477 -574.752213 -657.665525
118 1 99.087475 -561.119991 -677.230256
119 1 76.835397 -558.861547 -688.935365
120 1 100.957357 -607.371241 -648.321203
121 1 52.148462 -548.520140 -663.968929
122 1 63.167972 -533.121181 -666.721778
123 1 50.982714 -537.484506 -722.038051
124 1 24.013083 -530.442733 -656.706626
125 1 60.418032 -549.646778 -644.089116
126 1 35.174608 -490.308046 -717.803159
127 1 59.837571 -547.905705 -692.957324
128 1 22.099937 -521.665057 -697.609889
129 1 70.700194 -583.122536 -708.936959
130 1 54.716670 -579.446201 -686.820059
131 1 56.978017 -531.219915 -644.234073
132 1 46.115490 -564.314229 -671.662338
133 1 57.823629 -532.575712 -701.029953
134 1 58.017078 -549.761175 -707.812658
135 1 35.890786 -521.318764 -685.243027
136 1 60.821030 -536.501762 -659.734037
137 1 41.300806 -563.760246 -704.339749
138 1 51.268796 -527.122665 -703.347194
139 1 64.949671 -534.087626 -714.204409
140 1 58.642582 -554.261278 -717.609121
141 1 64.516747 -550.762103 -690.199751
142 1 61.323448 -569.197419 -717.985167
143 1 44.297159 -538.375660 -681.426547
144 1 58.547690 -549.345551 -732.488000
145 1 52.095384 -524.051643 -700.753546
146 1 72.258214 -559.659893 -700.897543
147 1 65.886125 -522.438712 -739.970100
148 1 60.621822 -509.643030 -713.715365
149 1 56.190275 -519.629629 -697.655944
150 1 55.621874 -502.936542 -647.628673
151 1 49.851064 -547.604113 -675.096351
152 1 55.443674 -561.947895 -753.324793
153 1 30.080113 -547.573947 -693.449394
154 1 36.099963 -516.391968 -683.476681
155 1 73.538357 -561.140365 -696.701695
156 1 64.723683 -534.511582 -668.057757
157 1 49.067309 -571.779107 -704.973381
158 1 30.225282 -515.622084 -685.473822
159 1 45.648358 -583.517544 -686.572142
160 1 49.622168 -537.232662 -663.365705
161 1 41.466945 -538.594662 -700.117552
162 1 40.606719 -564.119797 -701.490139
163 1 26.009845 -526.490775 -682.761713
164 1 42.061616 -567.965690 -694.239718
165 1 86.107641 -528.788750 -678.559740
166 1 75.361737 -560.141991 -662.967074
167 1 50.816254 -564.108849 -727.076257
168 1 54.723455 -571.703511 -675.748730
169 1 65.776730 -564.477888 -676.975401
170 1 55.184918 -550.147303 -687.483952
171 1 50.916368 -532.386814 -715.156592
172 1 40.080287 -536.609287 -690.614103
173 1 75.404875 -545.991425 -722.091044
174 1 37.051650 -552.870937 -677.411157
175 1 80.142759 -550.029987 -638.041453
176 1 77.355782 -532.532653 -688.117215
177 1 62.524088 -540.452261 -706.017970
178 1 47.512494 -522.281560 -695.946503
179 1 40.196828 -525.012250 -692.124413
180 1 60.478487 -555.189104 -685.568737
181 2 -69.858514 -3.787030 128.104993
182 3 -90.317070 10.776716 123.944517
183 3 -56.044614 -14.574473 82.252203
184 2 -92.984561 -78.821107 97.953161
185 3 -104.444479 -95.722014 81.849249
186 3 -90.505706 -78.264599 101.288033
187 2 -127.830278 144.200424 39.085403
188 3 -122.320711 110.552424 35.374302
189 3 -104.444429 133.197403 70.432329
190 2 -6.993862 177.447198 -160.153378
191 3 24.733896 128.696319 -156.285030
192 3 9.510508 131.092682 -163.194259
193 2 -105.224018 2.116345 35.387415
194 3 -107.221959 -45.952136 97.360732
195 3 -106.097722 -40.604922 76.454584
196 2 -132.740831 -90.223704 -121.127606
197 3 -124.508815 -99.571708 -105.049457
198 3 -131.370055 -107.578922 -85.504885
199 2 -14.088573 34.042474 20.698851
200 3 -33.325802 44.900244 43.321274
201 3 -44.754056 9.020440 24.668920
202 2 54.283695 21.495148 41.361593
203 3 82.057092 9.387069 67.439519
204 3 70.043061 16.145250 44.756911
205 2 -51.769156 40.307476 -88.766706
206 3 -34.375964 44.615268 -64.004992
207 3 -53.825253 56.146520 -44.961933
208 2 65.521122 62.543666 11.925055
209 3 62.819987 78.813017 3.934872
210 3 81.357967 56.579937 -12.063971
211 2 98.039814 -15.990969 -8.068119
212 3 60.222756 -61.924289 -1.594062
213 3 81.005284 -54.679942 15.540905
214 2 248.205831 136.164276 33.917899
215 3 235.277042 103.577428 59.309146
216 3 245.709845 125.077145 39.879361
217 2 146.066536 37.406860 112.056145
218 3 158.926391 5.232833 120.822531
219 3 173.347938 34.673755 103.715902
220 2 -128.604222 -0.287127 -18.015339
221 3 -109.146848 -12.397007 -34.892237
222 3 -132.738107 -41.885184 -30.525550
223 2 -95.127728 -133.284319 -58.886328
224 3 -106.323334 -130.131346 -68.248058
225 3 -115.455527 -161.428802 -43.914646
226 2 -19.840203 -61.417911 89.314526
227 3 41.576436 -80.337171 123.148989
228 3 8.723939 -42.312192 115.375850
229 2 54.321595 -28.058453 6.967240
230 3 47.369282 -9.438578 -3.687292
231 3 57.619771 7.350530 -36.675080
232 2 34.253563 152.418575 69.814214
233 3 16.553782 151.519227 9.561875
234 3 49.306293 191.379249 -24.024362
235 2 -49.280392 69.468506 18.818309
236 3 -48.122767 68.423056 27.092737
237 3 -70.491114 49.618662 35.340131
238 2 -75.136461 31.331810 23.599566
239 3 -83.587359 15.521760 -14.182935
240 3 -60.588489 27.252450 35.310142
241 2 -61.147279 -115.011309 -67.862989
242 3 -77.888342 -113.852879 -59.932171
243 3 -73.288881 -132.589863 -87.121191
244 2 -11.395915 -33.568995 -35.203227
245 3 -26.233944 -65.681709 -41.974742
246 3 -47.499306 -71.622836 -77.578264
247 2 59.858434 40.259176 -17.619250
248 3 61.684987 41.670402 -48.594524
249 3 43.708717 40.224512 -87.384017
250 2 242.196098 -102.671192 -81.759176
251 3 228.562780 -84.871834 -160.267834
252 3 245.273313 -96.061267 -66.350234
253 2 -63.218086 -172.421256 -104.582813
254 3 -91.547118 -114.615648 -84.971565
255 3 -51.023504 -162.655194 -90.317463
256 2 -54.442982 12.351569 109.226546
257 3 -25.536807 35.503618 72.647430
258 3 -49.629717 4.187867 94.433915
259 2 -115.553278 156.254038 -29.013449
260 3 -157.030949 144.879478 1.643235
261 3 -106.796126 146.525197 -41.767479
262 2 151.733642 134.537615 -172.048909
263 3 130.886993 122.373268 -150.108463
264 3 147.459756 141.260531 -161.808738
265 2 -127.934191 -26.950114 -183.059864
266 3 -172.671095 -41.111715 -151.494003
267 3 -167.962834 -17.610917 -128.855889
268 2 -244.278580 180.911753 22.614246
269 3 -273.093845 189.359481 -34.511320
270 3 -252.718385 177.986920 23.478466
271 2 -103.655732 -28.559818 49.188085
272 3 -108.753726 -35.537114 107.288718
273 3 -114.618096 -4.393767 80.978494
274 2 -56.500644 -82.396827 -30.453376
275 3 -65.460859 -93.545589 -22.486364
276 3 -17.449790 -65.521281 -37.271905
277 2 -32.835594 37.990381 -166.941361
278 3 -45.889539 61.689166 -155.795727
279 3 -36.090211 65.664771 -134.933563
280 2 -139.705688 260.437395 -3.952531
281 3 -123.961654 280.370713 -33.884137
282 3 -120.794884 274.149424 14.521450
283 2 -0.022155 18.875782 -100.392307
284 3 2.511652 41.327389 -108.807344
285 3 5.667097 16.215118 -79.314101
286 2 -84.581423 -56.022298 135.880392
287 3 -53.555172 -73.471951 156.887143
288 3 -66.686439 -36.604413 139.753279
289 2 24.010718 -30.091901 123.019107
290 3 49.902259 -15.325861 145.283298
291 3 26.664658 14.727217 56.480400
292 2 98.842303 -45.535204 130.597239
293 3 86.650378 -49.372552 153.798223
294 3 108.304490 -56.312320 119.579771
295 2 109.356865 99.685321 -215.215073
296 3 76.434177 41.468778 -179.616865
297 3 106.673832 94.563576 -232.796834
298 2 -66.624659 92.930309 67.125545
299 3 -69.809645 106.459887 76.868101
300 3 -71.864749 106.861379 81.667366
301 2 -173.879142 -8.791560 -22.911667
302 3 -176.055033 16.371866 -25.054743
303 3 -182.590753 -3.000735 -3.164873
304 2 -118.512763 -43.679795 -24.340117
305 3 -127.001548 -67.338991 -30.038784
306 3 -159.217970 -39.457706 -36.191751
307 2 -106.355428 100.183178 83.287441
308 3 -99.198990 92.553060 61.996718
309 3 -89.680009 114.464007 75.289159
310 2 -26.315866 50.944059 -12.239763
311 3 5.426947 49.436421 -50.245155
312 3 -40.882129 4.797521 -52.392239
313 2 -27.985376 -81.204036 29.600136
314 3 -30.991641 -63.697831 12.031607
315 3 -11.300087 -74.090453 25.051554
316 2 103.683269 -124.334667 59.027752
317 3 88.549643 -110.498099 16.488201
318 3 89.515231 -107.774632 15.853702
319 2 -18.588709 31.227171 55.120526
320 3 -35.358277 60.581032 47.985190
321 3 -18.209382 19.698217 33.849947
322 2 -21.733152 -47.922155 32.175482
323 3 -30.447634 -76.249408 -2.203672
324 3 -40.958982 -55.310289 49.707609
325 2 -71.773315 31.935522 41.470631
326 3 -63.435969 15.441289 52.697298
327 3 -62.417057 -0.129024 94.467340
328 2 -64.951400 59.506895 -141.653699
329 3 -93.484850 89.204241 -107.119131
330 3 -69.562612 80.680438 -143.850801
331 2 -11.983823 -55.508135 -108.016559
332 3 -12.258224 -103.063729 -139.932338
333 3 -36.734285 -84.201044 -127.197688
334 2 40.771397 99.422804 -23.331919
335 3 50.474962 107.902142 -28.271215
336 3 106.463128 100.692392 -41.633957
337 2 -261.242222 136.961056 10.122920
338 3 -232.722958 118.554400 15.793894
339 3 -238.583779 143.074592 40.852127
340 2 -107.348439 96.893655 123.195884
341 3 -92.535815 92.771462 150.112483
342 3 -113.272488 81.354303 185.915126
343 2 23.549292 35.759134 46.543884
344 3 22.591441 26.901364 40.496927
345 3 10.429809 54.474532 33.920329
346 2 55.563749 35.703557 22.492277
347 3 48.007006 51.981151 43.690537
348 3 43.797586 31.807433 35.672407
349 2 65.493576 -118.638610 42.719462
350 3 85.035718 -121.464189 48.041762
351 3 97.057181 -101.407587 38.114274
352 2 182.077445 -7.153871 -27.952540
353 3 180.333957 14.874416 -26.021742
354 3 193.847106 31.577098 -8.584320
355 2 -96.688842 149.385320 125.836879
356 3 -104.007356 126.151913 111.340025
357 3 -102.739346 152.289673 130.781922
358 2 70.941101 -73.757031 -52.383498
359 3 68.218979 -85.913715 -103.054374
360 3 44.099924 -88.290547 -78.751157
361 2 42.589948 108.001989 3.316238
362 3 35.935319 80.550304 8.561560
363 3 32.690842 92.936816 12.289131
364 2 -54.269512 126.230260 171.349392
365 3 -56.736300 127.045157 131.265911
366 3 -82.802088 105.104295 128.112346
367 2 127.109723 72.066987 -9.564277
368 3 112.922402 80.631837 -33.763449
369 3 99.465012 83.191691 -36.385678
370 2 227.515859 -74.068369 63.501862
371 3 202.426986 -39.300813 60.690986
372 3 224.101453 -69.237641 19.251125
373 2 170.531190 58.300914 -2.089025
374 3 131.661750 86.734137 -9.438434
375 3 168.695621 41.982006 -9.839927
376 2 -139.302409 191.469897 -4.122287
377 3 -153.495239 180.326859 -20.810648
378 3 -149.899087 173.475414 -34.650303
379 2 18.043455 -18.142695 -3.713422
380 3 7.910701 4.745714 25.106033
381 3 -7.871486 35.598922 -19.478918
382 2 34.275940 46.047441 49.308858
383 3 55.924407 27.992189 62.451696
384 3 56.073920 42.547465 51.728271
385 2 36.672277 123.603066 18.431293
386 3 31.738374 151.370483 24.311831
387 3 13.666034 84.759998 37.513769
388 2 -118.548975 15.754746 103.979411
389 3 -111.841442 31.112633 123.188107
390 3 -107.765263 12.966534 88.470392
391 2 -15.480666 0.024610 -47.457349
392 3 -2.828472 25.573885 -70.318489
393 3 31.881196 15.214177 -69.797486
394 2 -23.323472 205.796240 29.533214
395 3 -76.177528 200.052274 34.400765
396 3 -44.802075 198.150264 68.965550
397 2 78.855449 193.542818 -92.617194
398 3 95.925857 206.890005 -89.698546
399 3 94.920509 152.187972 -86.807383
400 2 -9.652417 99.223537 158.927701
401 3 4.291323 107.613937 145.640283
402 3 2.158625 114.826181 180.815476
403 2 -60.484224 25.261553 46.974429
404 3 -87.617781 59.411990 16.492158
405 3 -83.194507 45.772521 23.459467
406 2 102.459926 64.855815 -48.678082
407 3 73.051656 52.978977 -54.769587
408 3 63.056928 92.387645 -60.978301
409 2 52.058137 38.205872 -40.470193
410 3 67.542342 10.696172 -47.892044
411 3 80.303318 18.995399 -59.073972
412 2 121.276498 -32.460128 -155.761278
413 3 122.677606 -3.329267 -128.484483
414 3 100.316863 -11.985950 -154.984995
415 2 -249.876999 -29.126676 63.221100
416 3 -208.841344 -7.851095 75.189123
417 3 -221.665222 -41.952071 79.617643
418 2 -173.898628 205.967105 35.459310
419 3 -148.509232 213.694394 12.620392
420 3 -161.205754 206.813421 52.201085
421 2 -95.894130 189.147275 35.437438
422 3 -100.624724 174.603267 43.967108
423 3 -65.313050 182.400207 73.948812
424 2 94.086048 -68.811974 100.762842
425 3 106.325684 -81.124860 111.219812
426 3 97.176562 -68.740605 84.166684
427 2 -211.185978 249.511369 105.159454
428 3 -208.192302 232.393717 103.009192
429 3 -217.940765 247.326954 108.488274
430 2 84.359358 31.507336 4.401967
431 3 103.124226 40.169653 34.835726
432 3 85.813699 35.481077 -1.638494
433 2 91.930778 -44.160220 53.211317
434 3 65.345058 -60.479761 66.896061
435 3 67.524584 -32.100273 66.862345
436 2 -99.456055 137.886343 144.010166
437 3 -104.067391 136.090269 155.553213
438 3 -103.169555 128.239362 125.556164
439 2 -14.527820 52.840466 -170.787734
440 3 -45.727908 50.120853 -181.512465
441 3 -38.957893 28.228295 -162.575647
442 2 -55.990014 127.167870 53.082492
443 3 -26.526490 164.002369 64.784994
444 3 -30.684767 133.469354 71.880595
445 2 65.608646 112.237005 10.334066
446 3 63.937583 90.718055 -7.855117
447 3 63.021549 100.463317 11.930669
448 2 61.300049 157.465713 -197.656487
449 3 86.472847 186.056928 -190.829884
450 3 100.601894 189.742751 -183.714660
451 2 103.046337 144.830566 -33.244162
452 3 122.071037 182.940415 -40.442963
453 3 133.278721 166.159766 -45.177454
454 2 -46.596977 -37.072712 -34.145487
455 3 -37.920850 -24.519060 -67.986570
456 3 -30.922602 -21.170875 -69.628764
457 2 101.345648 171.496257 -27.836252
458 3 123.048999 188.435699 20.320996
459 3 106.156165 144.413459 46.695006
460 2 -175.576251 77.089289 -115.063013
461 3 -173.241576 83.045046 -146.340658
462 3 -186.589604 81.361871 -115.215415
463 2 -144.289539 118.804610 156.388384
464 3 -130.706470 125.652041 110.087273
465 3 -157.237161 106.889833 156.601935
466 2 -20.838606 -104.009215 -117.687420
467 3 -39.003212 -113.307304 -58.848345
468 3 -33.402039 -129.108645 -79.086610
469 2 -6.718987 12.886936 1.517301
470 3 -7.483910 22.359102 17.979232
471 3 -13.260356 3.131358 3.991966
472 2 -59.833957 100.335761 87.203976
473 3 -30.905467 119.810244 63.801827
474 3 -96.733939 38.155726 65.115077
475 2 17.672997 24.341173 143.020793
476 3 22.508971 28.814211 151.037504
477 3 43.750297 74.806544 150.634445
478 2 -28.611187 188.240948 23.253342
479 3 -35.435291 155.273575 39.828762
480 3 -17.300798 204.774497 1.616475
481 2 -32.693723 104.317421 53.268720
482 3 -12.878070 78.437718 22.432388
483 3 -6.504116 67.122124 70.054613
484 2 8.437995 111.478752 -117.997705
485 3 11.277378 118.184108 -94.292702
486 3 -2.437388 137.302316 -107.200614
487 2 25.727254 88.474884 -83.873162
488 3 7.986471 104.673771 -103.074551
489 3 -5.210866 106.090035 -85.632764
490 2 130.590832 134.007928 -37.657062
491 3 122.796704 148.257011 -3.734031
492 3 160.963981 128.304824 -61.746760
493 2 82.665072 80.348201 -32.568543
494 3 138.486692 64.054044 10.087251
495 3 116.194360 88.265954 -3.583644
496 2 -241.307879 68.954392 9.846790
497 3 -231.095696 70.621645 -9.555164
498 3 -257.122967 96.782101 58.568268
499 2 -193.621880 126.225676 100.557345
500 3 -196.406890 122.315142 88.960234
501 3 -173.409493 129.260581 39.188816
502 2 69.843092 14.985317 170.231143
503 3 55.067478 38.127583 156.363483
504 3 82.987066 11.633294 113.693164
505 2 39.474602 -93.105706 -15.959102
506 3 30.265788 -66.375389 -44.666558
507 3 10.829137 -41.430568 -83.205892
508 2 73.814169 176.363756 -23.734582
509 3 67.832429 157.763109 4.689126
510 3 91.662977 132.262461 -22.026972
511 2 -54.416027 148.843364 153.999799
512 3 -69.829408 136.215461 150.789928
513 3 -74.006536 138.259935 171.432969
514 2 -121.044752 147.577029 5.245541
515 3 -139.983558 186.146846 8.322167
516 3 -103.677510 164.056603 -9.967332
517 2 172.485611 114.156546 171.930584
518 3 149.644853 146.295308 179.507636
519 3 167.701957 132.049487 166.377132
520 2 97.957772 61.085446 62.731807
521 3 80.709068 43.003703 32.285412
522 3 67.749734 38.814163 54.168982
523 2 -39.369657 -33.489766 11.049354
524 3 -18.916314 -13.842410 70.180822
525 3 -48.557948 -38.243119 49.019969
526 2 17.917450 14.716220 112.472499
527 3 43.177698 3.088874 115.902536
528 3 10.693732 39.301551 54.591416
529 2 53.865127 74.975361 -18.739857
530 3 39.038083 89.284284 25.422412
531 3 79.209623 94.694348 -4.327996
532 2 -11.087605 304.989824 -70.484536
533 3 -14.639430 263.895093 -106.120718
534 3 -33.703727 274.842466 -48.361313
535 2 53.070575 189.686997 -159.140637
536 3 77.115103 217.472780 -188.497623
537 3 60.568691 180.432620 -129.821744
538 2 28.358435 74.206587 27.603960
539 3 -9.579939 25.486813 52.197639
540 3 -0.958217 25.095642 39.055154
541 2 24.268787 99.373269 159.622842
542 3 -1.368900 127.313117 127.533091
543 3 -14.425958 100.865356 110.496292
544 2 -70.250983 223.277213 51.457416
545 3 -68.565220 207.781022 52.351121
546 3 -45.847418 167.493227 41.995901
547 2 -80.689259 -80.668077 16.745493
548 3 -81.938897 -83.692673 26.482166
549 3 -109.837585 -83.829071 17.411032
550 2 144.668348 161.451683 -64.341718
551 3 108.633189 164.990222 4.352686
552 3 129.721565 163.310818 -27.336040
553 2 -7.519378 2.388528 81.753060
554 3 7.845038 30.005566 7.994349
555 3 -26.582557 -3.895382 6.343530
556 2 2.864192 171.729065 -41.244428
557 3 -31.662938 173.235414 -80.618721
558 3 -9.188829 164.011842 -38.470811
559 2 -19.749163 110.795229 -107.451272
560 3 8.140499 120.872962 -49.018964
561 3 23.549524 141.961684 -82.935621
562 2 -40.948001 197.791671 46.406137
563 3 -46.131697 144.246911 18.523857
564 3 -57.359878 183.159205 44.013708
565 2 -10.729889 282.079644 6.832516
566 3 -0.586576 288.297710 8.429619
567 3 13.405159 262.377857 32.274207
568 2 -12.415314 137.391680 44.777789
569 3 41.325032 104.484120 43.725755
570 3 -2.390171 76.888619 22.993280
571 2 0.209812 211.924387 20.230518
572 3 -6.636300 229.731553 6.544910
573 3 13.069946 219.270869 -8.529396
574 2 -163.536177 175.509671 -23.664438
575 3 -152.486995 171.714834 2.019882
576 3 -169.899555 152.724303 -0.471614
577 2 -157.417934 150.110960 59.653404
578 3 -146.731258 133.485136 30.320328
579 3 -151.726386 119.979627 90.814485
580 2 50.278758 -32.684262 25.927331
581 3 39.009564 -32.328938 -6.435760
582 3 43.707786 -33.908191 8.667755
583 2 -143.364562 -59.097167 160.605369
584 3 -135.064303 -61.838970 156.139655
585 3 -151.644818 -62.502333 150.926425
586 2 -74.834323 51.077207 -1.661127
587 3 -78.580232 56.413382 23.907891
588 3 -49.760604 66.328593 13.060334
589 2 194.338915 196.976584 24.086157
590 3 199.746455 198.094540 43.145344
591 3 224.084937 175.058104 76.292079
592 2 96.847654 -34.150472 34.559033
593 3 100.895085 -42.131885 -26.209322
594 3 119.809290 -44.604778 -16.090478
595 2 15.431955 181.808958 -70.266096
596 3 -10.137402 160.554996 -47.643628
597 3 8.686300 174.617666 -46.266184
598 2 124.125143 -18.743332 -39.538141
599 3 155.726171 14.351989 -37.281330
600 3 127.091469 -33.969256 1.477083
601 2 57.678932 265.569997 -30.645107
602 3 49.956493 253.511342 7.643694
603 3 69.976364 212.269099 -8.508222
604 2 71.681854 48.989295 -23.931660
605 3 57.774455 102.996640 46.373598
606 3 64.068877 80.387379 -27.524243
607 2 129.702757 191.227936 195.335119
608 3 136.938077 155.100200 137.626358
609 3 146.621622 117.082443 149.327186
610 2 -147.204888 53.861632 -239.520439
611 3 -157.721206 41.924878 -218.813915
612 3 -109.340673 25.095370 -238.149697
613 2 13.060895 151.596434 88.001889
614 3 -4.954013 123.669783 58.511353
615 3 4.447566 134.773631 78.822609
616 2 101.001691 204.583211 -53.811633
617 3 84.817853 169.245628 -52.122655
618 3 85.556239 172.426850 -45.294848
619 2 -17.177491 52.467711 -67.519252
620 3 -63.427804 43.797371 -57.814181
621 3 -29.628855 16.048979 -74.661361
622 2 83.840649 152.833698 107.448030
623 3 82.039892 167.666039 105.764643
624 3 41.284432 156.521071 115.544960
625 2 17.372874 180.828297 -63.178872
626 3 18.292167 158.048052 -68.406273
627 3 28.304602 163.793630 -50.576142
628 2 16.790959 186.597060 63.276202
629 3 56.799627 188.281726 72.232723
630 3 34.805008 181.782244 48.166545
631 2 -73.080309 222.052918 42.824374
632 3 -70.766697 248.723559 0.363830
633 3 -96.800224 219.590129 -10.662104
634 2 96.174227 118.263436 25.183940
635 3 105.440124 89.408594 24.387946
636 3 119.991849 74.084367 34.235894
637 2 -5.315070 219.318139 2.397765
638 3 -14.174880 218.369468 -8.554917
639 3 -0.217583 224.446803 13.840402
640 2 -41.552721 224.318874 -86.008451
641 3 -44.620008 222.199564 -85.489616
642 3 -58.741254 208.724463 -106.122600
643 2 174.404485 50.937014 -22.481890
644 3 169.304963 61.493696 7.507421
645 3 174.646070 74.839454 34.519304
646 2 39.600167 -23.864941 94.802220
647 3 45.941896 8.754758 111.921724
648 3 56.243637 -23.033913 63.746268
649 2 -160.402451 225.474126 14.451864
650 3 -135.794887 204.971742 20.630586
651 3 -152.847837 215.305805 -4.711804
652 2 4.640693 206.871000 -185.993300
653 3 9.489152 218.106084 -150.854743
654 3 1.935295 189.206070 -146.249433
655 2 -73.545589 154.992387 -122.160330
656 3 -62.455684 147.129636 -90.584995
657 3 -78.704407 162.542241 -124.949373
658 2 -71.869858 257.955858 27.490277
659 3 -53.502014 272.737676 8.651872
660 3 -47.485718 249.184690 -2.147727
661 2 -186.890288 84.147364 26.426889
662 3 -201.176173 108.803133 47.539112
663 3 -176.661663 106.418979 58.486782
664 2 -17.663961 57.968104 -151.356833
665 3 -10.381267 87.158679 -136.956647
666 3 -38.918268 131.994402 -115.582512
667 2 93.593857 33.333006 -21.169128
668 3 91.942536 45.097402 -74.768888
669 3 104.723892 82.730287 -32.667112
670 2 45.332714 254.727943 93.915195
671 3 71.420758 286.471949 97.649381
672 3 66.987868 257.986161 129.888103
673 2 -106.736497 94.268810 -72.049205
674 3 -107.230956 113.691493 -86.836998
675 3 -112.768501 119.788639 -57.682731
676 2 46.222432 138.086295 32.527393
677 3 70.707811 132.048066 0.230746
678 3 60.808970 113.703261 56.352753
679 2 -111.134904 83.736522 84.291381
680 3 -80.841776 82.798026 57.541162
681 3 -109.860769 86.834478 110.783299
682 2 -17.133041 150.688495 -116.978681
683 3 -11.462754 182.452053 -152.660189
684 3 -32.807622 159.203031 -151.707120
685 2 -21.179103 127.973766 19.255804
686 3 -26.498367 89.303266 33.545437
687 3 -54.064070 94.596683 41.379611
688 2 -110.205232 -116.997277 -32.603172
689 3 -83.950278 -127.562916 -43.223910
690 3 -119.833117 -123.068059 -46.501194
691 2 -153.114615 24.530198 202.200211
692 3 -122.683205 -3.384023 185.109653
693 3 -126.304106 30.217859 201.804606
694 2 56.298216 -37.434080 11.841406
695 3 75.363604 -53.352410 -1.432674
696 3 35.253658 -6.775565 -12.253945
697 2 -134.854960 104.554463 80.155317
698 3 -144.852538 149.007844 71.387519
699 3 -125.487406 143.495036 87.812675
700 2 -152.219342 -22.322060 16.976447
701 3 -134.810910 6.090449 41.987918
702 3 -149.052622 1.929319 39.839155
703 2 10.646290 21.550513 146.900231
704 3 22.565893 3.609917 131.788150
705 3 20.199457 4.807282 130.187002
706 2 -106.093297 -99.601866 124.613106
707 3 -122.832832 -96.225762 112.515768
708 3 -107.812554 -63.137447 65.551479
709 2 -66.223291 -8.651871 53.691546
710 3 -58.628966 -10.551680 54.671363
711 3 -63.320015 -33.466861 64.734847
712 2 87.678078 98.042126 -144.954602
713 3 89.712070 99.807974 -80.696264
714 3 98.215423 116.232623 -188.489948
715 2 5.124148 -9.391415 -92.420378
716 3 12.616907 18.973952 -12.102823
717 3 36.226733 -18.166645 -92.478658
718 2 39.818134 -104.468841 94.042342
719 3 43.424483 -138.196504 81.631777
720 3 56.479192 -135.321434 98.181824
721 2 133.456141 55.562372 19.909783
722 3 157.393071 96.368431 -22.588850
723 3 94.210655 87.643924 15.253059
724 2 -41.539890 142.031715 -66.889624
725 3 -65.103054 136.371738 -76.034501
726 3 -91.709342 138.734286 -80.074506
727 2 -217.786651 -43.549802 -28.990578
728 3 -226.727251 -18.075461 -36.724194
729 3 -210.840627 -40.849954 -16.795821
730 2 16.641008 30.944777 -58.551576
731 3 -1.498064 2.859049 -36.367121
732 3 3.203863 16.671797 -96.565327
733 2 -26.285931 -81.046018 102.617009
734 3 -7.473307 -87.187469 92.678833
735 3 -36.146894 -77.648316 115.534895
736 2 14.185032 55.261783 75.123089
737 3 -31.158012 79.794819 122.434400
738 3 -4.731485 82.508073 98.105286
739 2 -80.173970 38.456066 170.840401
740 3 -60.420645 82.187730 203.831288
741 3 -95.551602 44.213255 196.308484
742 2 65.163527 -222.181775 229.025049
743 3 26.081343 -196.165254 206.613088
744 3 64.069783 -202.866816 174.208034
745 2 299.022364 92.251392 50.184815
746 3 297.733624 68.760108 17.435004
747 3 304.417394 101.464838 24.430086
748 2 -122.357279 -101.959784 93.035168
749 3 -136.886055 -122.100777 132.545086
750 3 -132.073142 -114.228623 112.522955
751 2 64.768128 15.358755 67.261917
752 3 105.536396 55.981941 96.810769
753 3 80.422687 -4.246300 37.948416
754 2 48.558755 -62.618988 36.809772
755 3 27.198420 -95.945965 51.298136
756 3 32.711847 -113.249284 51.740191
757 2 -69.514169 -5.365174 59.141922
758 3 -48.256969 -37.054699 12.361710
759 3 -76.131056 -9.792306 56.283554
760 2 63.496572 90.245879 69.202111
761 3 66.928556 107.108159 51.542416
762 3 62.502713 98.999046 69.285416
763 2 144.129050 -42.333638 30.930302
764 3 95.502939 -61.695602 27.954102
765 3 118.322750 -20.218053 44.989285
766 2 -71.755278 -57.322941 134.270977
767 3 -82.376686 -80.175884 125.827921
768 3 -62.718154 -74.445975 171.727532
769 2 144.238867 -6.473004 31.945078
770 3 125.806636 -38.406417 28.954589
771 3 120.571482 -7.283635 17.069359
772 2 -164.868191 152.132583 -5.675073
773 3 -159.525950 171.264711 -9.739446
774 3 -160.213717 127.594738 -23.203302
775 2 40.556565 42.151693 83.965122
776 3 47.460623 0.264820 113.279771
777 3 9.165957 49.346516 121.279516
778 2 4.919055 79.697724 63.559675
779 3 -5.699805 50.765874 67.398709
780 3 6.083462 32.259411 87.385006
781 2 -86.692040 -22.225322 55.452180
782 3 -59.129526 -29.590141 38.028722
783 3 -68.251958 0.582214 31.560422
784 2 -41.780619 5.929070 34.011797
785 3 -62.378122 17.530149 13.753596
786 3 -26.904610 -3.444854 55.254306
787 2 -145.054153 53.281607 78.216202
788 3 -163.646697 56.324099 78.663933
789 3 -177.622962 83.330537 23.772653
790 2 93.239472 -97.897017 -27.606967
791 3 74.299039 -110.145679 -29.120585
792 3 62.776325 -107.586563 -44.867179
793 2 -2.557355 -36.677686 99.756014
794 3 19.819948 -37.173015 84.371111
795 3 20.025641 -46.393349 47.461094
796 2 160.801856 -8.273767 164.178065
797 3 153.173390 23.681734 152.711113
798 3 136.675921 9.182562 147.610106
799 2 103.342553 39.617783 -75.416460
800 3 129.781995 48.631016 -56.946350
801 3 118.791986 48.155983 -62.251959
802 2 119.517856 114.965049 -27.466429
803 3 125.056972 131.390115 -35.582669
804 3 88.377622 149.811892 -45.310846
805 2 -41.522056 -167.786002 49.645053
806 3 -49.507556 -146.636219 61.578786
807 3 -43.693134 -152.364829 51.486685
808 2 -42.164226 239.028243 -30.526491
809 3 -51.060966 219.092203 -76.192318
810 3 -30.992929 230.311217 -47.691672
811 2 -33.701958 36.324186 -35.500060
812 3 -52.664928 14.689602 3.219139
813 3 -81.989732 64.699310 15.221186
814 2 27.315402 -9.616987 59.153893
815 3 18.378993 -41.020166 -6.891665
816 3 18.042788 -45.358834 29.500029
817 2 -227.709490 77.421061 149.640727
818 3 -190.784043 115.326158 156.519318
819 3 -215.321601 91.597547 204.183919
820 2 -127.465257 196.591460 134.605701
821 3 -101.995007 182.110641 124.458360
822 3 -110.236180 194.278660 125.417093
823 2 133.762803 -17.105143 -18.162157
824 3 128.081152 -48.757965 -12.561457
825 3 155.608984 -75.962830 83.485636
826 2 85.232224 -12.646213 -74.090178
827 3 107.046193 51.773966 -61.996116
828 3 114.951574 27.116629 -29.426486
829 2 121.685409 -32.678765 258.751975
830 3 108.623575 -49.417367 265.050581
831 3 83.599607 -61.526515 247.726572
832 2 -50.846706 26.529110 14.901589
833 3 -29.393059 60.197093 43.556536
834 3 -54.262289 48.738254 -11.937284
835 2 -18.823407 52.929016 63.846088
836 3 -34.341251 24.839975 35.194989
837 3 -15.786141 64.720033 67.322577
838 2 14.621670 139.013118 -33.148494
839 3 20.051712 135.233637 -42.274440
840 3 9.136155 144.702865 -46.552619
841 2 41.456629 51.531807 -32.904779
842 3 36.252405 62.075115 -81.124150
843 3 60.645190 58.096549 -41.598516
844 2 -33.144715 -98.087291 91.826811
845 3 -58.703514 -164.509068 93.361381
846 3 -26.705494 -88.811180 35.742251
847 2 -49.357615 188.555844 140.471614
848 3 -35.524802 173.624507 167.032380
849 3 -16.099508 196.158761 156.286171
850 2 -138.347865 119.660961 177.389342
851 3 -101.221359 118.994199 194.937133
852 3 -134.133792 145.025963 187.987698
853 2 104.678357 161.993321 -6.212162
854 3 96.384260 132.545717 -16.287349
855 3 87.208485 112.994224 -38.690741
856 2 -20.613503 50.467882 -43.596856
857 3 -19.563636 -2.835079 -67.676239
858 3 -48.294289 19.148390 -56.218656
859 2 -30.045204 -57.017091 -180.779360
860 3 -28.423962 -107.740628 -217.147208
861 3 -16.208363 -71.905940 -155.940850
862 2 56.951706 4.885252 -11.475949
863 3 95.514395 -22.645401 -8.406669
864 3 89.650586 17.716874 -39.887220
865 2 108.679957 -17.935829 131.609335
866 3 98.218732 -8.759048 111.036937
867 3 100.622761 15.524054 146.784059
868 2 86.897632 18.828740 -70.597166
869 3 92.288995 -4.281344 -86.733991
870 3 72.948865 -13.717940 -96.520692
871 2 55.080089 98.122253 6.485352
872 3 66.924785 90.505993 37.619709
873 3 66.500372 87.179714 51.178867
874 2 -40.433063 76.269489 21.981367
875 3 -35.191259 68.489563 22.868416
876 3 -30.401092 75.547532 4.249815
877 2 163.047051 200.677793 78.846582
878 3 162.595939 202.048368 34.365874
879 3 166.475643 230.442247 68.077248
880 2 3.331712 179.557811 -136.744840
881 3 38.142211 164.969529 -130.254114
882 3 19.576682 166.095893 -86.819118
883 2 -79.988464 4.014697 -55.542908
884 3 -81.783385 51.966604 -68.634908
885 3 -94.863786 -20.073380 -37.880042
886 2 -118.207260 -6.409243 92.486428
887 3 -117.463402 21.839547 128.982501
888 3 -81.257447 3.322007 95.964720
889 2 36.280553 81.943378 4.641950
890 3 21.565559 125.376342 -22.390079
891 3 13.408529 119.082658 -49.453142
892 2 -102.719688 -149.500782 13.255174
893 3 -94.650389 -165.387739 47.879267
894 3 -93.600879 -159.419966 19.302329
895 2 -6.244419 227.305542 188.270618
896 3 -15.023847 212.466374 124.342013
897 3 -9.444077 193.878544 127.721833
898 2 60.227421 221.758427 52.969242
899 3 62.077882 214.495568 34.297435
900 3 60.600441 232.803822 57.696490
901 2 1.617869 89.090763 -54.033248
902 3 5.111356 87.649261 -20.908396
903 3 34.790634 139.540881 -51.258293
904 2 178.872986 152.002890 0.110863
905 3 195.058432 157.463554 16.694256
906 3 196.838328 157.254054 3.197803
907 2 155.115042 9.929424 -169.114697
908 3 166.248565 -13.972741 -148.403727
909 3 165.487760 17.040830 -163.891070
910 2 41.763596 -45.707491 186.175406
911 3 60.724197 -61.064244 195.748603
912 3 38.349168 -62.283863 199.674078
913 2 196.029640 66.952285 149.446246
914 3 162.558372 113.795117 148.059950
915 3 177.916876 86.056688 137.724162
916 2 108.733485 135.123185 -214.272632
917 3 123.431978 131.391248 -219.845625
918 3 157.331692 143.311445 -181.232737
919 2 87.297380 -8.291271 88.507295
920 3 106.354390 38.436125 51.158581
921 3 102.565781 33.670082 12.744805
922 2 50.166220 -91.503235 181.790207
923 3 82.746905 -83.715381 145.783182
924 3 102.925637 -79.836547 178.604683
925 2 -86.900113 78.359261 -35.381942
926 3 -119.119381 90.104197 -11.158157
927 3 -124.770761 106.572185 -4.552842
928 2 118.235962 -72.132286 -88.923832
929 3 127.139931 -39.930411 -68.474636
930 3 116.451210 -63.865048 -24.861789
931 2 -146.364955 99.989080 -56.770090
932 3 -119.942133 64.101622 -26.082481
933 3 -133.582329 73.262655 -61.015426
934 2 -46.128881 -19.384888 -89.235057
935 3 -45.954308 -13.381484 -109.089628
936 3 -48.665387 -8.382479 -107.585914
937 2 33.479843 103.327204 -39.953656
938 3 16.026305 112.120996 51.410980
939 3 6.623033 96.480334 29.704891
940 2 -66.308255 42.284124 195.408520
941 3 -85.800687 75.245055 163.774314
942 3 -71.809237 39.953623 217.264143
943 2 -39.713411 117.788317 42.198748
944 3 -46.089379 120.037875 47.149769
945 3 -17.412917 121.059884 85.933912
946 2 160.202214 41.863857 62.055565
947 3 188.735049 8.737328 101.791599
948 3 151.541346 26.192442 83.298471
949 2 -88.210940 8.735252 84.332833
950 3 -109.214784 18.420910 100.775140
951 3 -85.323667 6.245933 96.671315
952 2 158.543683 20.220924 48.632151
953 3 139.063237 -3.210455 35.493101
954 3 182.903993 -0.103912 58.344896
955 2 111.916301 26.226087 -32.941623
956 3 90.200065 33.011900 -57.247962
957 3 95.906735 59.094695 -60.659363
958 2 -10.827803 64.919647 -14.773339
959 3 -40.344692 86.167786 18.234062
960 3 -27.676255 105.984183 -25.711024
961 2 -57.109407 -14.380375 80.706165
962 3 -59.912548 -7.017562 92.732975
963 3 -88.656050 0.098347 121.399673
964 2 -73.843968 15.673526 269.250802
965 3 -76.864038 36.430200 275.322083
966 3 -80.085900 53.914277 203.069564
967 2 16.399469 159.074707 -66.911286
968 3 24.846645 194.476240 -43.878692
969 3 -5.334895 165.905885 -70.539255
970 2 -116.617158 33.875380 -19.421423
971 3 -102.975582 56.405453 -19.225004
972 3 -106.460894 40.856216 -12.075817
973 2 46.620204 180.047131 -77.332819
974 3 15.398186 175.755007 -87.952183
975 3 44.956018 195.084746 -57.362164
976 2 -157.206015 180.021056 -61.342399
977 3 -121.444443 146.273353 -54.415646
978 3 -110.464663 175.239840 -78.074597
979 2 -34.582651 178.596657 35.160978
980 3 -59.646214 157.059500 51.543309
981 3 -41.752807 141.112312 48.758723
982 2 -88.524121 69.664185 96.872578
983 3 -87.960259 95.375629 73.376647
984 3 -84.836024 102.174544 95.610821
985 2 -121.529561 97.552525 69.527235
986 3 -128.186819 95.167444 81.456357
987 3 -127.261177 84.350600 89.157405
988 2 -5.006233 -15.822000 58.787769
989 3 -4.053466 -15.356114 86.160218
990 3 22.304742 -49.472581 -0.849272
991 2 98.022553 65.812317 99.403384
992 3 97.627249 89.803221 102.812736
993 3 124.879182 121.379326 116.444103
994 2 56.455309 93.311944 -54.782623
995 3 66.317341 86.598356 -40.068158
996 3 52.213230 81.908260 -34.218367
997 2 30.386258 43.919526 2.305858
998 3 38.083172 38.446818 -24.371346
999 3 65.948490 13.035464 0.850023
1000 2 -61.574739 94.001656 108.115872
1001 3 -52.798200 100.051068 118.896356
1002 3 -26.898093 98.166239 128.390432
1003 2 -137.445370 136.637053 -39.399744
1004 3 -122.881652 135.378784 -41.064560
1005 3 -134.415397 156.753012 -26.285574
1006 2 -59.341395 18.920518 -67.649042
1007 3 -93.111177 11.637241 -60.452870
1008 3 -73.819848 14.951304 -44.199697
1009 2 -70.646983 128.524093 -80.416702
1010 3 -45.031741 162.151628 -30.828536
1011 3 -41.963468 183.960683 -66.307527
1012 2 -179.207259 202.762681 83.932426
1013 3 -164.633656 182.790759 127.923354
1014 3 -166.479221 194.674230 102.048724
1015 2 -15.180752 194.520636 -107.467352
1016 3 -8.131549 198.687948 -91.761126
1017 3 -14.668822 195.115413 -113.720060
1018 2 55.034606 148.016798 14.486432
1019 3 50.464322 142.356471 -13.234205
1020 3 93.135460 137.015404 -1.182411
1021 2 -32.262149 15.465271 215.353448
1022 3 7.616726 4.700981 218.290760
1023 3 -7.290790 -10.025471 209.583059
1024 2 -78.198732 200.913794 -105.773309
1025 3 -97.133582 188.909891 -117.568923
1026 3 -76.713726 197.317297 -104.002230
1027 2 122.384687 -61.852046 -42.884481
1028 3 126.326584 -51.909722 -11.441158
1029 3 120.021368 -85.946883 10.296270
1030 2 111.869977 17.260041 22.289409
1031 3 128.359688 23.972654 42.213032
1032 3 103.233568 24.394046 30.421855
1033 2 169.544674 234.158433 68.066633
1034 3 172.598262 224.298333 131.394520
1035 3 155.293189 228.578141 119.060419
1036 2 262.265328 94.160092 53.883864
1037 3 276.080516 111.464407 80.835908
1038 3 262.989380 115.280355 87.174919
1039 2 -77.931301 189.410187 -64.653515
1040 3 -97.033391 168.163326 -29.609952
1041 3 -115.670379 249.285600 -100.762402
1042 2 -8.069251 117.032832 22.082354
1043 3 -9.503721 81.538035 1.180529
1044 3 -17.525442 101.320481 23.801417
1045 2 70.003220 155.829002 12.386178
1046 3 79.718300 136.511161 8.581944
1047 3 101.766095 125.776321 -42.485209
1048 2 -67.603817 183.464446 122.470860
1049 3 -47.892102 207.857074 131.559211
1050 3 -77.507046 211.915705 143.218172
1051 2 -79.877476 82.282817 61.867574
1052 3 -88.230783 93.866733 19.160654
1053 3 -61.853534 54.036994 53.190896
1054 2 112.619666 81.921921 22.054468
1055 3 122.483522 61.021135 36.317895
1056 3 121.062299 39.291707 58.908277
1057 2 -51.303081 127.922163 168.961619
1058 3 -35.816834 118.016359 198.939238
1059 3 -38.584602 76.150671 195.256865
1060 2 16.092943 86.959115 150.279009
1061 3 15.850331 46.400795 82.924344
1062 3 21.691302 67.538870 129.823697
1063 2 67.660124 90.200996 24.849327
1064 3 49.625995 84.818116 47.613902
1065 3 33.718397 87.213012 40.334607
1066 2 159.558460 208.717271 62.929812
1067 3 145.210506 214.269177 31.400764
1068 3 131.584891 216.867802 28.199987
1069 2 190.422988 131.538486 -8.983889
1070 3 199.052809 103.413412 -31.451033
1071 3 194.979489 102.335208 -0.213184
1072 2 118.862264 109.451649 23.980544
1073 3 131.432441 119.486491 19.029681
1074 3 140.512795 76.728863 1.838776
1075 2 305.941963 -29.907652 -30.670257
1076 3 333.166547 -3.370705 -34.026464
1077 3 336.285421 -13.477940 -33.816211
1078 2 118.227772 70.709126 42.389562
1079 3 106.532371 20.675830 18.281391
1080 3 121.885951 19.333480 56.987817
1081 2 -178.901460 81.920469 -50.864911
1082 3 -138.767117 102.797600 -38.250751
1083 3 -149.094811 98.250417 8.031332
1084 2 24.285367 84.289692 31.715485
1085 3 26.444755 51.590368 32.209657
1086 3 12.530369 71.331871 9.215577
1087 2 -41.614032 127.953788 126.957092
1088 3 -43.892092 138.002580 131.371981
1089 3 -22.137256 137.042179 124.367199
1090 2 76.921291 64.911414 -96.162581
1091 3 80.464895 54.653573 -88.889281
1092 3 64.561041 98.908580 -71.511356
1093 2 38.394985 213.743291 -181.379096
1094 3 46.699470 180.620621 -205.285167
1095 3 -6.066674 175.282002 -150.186551
1096 2 119.186328 30.196472 0.323916
1097 3 96.257853 13.813467 -19.696865
1098 3 110.818317 20.721702 -14.252954
1099 2 23.747784 131.434740 -111.216844
1100 3 -7.513530 153.990333 -53.937133
1101 3 0.102816 154.300303 -74.175564
1102 2 188.802701 85.601335 -145.485698
1103 3 190.724214 68.179510 -190.871272
1104 3 217.698918 91.810909 -215.779216
1105 2 -76.290340 193.324378 -2.763802
1106 3 -113.857451 228.842224 -18.382090
1107 3 -56.210917 205.894824 4.574935
1108 2 -5.301422 -16.971166 60.744574
1109 3 27.172897 -30.460198 73.946607
1110 3 32.965684 -42.522547 60.096614
1111 2 217.419717 99.026793 103.213185
1112 3 191.489037 127.322954 111.067991
1113 3 204.156781 101.216788 109.115540
1114 2 98.063657 214.611988 57.455380
1115 3 90.411163 200.418636 1.065302
1116 3 120.409745 203.476628 31.694941
1117 2 -113.710782 209.054183 73.188878
1118 3 -123.365339 221.234472 89.791258
1119 3 -131.101071 200.673278 46.228154
1120 2 -97.292403 183.926428 -37.581355
1121 3 -110.066451 200.218061 -1.362398
1122 3 -87.109123 217.152912 -57.601017
1123 2 -13.369060 136.145947 42.611916
1124 3 -15.343611 121.168845 86.735164
1125 3 8.437092 109.030771 76.330791
1126 2 -126.009782 250.318975 -7.404865
1127 3 -96.088398 268.421819 -42.009814
1128 3 -110.067954 246.476335 -23.797133
1129 2 180.068190 168.474269 117.043674
1130 3 183.834972 171.182790 91.144429
1131 3 125.702600 173.890475 124.951953
1132 2 33.159740 28.068089 -0.071779
1133 3 40.075098 35.407959 -23.331656
1134 3 56.051463 13.614361 -42.937415
1135 2 79.694667 -5.628451 -8.665752
1136 3 72.272443 -51.157398 -20.858138
1137 3 73.902139 -20.707376 -8.298120
1138 2 -110.141757 136.461504 -46.185398
1139 3 -83.130238 97.866676 27.271128
1140 3 -88.772941 102.456523 14.179337
1141 2 63.283852 182.491144 -171.737444
1142 3 51.295378 163.861046 -195.103654
1143 3 67.442635 180.689892 -133.670349
1144 2 38.760167 53.618181 36.044418
1145 3 41.289698 67.973591 15.911593
1146 3 10.753195 57.935745 39.650823
1147 2 48.680710 171.336217 -7.319242
1148 3 41.425086 99.138705 -18.658054
1149 3 64.235198 159.332814 25.058364
1150 2 -59.405572 7.318301 -50.852512
1151 3 -55.970811 21.771668 -32.804522
1152 3 -48.676978 -0.396247 -45.922654
1153 2 167.606129 64.498925 -91.924756
1154 3 192.868651 56.416738 -92.146241
1155 3 182.338775 71.702339 -111.538494
1156 2 -96.863550 90.511285 -26.443493
1157 3 -104.561752 95.121596 -9.978882
1158 3 -109.803790 84.795994 -26.323123
1159 2 -9.579071 206.970892 158.194817
1160 3 21.158257 192.226690 130.677956
1161 3 24.185509 217.157671 146.686247
1162 2 -50.191151 50.179183 -115.514352
1163 3 -45.830052 50.385476 -131.790165
1164 3 -12.419406 49.023393 -120.975185
1165 2 1.355219 162.585056 151.008600
1166 3 22.531654 181.816469 173.835734
1167 3 5.409069 183.647125 175.918020
1168 2 -35.882564 -3.776893 146.765100
1169 3 -19.804512 4.458296 159.470338
1170 3 -38.211187 19.248616 139.702159
1171 2 -38.576023 169.632470 113.999047
1172 3 -36.789329 205.605745 39.275612
1173 3 -59.098491 198.038102 70.094648
1174 2 53.788844 94.286516 2.202724
1175 3 61.835727 56.904115 32.477711
1176 3 70.146518 88.678294 52.289183
1177 2 -112.281782 246.893069 44.301261
1178 3 -97.074273 287.384662 52.459255
1179 3 -89.412320 258.818869 67.186057
1180 2 206.364396 29.091875 5.903048
1181 3 255.091856 78.954257 -6.141699
1182 3 211.920786 38.328310 7.502816
1183 2 -66.635678 85.780479 -113.690030
1184 3 -80.935453 98.851959 -132.532228
1185 3 -71.823867 60.730597 -101.976387
1186 2 43.292545 126.703068 -4.468370
1187 3 8.150375 154.854058 43.211726
1188 3 11.076879 145.676266 31.114508
1189 2 172.339385 358.957065 106.502666
1190 3 158.777232 419.467652 68.984440
1191 3 185.600855 386.100574 80.668791
1192 2 41.920943 266.910041 208.545187
1193 3 52.723035 288.943527 206.412223
1194 3 57.953311 305.841720 224.415126
1195 2 -133.901439 -74.625081 -13.118392
1196 3 -160.192135 -64.913087 -15.901261
1197 3 -155.311766 -40.080990 -37.421816
1198 2 64.229264 -2.727592 -16.330863
1199 3 61.333293 -31.318731 29.781250
1200 3 86.392099 -14.417827 25.454137
1201 2 -219.695419 83.460055 -57.151298
1202 3 -238.210796 79.220811 -33.521210
1203 3 -216.633488 86.348967 -57.533595
1204 2 105.139748 -2.712313 17.395188
1205 3 96.840635 12.574967 -10.416532
1206 3 108.106869 -12.648170 33.857236
1207 2 -66.862750 -61.070782 -71.321220
1208 3 -43.834768 -36.273625 -90.957360
1209 3 -50.200605 -71.435717 -95.617923
1210 2 86.914561 168.968681 121.081667
1211 3 83.394689 143.700081 140.518214
1212 3 80.451165 150.878153 110.070629
1213 2 -110.776674 63.344604 17.679382
1214 3 -109.031411 47.269666 11.281862
1215 3 -101.962567 75.845571 27.644628
1216 2 164.762722 -16.484926 87.776990
1217 3 178.255164 -4.668303 106.149527
1218 3 155.330263 -18.105098 108.689490
1219 2 192.818500 9.356136 -64.979326
1220 3 171.307907 -0.319378 -106.044503
1221 3 201.519203 22.703406 -90.208773
1222 2 94.066741 61.278897 -9.718506
1223 3 112.464012 62.376966 -14.498960
1224 3 116.853027 25.114985 -23.484197
1225 2 53.229200 129.582980 139.906835
1226 3 73.759778 101.831429 137.790182
1227 3 85.984192 112.255022 140.604485
1228 2 37.928241 83.983067 15.459994
1229 3 4.087364 95.170318 21.219365
1230 3 38.500108 49.883197 8.192271
1231 2 81.181724 -69.651912 46.056975
1232 3 88.987605 -49.383401 27.657617
1233 3 95.980495 -41.680287 -3.206060
1234 2 -73.745731 4.069177 65.111262
1235 3 -76.377651 16.784814 70.396200
1236 3 -57.833194 -10.924695 72.609189
1237 2 17.328951 27.545380 86.808736
1238 3 25.053264 44.453647 141.483793
1239 3 9.699928 14.021331 79.777573
1240 2 165.745749 9.561217 15.838867
1241 3 148.147437 26.024922 58.487375
1242 3 144.948597 -6.909408 72.711347
1243 2 -5.150299 55.915358 32.593935
1244 3 29.634535 9.025804 -2.881649
1245 3 36.875784 33.247429 8.490543
1246 2 38.608757 91.792519 150.338452
1247 3 40.995833 113.910085 154.017098
1248 3 47.644021 91.615222 122.926720
1249 2 -134.576893 115.324235 -64.949665
1250 3 -112.465254 126.649800 -29.747523
1251 3 -127.950595 109.983829 -43.612577
1252 2 81.239042 73.862449 -172.425545
1253 3 64.323286 44.284223 -146.217567
1254 3 84.892457 90.352787 -171.886958
1255 2 24.655190 -16.830436 140.161201
1256 3 27.443142 -19.422002 131.623386
1257 3 3.026646 -33.420058 128.545417
1258 2 17.278782 8.499664 211.389704
1259 3 20.568218 1.065071 234.155828
1260 3 25.891404 6.864152 239.288488
1261 2 67.045624 141.895409 132.561720
1262 3 73.896476 159.389390 133.050691
1263 3 47.407558 125.476850 134.240726
1264 2 182.716047 52.719026 -86.926018
1265 3 158.928782 74.263337 -78.084026
1266 3 170.205190 42.104199 -48.854661
1267 2 72.217202 68.336885 96.676740
1268 3 81.177626 26.489121 133.824372
1269 3 55.199794 30.888502 101.788868
1270 2 65.487512 79.098630 4.495196
1271 3 93.597942 90.280993 -40.632937
1272 3 75.864294 92.797461 -12.291146
1273 2 -182.868229 -174.912873 199.872600
1274 3 -181.128056 -186.726510 207.949085
1275 3 -193.260482 -163.017330 193.534286
1276 2 38.428086 166.800642 116.939209
1277 3 45.285771 183.030090 104.365716
1278 3 50.318525 130.960632 79.834501
1279 2 -104.511996 -40.791904 124.074444
1280 3 -70.908714 -48.638649 80.773611
1281 3 -97.762644 -12.190628 107.979080
1282 2 108.037491 -42.812261 -151.524485
1283 3 114.485013 -91.077325 -171.653451
1284 3 113.836772 -74.699119 -162.239641
1285 2 -60.438338 116.795333 71.285712
1286 3 -24.758835 119.148052 61.574284
1287 3 -48.486543 114.372074 70.243475
1288 2 177.019656 49.674254 43.786087
1289 3 169.029718 66.124810 56.679166
1290 3 186.805439 24.811371 2.666593
1291 2 -53.614869 -68.815798 19.740889
1292 3 -78.389063 -73.549888 33.567515
1293 3 -90.653620 -84.923133 11.528583
1294 2 9.267288 63.446006 -94.357837
1295 3 3.493031 97.727823 -94.270265
1296 3 15.269626 77.883043 -152.115106
1297 2 -95.547140 -15.658942 -72.151336
1298 3 -86.609869 24.059611 -66.359663
1299 3 -76.085601 6.705875 -98.924094
1300 2 64.300642 21.122707 162.570440
1301 3 84.616645 13.457242 145.428098
1302 3 47.743368 13.324556 166.604679
1303 2 -62.695389 96.307173 16.037447
1304 3 -35.621782 62.965417 34.201781
1305 3 -56.984941 96.736861 18.282252
1306 2 101.942332 67.629700 -75.738600
1307 3 121.006306 86.142455 -62.462834
1308 3 118.655029 70.322120 -71.008390
1309 2 213.816071 60.652340 110.292096
1310 3 205.744960 84.821667 76.582652
1311 3 220.275437 74.203329 105.829371
1312 2 -315.259222 114.657489 24.104995
1313 3 -302.214601 124.013499 48.577227
1314 3 -308.441798 132.660540 58.965224
1315 2 71.903860 40.610053 169.938942
1316 3 64.535485 27.564953 146.165428
1317 3 74.299304 19.189659 222.035186
1318 2 87.484906 42.308195 137.338622
1319 3 89.713641 42.164187 52.384694
1320 3 100.026157 56.657376 78.446705
1321 2 13.360123 13.032210 -35.142138
1322 3 1.627792 -4.297434 -68.681351
1323 3 -16.858871 -10.819775 3.029684
1324 2 92.588841 -74.061421 -6.872205
1325 3 55.531802 -82.271719 25.779106
1326 3 43.700271 -83.586365 -6.262085
1327 2 -22.409903 46.268198 60.741539
1328 3 -17.219545 2.801925 96.455057
1329 3 -44.185294 54.965516 94.534592
1330 2 19.841969 -88.546451 9.844657
1331 3 29.112298 -89.903813 16.386953
1332 3 32.822973 -81.013465 22.043453
1333 2 -19.259776 100.505266 90.643779
1334 3 -3.115395 84.985637 69.465993
1335 3 -15.437152 98.981690 100.858634
1336 2 38.880052 134.743466 86.167478
1337 3 18.233127 131.371026 68.254393
1338 3 38.232559 141.958058 61.050605
1339 2 16.431113 78.392752 56.891460
1340 3 12.451854 123.465255 40.186034
1341 3 27.998434 100.915105 74.035244
1342 2 70.017416 -32.384756 42.809470
1343 3 74.928903 -56.796378 21.001075
1344 3 74.221755 -55.256770 -15.528586
1345 2 145.159480 91.364283 -157.450422
1346 3 149.383918 87.605624 -94.422805
1347 3 138.677867 68.524313 -141.352936
1348 2 184.973764 16.913102 130.636375
1349 3 183.757397 25.813890 153.930605
1350 3 199.132355 22.874976 147.406344
1351 2 -31.052539 -16.350733 137.729328
1352 3 -13.908097 -8.508464 115.279329
1353 3 -24.068425 -5.477241 145.556088
1354 2 33.499620 23.856967 -18.608232
1355 3 8.959571 38.586298 -3.936192
1356 3 0.365230 27.967691 -27.481776
1357 2 -82.479280 -16.489442 89.849261
1358 3 -62.723460 -14.083873 69.950720
1359 3 -83.449631 -30.372648 100.652999
1360 2 22.792904 86.895881 24.916134
1361 3 -33.452221 52.667533 20.571035
1362 3 -24.394283 79.131482 3.149071
1363 2 113.707858 -73.003514 -53.063854
1364 3 103.724916 -30.022379 -28.921546
1365 3 118.370713 -72.201815 -8.876773
1366 2 -18.161246 181.772589 225.972212
1367 3 -25.137374 161.091540 240.378948
1368 3 -48.548513 176.627110 221.629414
1369 2 6.040764 84.743007 46.460549
1370 3 -23.439255 58.311082 51.143629
1371 3 -7.360637 80.052588 25.420088
1372 2 -28.849269 -30.028244 -65.221819
1373 3 -6.108431 -23.444246 -47.265820
1374 3 -20.492338 -5.410718 -89.187729
1375 2 -65.073030 73.401022 24.887607
1376 3 -66.797137 112.828406 32.660577
1377 3 -90.712411 133.955565 9.994789
1378 2 249.122599 46.169866 40.271133
1379 3 235.125566 38.396490 61.415594
1380 3 244.914701 31.326520 35.381328
1381 2 14.769288 102.301682 73.827353
1382 3 19.408289 80.276471 87.498715
1383 3 21.607138 87.107114 85.147910
1384 2 68.092381 41.099464 -143.906544
1385 3 77.493004 63.734720 -118.322907
1386 3 81.183863 -2.244630 -135.042945
1387 2 159.146949 -36.373429 -59.831609
1388 3 160.991528 -42.685039 -78.117424
1389 3 199.949770 -21.213641 -55.015041
1390 2 -33.827903 44.920781 41.014781
1391 3 -38.839867 33.870467 49.278653
1392 3 -54.003425 24.952752 17.788041
1393 2 33.660333 90.151817 228.727294
1394 3 3.161768 85.962991 253.110194
1395 3 16.549058 120.544603 262.889238
1396 2 -97.125694 -9.345135 110.413204
1397 3 -114.289040 -6.517203 108.904443
1398 3 -120.684833 -2.475873 120.918766
1399 2 3.840829 12.834276 26.325698
1400 3 -20.785254 15.117266 53.464219
1401 3 -8.578110 26.010201 53.237717
1402 2 54.395296 46.936580 5.955982
1403 3 24.431333 76.488472 24.894417
1404 3 37.311111 13.813958 40.465958
1405 2 108.100830 122.160986 112.057086
1406 3 81.804889 115.278113 105.493421
1407 3 101.965559 107.413157 123.571718
1408 2 -57.283179 -42.052321 -184.151136
1409 3 -57.892404 -12.471611 -109.304443
1410 3 -60.176835 -23.725160 -177.412400
1411 2 -4.690524 237.292111 33.628592
1412 3 9.147664 224.953774 10.289531
1413 3 18.633603 254.566900 26.638015
1414 2 -16.564529 214.975218 -90.078089
1415 3 10.568878 160.929644 -102.159816
1416 3 -10.572279 198.107829 -76.046292
1417 2 35.035855 91.200335 -79.015718
1418 3 30.146739 115.470713 -73.278625
1419 3 16.983368 143.220014 -64.028481
1420 2 -17.647381 88.591827 172.927872
1421 3 -33.923250 103.389617 123.952229
1422 3 -35.018868 140.860985 118.491257
1423 2 211.249461 48.585620 -13.707983
1424 3 195.480419 46.736458 -21.253937
1425 3 232.805139 49.254183 59.194537
1426 2 -89.887540 37.235297 -154.665172
1427 3 -97.422347 82.160111 -161.586025
1428 3 -105.096971 112.706734 -130.671151
1429 2 -235.711999 -56.586088 33.940734
1430 3 -233.598510 -47.297145 81.538490
1431 3 -202.798357 -41.826541 25.577671
1432 2 -160.316890 -91.135277 -51.235408
1433 3 -142.033227 -119.947988 -52.006916
1434 3 -170.214758 -109.409777 -74.777200
1435 2 -98.587947 119.497796 4.440931
1436 3 -134.826514 138.018643 36.496789
1437 3 -101.608984 84.405807 51.941202
1438 2 -4.292011 121.500132 -125.174899
1439 3 27.863448 114.965193 -111.840383
1440 3 18.239493 116.487705 -129.848951
1441 2 -85.285188 82.606266 15.299379
1442 3 -87.709135 98.040233 15.672571
1443 3 -84.952188 41.736088 -32.693272
1444 2 -161.220396 65.223447 -127.325410
1445 3 -174.713812 95.247396 -133.781087
1446 3 -149.982972 72.354496 -131.208926
1447 2 -49.854540 59.681881 4.650135
1448 3 -40.057720 94.559927 37.410139
1449 3 -19.243152 44.630923 34.227746
1450 2 -45.017573 124.502734 14.381386
1451 3 -23.948927 117.067535 28.851323
1452 3 -14.093658 101.774770 54.295437
1453 2 55.221317 102.293700 26.262467
1454 3 44.151380 103.793709 75.230141
1455 3 33.293890 96.438006 35.487126
1456 2 -25.560748 96.341291 66.468373
1457 3 -27.944986 83.347638 19.533785
1458 3 -13.926304 100.167533 61.095628
1459 2 150.444816 65.057261 32.026939
1460 3 163.725020 36.390640 88.353002
1461 3 121.379893 52.251186 66.901513
1462 2 10.554945 113.566787 133.116121
1463 3 7.074732 98.204029 149.655341
1464 3 -11.589077 111.513296 116.714550
1465 2 225.338440 274.402925 68.009728
1466 3 216.042346 241.016051 89.039461
1467 3 250.460936 279.055695 107.584140
1468 2 -257.758377 38.347536 102.559237
1469 3 -212.689224 59.143056 127.387829
1470 3 -222.978464 30.576384 111.800829
1471 2 -54.181307 -52.435417 75.772636
1472 3 -59.029501 -53.806676 86.131424
1473 3 -53.200640 -67.223187 51.108556
1474 2 -124.792170 88.378511 139.416102
1475 3 -140.664755 106.635504 196.736029
1476 3 -156.146991 121.603277 165.941598
1477 2 -183.945310 154.739327 -36.707739
1478 3 -178.636556 216.083017 -39.428248
1479 3 -187.898385 231.095530 -19.084582
1480 2 -137.953831 224.372606 46.215397
1481 3 -138.609084 246.621354 69.921806
1482 3 -125.763662 238.198287 66.211608
1483 2 -131.652189 208.947708 81.841919
1484 3 -131.091421 219.279186 76.520996
1485 3 -131.589639 198.197367 89.924609
1486 2 -47.640601 111.623991 -35.215406
1487 3 -62.257151 120.140914 -33.160451
1488 3 -64.189022 111.457664 -28.700074
1489 2 -64.910702 -82.453075 -0.002333
1490 3 -71.889449 -47.268591 -35.477411
1491 3 -82.553225 -51.988594 -46.369149
1492 2 108.202062 -5.458401 -153.859994
1493 3 93.430278 -6.330606 -182.564324
1494 3 68.695034 2.751760 -136.124419
1495 2 80.564858 118.338925 150.492883
1496 3 76.804183 131.305747 120.982139
1497 3 50.352968 132.531364 117.764278
1498 2 15.267054 -21.190477 94.992273
1499 3 9.055037 -63.339443 38.953171
1500 3 10.226583 -9.814442 45.680728
1501 2 80.115323 205.185043 -156.368136
1502 3 54.708675 161.579567 -176.402427
1503 3 71.137884 191.408623 -136.841084
1504 2 112.709257 162.154912 68.044016
1505 3 91.607243 188.892770 52.210936
1506 3 118.433306 171.286833 67.705810
1507 2 9.237150 121.731662 91.003763
1508 3 12.589378 118.544647 52.341072
1509 3 7.539338 121.985255 69.175896
1510 2 -155.046801 155.731908 -27.143681
1511 3 -140.507819 188.320451 -22.108316
1512 3 -155.307046 172.701835 -39.288093
1513 2 109.556600 -51.589504 122.477392
1514 3 146.501637 -45.228974 159.313157
1515 3 130.020906 -42.601758 115.652580
1516 2 -75.027741 78.685533 112.848268
1517 3 -85.216365 94.940437 134.081349
1518 3 -88.757276 50.608643 92.080550
1519 2 -102.203610 -4.580278 90.472251
1520 3 -123.661414 -16.977043 113.005071
1521 3 -135.710398 17.241366 110.025699
1522 2 74.967376 151.940218 173.951943
1523 3 79.120242 172.376615 151.059748
1524 3 86.994200 139.865204 149.162366
1525 2 -6.276658 142.994587 -31.968054
1526 3 23.350410 106.687936 -27.851632
1527 3 -0.263970 168.054874 -27.888881
1528 2 175.455622 130.670322 85.935895
1529 3 153.365354 60.280508 65.197686
1530 3 179.711255 96.712899 62.113116
1531 2 42.570391 167.572016 -2.074250
1532 3 37.466643 160.220091 -62.384940
1533 3 17.321019 181.951893 -59.222370
1534 2 57.250122 41.505749 77.292592
1535 3 38.121049 26.916236 29.727153
1536 3 16.559178 22.287823 17.973896
1537 2 183.483989 172.073411 45.640384
1538 3 156.086792 162.170116 38.670952
1539 3 170.035104 171.117853 31.782628
1540 2 117.655899 97.923989 -8.747620
1541 3 122.296673 86.760927 -18.273384
1542 3 139.502184 118.286022 -39.412241
1543 2 268.382068 31.642467 82.406713
1544 3 279.612553 10.961351 107.436636
1545 3 289.644247 25.670723 91.363451
1546 2 -57.899608 -25.479689 162.876951
1547 3 -26.992056 -13.841342 131.420500
1548 3 -48.149826 -3.992197 156.361887
1549 2 56.295079 57.046971 -135.793284
1550 3 46.946625 17.316146 -99.893732
1551 3 52.889834 40.689617 -117.606879
1552 2 4.737895 64.951180 77.743284
1553 3 -8.743726 9.772327 45.879813
1554 3 17.166370 41.985284 37.795309
1555 2 -26.152037 75.359729 0.594144
1556 3 -55.776345 93.120218 -5.259930
1557 3 -71.461927 68.138561 -37.549599
1558 2 -36.627858 111.492109 33.531887
1559 3 5.668017 79.800212 56.665588
1560 3 -19.065519 101.047572 79.573986
1561 2 187.219477 56.118658 8.279206
1562 3 203.426701 34.633992 -5.150562
1563 3 232.018746 21.066415 8.160112
1564 2 163.328126 113.962729 101.452918
1565 3 132.500685 144.367755 83.599760
1566 3 121.328239 116.073951 107.752198
1567 2 143.239163 -72.410942 -53.999098
1568 3 158.336153 -76.163679 -11.905519
1569 3 162.960504 -67.084220 -79.925342
1570 2 66.130788 162.376788 177.627295
1571 3 74.844303 178.075728 137.814501
1572 3 43.761465 173.802534 131.390820
1573 2 254.668045 112.699824 -19.859070
1574 3 236.976307 167.555291 -21.691270
1575 3 249.850275 153.379653 5.113177
1576 2 -58.225028 -7.468844 -112.958622
1577 3 -50.316325 -18.536394 -102.976655
1578 3 -57.460112 6.418170 -93.569376
1579 2 100.740971 108.504559 70.243872
1580 3 73.295472 139.948280 89.858243
1581 3 99.322996 114.871087 79.441585
1582 2 220.754219 12.938058 31.447405
1583 3 230.214717 22.201451 51.942623
1584 3 229.347077 27.848023 27.369005
1585 2 -49.359316 76.353557 137.478200
1586 3 -11.797933 59.300892 80.482143
1587 3 -33.824125 63.974898 127.641605
1588 2 -84.258043 204.008003 0.552480
1589 3 -54.716797 182.477095 16.017347
1590 3 -64.658672 203.226564 8.883383
1591 2 -104.560865 192.207563 -83.398584
1592 3 -68.775080 162.833555 -73.933034
1593 3 -90.012627 168.134422 -65.615902
1594 2 -69.667481 190.727107 147.901772
1595 3 -82.832919 193.674944 136.908503
1596 3 -87.427838 203.723576 170.868567
1597 2 -5.675334 109.421636 47.755198
1598 3 -30.462828 66.817373 67.083931
1599 3 -18.320296 94.070630 64.370186
1600 2 -102.217599 115.343149 97.674642
1601 3 -88.362403 130.749156 55.259253
1602 3 -84.825473 130.089830 39.395744
1603 2 21.943553 335.883835 114.839468
1604 3 9.465441 330.085286 156.085767
1605 3 12.826618 312.265135 107.014083
1606 2 -42.240093 -64.735645 53.274394
1607 3 -39.945709 -40.173607 21.674705
1608 3 -60.706360 -49.499181 28.814421
1609 2 17.582992 165.314043 53.101499
1610 3 16.013887 166.669414 72.854754
1611 3 30.221191 178.130190 46.510500
1612 2 80.168352 105.168648 112.785809
1613 3 70.021677 114.478877 44.576204
1614 3 82.165695 93.296877 90.768568
1615 2 4.755207 88.849798 -62.773995
1616 3 -18.641633 115.782393 -87.983827
1617 3 -17.572925 93.891189 -65.465216
1618 2 94.022377 -16.044929 -7.389287
1619 3 96.879329 18.307464 0.322751
1620 3 73.201320 8.430726 4.721255
1621 2 75.768571 -17.892869 37.788192
1622 3 71.667901 1.837827 45.403514
1623 3 80.145243 -23.345133 72.021373
1624 2 -27.985446 81.035918 -105.388129
1625 3 -29.725366 66.444397 -111.660700
1626 3 -8.542087 69.016962 -117.529243
1627 2 -91.981345 55.810829 80.769607
1628 3 -72.705385 15.518897 88.759650
1629 3 -62.261378 45.918939 65.241559
1630 2 -105.065357 265.832803 67.880589
1631 3 -105.656014 221.245039 36.658953
1632 3 -70.993979 195.783398 87.204410
1633 2 -115.393557 57.500169 138.888346
1634 3 -148.179843 40.222595 132.075591
1635 3 -133.999116 74.203325 141.393933
1636 2 78.438502 218.908961 28.387045
1637 3 53.391593 225.417596 30.059437
1638 3 51.689702 211.984444 4.984014
1639 2 -95.426218 111.288083 64.316496
1640 3 -99.061713 102.438536 54.241867
1641 3 -80.506859 99.150305 87.399661
1642 2 129.753611 133.912065 -65.018075
1643 3 125.513828 118.886956 -41.203825
1644 3 121.101678 103.360395 -63.065495
1645 2 143.623658 73.843676 163.743305
1646 3 160.712388 32.730193 167.175935
1647 3 150.389920 74.824546 180.704600
1648 2 -27.153537 255.645127 -101.142960
1649 3 -21.149954 263.822690 -91.943715
1650 3 -24.214237 261.330404 -98.549422
1651 2 22.629229 151.156042 -52.462314
1652 3 29.419141 153.921731 -62.231662
1653 3 65.675159 165.130664 -95.196080
1654 2 162.233001 57.150155 128.455105
1655 3 176.917000 39.613802 119.929209
1656 3 168.763495 55.418604 146.093993
1657 2 56.198650 -67.016356 -81.665625
1658 3 50.203122 -46.323105 -103.900062
1659 3 71.823734 -63.286160 -110.651806
1660 2 188.820129 94.342566 -45.676661
1661 3 194.485239 81.589703 -2.654559
1662 3 184.489165 84.395331 -79.844560
1663 2 -69.732816 61.943526 23.396461
1664 3 -63.727841 77.492366 6.000626
1665 3 -54.923015 83.439761 28.361180
1666 2 -125.818077 150.964939 168.724320
1667 3 -106.945482 175.109479 166.922602
1668 3 -130.034097 113.505202 137.319322
1669 2 15.119705 288.484966 63.808326
1670 3 13.111281 260.762265 33.574552
1671 3 -15.028004 285.636656 21.226431
1672 2 -25.377837 105.980936 78.282563
1673 3 -4.447896 131.722154 25.288499
1674 3 -37.647799 137.366509 115.895137
1675 2 -68.954885 133.915380 7.205821
1676 3 -46.858011 149.250048 -15.023996
1677 3 -60.304481 151.617857 -20.343981
1678 2 27.787428 135.158854 37.425754
1679 3 33.122622 134.548547 38.748752
1680 3 6.672518 132.699850 -16.657908
1681 2 -147.580213 118.576120 54.444485
1682 3 -151.851449 108.960588 42.590508
1683 3 -152.757519 78.438349 63.028127
1684 2 -109.658760 198.093035 257.753736
1685 3 -133.662184 171.768839 269.069126
1686 3 -123.712711 136.184376 244.005542
1687 2 34.898656 234.347102 -90.850164
1688 3 4.444921 257.806416 -74.663492
1689 3 21.145677 269.976928 -79.586282
1690 2 79.700811 36.777426 -49.706208
1691 3 80.137903 23.408924 -52.157155
1692 3 74.257534 25.423352 -67.675677
1693 2 3.140085 -0.066253 78.201648
1694 3 14.256157 38.028113 57.482238
1695 3 -14.680704 -1.872474 67.872069
1696 2 -2.469087 136.470863 -50.190307
1697 3 39.594852 135.290592 -21.241399
1698 3 -5.415405 141.293639 -66.171335
1699 2 227.762065 221.987844 21.485667
1700 3 205.853310 220.717298 22.407529
1701 3 222.776760 189.887115 13.771044
1702 2 88.820963 106.435005 45.311712
1703 3 94.696703 100.934574 41.080043
1704 3 78.625468 67.598064 19.003145
1705 2 -91.560220 -83.493892 40.659260
1706 3 -103.929843 -78.152171 23.003856
1707 3 -107.227838 -67.427738 46.428738
1708 2 -44.642440 -99.174260 102.749382
1709 3 -20.756773 -126.379643 151.174859
1710 3 -40.310249 -96.141720 111.592131
1711 2 -9.042068 -74.636409 -63.250086
1712 3 -7.221541 -87.408859 -13.963615
1713 3 -17.168405 -96.400444 -34.387915
1714 2 148.048404 76.429449 191.094101
1715 3 121.746609 75.173496 213.935581
1716 3 120.329786 73.125125 186.459249
1717 2 -40.983214 110.928616 140.957088
1718 3 -24.688625 120.310746 158.540778
1719 3 -7.488251 151.128355 185.612481
1720 2 -180.998211 157.052689 11.807702
1721 3 -141.791186 149.160206 32.278853
1722 3 -144.093569 123.430673 54.313471
1723 2 130.949148 -10.207854 24.743948
1724 3 160.161763 3.300966 6.167427
1725 3 156.267577 20.018080 30.802607
1726 2 18.280438 -95.161667 -17.748082
1727 3 52.378655 -99.634639 -57.877886
1728 3 57.691763 -60.301338 -61.854075
1729 2 28.126880 2.775844 -35.275088
1730 3 1.779715 -0.056853 -36.866793
1731 3 21.811918 2.728944 -52.868819
1732 2 127.617345 79.275862 90.702875
1733 3 102.028417 96.444536 95.657296
1734 3 92.102904 64.180289 52.955449
1735 2 67.193334 25.330018 55.312569
1736 3 72.132941 12.578521 15.001631
1737 3 39.688087 21.396981 14.813604
1738 2 18.398816 -39.254478 -23.278903
1739 3 37.669251 -35.384292 0.004879
1740 3 32.985609 -4.747247 -23.356096
1741 2 21.922041 -129.122283 -168.402276
1742 3 2.627970 -113.184833 -179.784978
1743 3 27.183901 -100.557858 -186.644480
1744 2 49.123228 -65.739675 93.101022
1745 3 30.940737 -80.231616 18.620824
1746 3 36.222771 -33.094796 58.123657
1747 2 -36.046254 -30.219693 176.105157
1748 3 -48.193186 -34.287078 138.554222
1749 3 -36.664870 -26.177885 127.281335
1750 2 19.767338 72.574513 130.518561
1751 3 24.432735 79.786882 95.760958
1752 3 12.665211 79.269435 102.627010
1753 2 -78.319229 -11.544070 -51.756992
1754 3 -94.672475 -28.456007 -40.299118
1755 3 -71.583854 3.536444 -68.779985
1756 2 -35.066356 91.088949 -13.432028
1757 3 -21.170886 41.642082 -3.757734
1758 3 -22.654760 71.065853 -24.775845
1759 2 30.008327 -66.324652 -17.988572
1760 3 10.438247 -71.098090 -17.767087
1761 3 15.015926 -44.024210 -18.451254
1762 2 75.980668 45.065697 77.025812
1763 3 66.579993 38.463197 58.375212
1764 3 81.392176 34.494901 44.920070
1765 2 2.847575 -67.345430 239.548971
1766 3 1.919192 -66.528192 209.152525
1767 3 14.526370 -100.345712 201.566358
1768 2 11.168617 49.881867 31.056232
1769 3 8.468445 49.026962 31.637293
1770 3 19.086209 35.571459 9.056135
1771 2 64.542529 101.309010 35.018897
1772 3 44.285855 53.994472 73.629616
1773 3 44.546393 104.214381 37.195332
1774 2 -21.079180 -55.126864 -85.315985
1775 3 8.455146 -13.889920 -110.034873
1776 3 -10.031652 -34.103251 -72.856321
1777 2 160.035566 124.589422 -103.394264
1778 3 169.343035 120.650486 -120.195028
1779 3 142.535904 170.690643 -110.206538
1780 2 -0.167711 70.612229 8.919581
1781 3 24.712937 59.278321 -6.011215
1782 3 20.231307 94.659013 19.192412
1783 2 -199.299327 152.079656 -35.970639
1784 3 -209.019121 182.216615 -29.624704
1785 3 -195.502990 139.399360 -42.432068
1786 2 66.266555 -52.144225 100.754437
1787 3 54.303560 -44.969057 95.238613
1788 3 82.673484 -52.718468 51.213593
1789 2 -83.904108 97.143454 107.669995
1790 3 -69.786283 70.097169 97.785730
1791 3 -54.929430 88.242821 68.026362
1792 2 124.409102 -11.112791 38.089280
1793 3 132.974389 3.883257 46.117656
1794 3 132.659605 -19.059197 21.826535
1795 2 -10.111196 137.323998 -33.567865
1796 3 0.984322 92.819378 -57.270155
1797 3 -16.600441 123.049212 -51.981531
1798 2 -18.782377 56.217083 211.434431
1799 3 0.416327 57.731840 168.313419
1800 3 4.427610 106.076374 139.751259
1801 2 57.987880 182.085752 87.402494
1802 3 36.906409 142.517789 71.732349
1803 3 66.007256 148.587156 75.691780
1804 2 113.041481 -99.701477 80.854295
1805 3 134.221667 -97.906360 47.686595
1806 3 121.385637 -66.337842 70.007750
1807 2 -36.264525 70.613978 9.699418
1808 3 -15.828139 66.708598 61.032467
1809 3 -43.186121 96.780163 3.254709
1810 2 183.210236 -10.686708 111.866646
1811 3 204.515614 -26.531453 97.358176
1812 3 177.733540 -35.043986 136.067981
1813 2 -91.327879 -127.601292 118.962145
1814 3 -134.495079 -106.196176 94.678077
1815 3 -124.103590 -87.388766 133.576713
1816 2 -0.303870 33.641927 18.841650
1817 3 21.995431 -3.888868 41.358744
1818 3 20.146070 14.576856 2.964871
1819 2 -147.920090 -10.356138 186.509180
1820 3 -156.729033 -21.469844 192.181055
1821 3 -133.950715 -10.906406 141.938941
1822 2 -9.740890 109.035682 163.952077
1823 3 -1.271858 114.699187 102.417759
1824 3 -35.821930 132.699067 126.708732
1825 2 -144.917997 -89.734612 75.787568
1826 3 -122.291981 -76.299172 75.600366
1827 3 -140.826818 -75.493033 96.083111
1828 2 230.503914 -172.751554 82.729789
1829 3 231.293387 -164.608565 92.119667
1830 3 242.758173 -148.293501 47.979386
1831 2 -66.140281 42.260782 62.261394
1832 3 -56.951552 54.455283 66.971104
1833 3 -67.983486 26.891756 46.124098
1834 2 129.308107 53.470524 117.924550
1835 3 125.315849 75.638880 145.422387
1836 3 139.372524 57.735854 114.913395
1837 2 78.098525 39.918465 -48.250145
1838 3 51.884864 25.690992 -32.232255
1839 3 63.079915 6.721209 -36.675615
1840 2 -134.937884 -108.228799 216.369806
1841 3 -110.060991 -91.912147 238.626108
1842 3 -125.838980 -95.530470 261.984550
1843 2 105.244666 10.136724 72.146628
1844 3 122.504512 1.804129 64.131125
1845 3 111.108531 -21.082458 62.368095
1846 2 225.009531 8.164869 19.479531
1847 3 220.391404 39.489043 70.057842
1848 3 225.436831 34.485422 20.444893
1849 2 -61.381740 27.376403 178.104457
1850 3 -57.775697 7.093724 197.164884
1851 3 -42.114358 32.527768 191.140987
1852 2 157.193243 109.600651 1.318235
1853 3 189.154719 57.129926 55.301083
1854 3 192.001911 96.600920 21.192324
1855 2 -121.309200 -119.895548 33.498143
1856 3 -105.671556 -148.418481 48.169093
1857 3 -140.404325 -150.736663 76.962357
1858 2 -7.894460 148.094659 76.863086
1859 3 4.232534 149.977725 79.425449
1860 3 -13.508507 185.344684 59.162708
1861 2 -251.256033 69.311606 85.194657
1862 3 -222.060661 85.109529 97.342211
1863 3 -229.770399 100.469862 79.845780
1864 2 2.542669 -37.128767 -2.582332
1865 3 11.359794 -48.066443 66.268153
1866 3 13.257129 -30.969287 -13.537724
1867 2 -85.194032 33.711312 24.504675
1868 3 -94.518251 45.752149 18.882807
1869 3 -91.662161 55.211567 46.214281
1870 2 -59.040009 235.763032 100.003867
1871 3 -15.588930 210.082266 84.041549
1872 3 -11.108490 251.053235 79.357109
1873 2 108.545958 32.647144 -2.898700
1874 3 96.940647 48.681523 -0.765753
1875 3 105.171282 27.868606 51.446311
1876 2 -122.806690 107.518348 120.005129
1877 3 -118.391558 64.915823 163.599788
1878 3 -110.776021 94.179531 163.229056
1879 2 -68.337174 144.083815 266.332625
1880 3 -52.206581 172.326624 248.392697
1881 3 -64.776013 73.390079 242.584649
1882 2 -35.857839 -74.393224 181.668352
1883 3 -48.986783 -45.193579 205.823742
1884 3 -46.778668 -77.197312 238.314735
1885 2 14.058714 44.893708 99.685916
1886 3 6.276077 30.467999 76.517698
1887 3 6.377207 50.932918 86.282350
1888 2 125.522369 8.965795 -45.229884
1889 3 143.614007 2.450012 -32.050866
1890 3 114.883533 2.871144 -50.957142
1891 2 -5.716979 2.632295 55.295158
1892 3 4.320032 -12.490757 82.624378
1893 3 -23.645312 -9.944541 111.187032
1894 2 257.925527 -40.588399 -159.266201
1895 3 267.818267 -84.887791 -142.006644
1896 3 225.281350 -54.181287 -127.125191
1897 2 -196.680163 -1.370560 137.796400
1898 3 -207.615338 5.967610 127.411282
1899 3 -200.819755 -8.482495 101.219338
1900 2 -63.382072 -80.069097 -133.046367
1901 3 -59.837673 -54.696370 -151.673225
1902 3 -45.563792 0.266384 -140.582429
1903 2 -113.579951 -2.383120 -11.427557
1904 3 -77.936484 18.962324 -23.066929
1905 3 -51.494786 13.470285 2.471373
1906 2 184.305557 -25.067550 107.177676
1907 3 184.626467 -2.732474 85.050443
1908 3 197.734414 -18.213178 87.805115
1909 2 75.307124 -76.774861 -78.878548
1910 3 79.921640 -79.152408 -89.810714
1911 3 80.086661 -118.346627 -119.699064
1912 2 7.840636 149.656687 1.575975
1913 3 17.318957 144.209668 -20.494280
1914 3 28.033032 148.218711 2.336311
1915 2 134.930461 107.356324 9.741087
1916 3 135.531397 119.598083 21.064391
1917 3 134.921698 128.482250 26.941626
1918 2 -8.886941 11.065878 115.287116
1919 3 -33.551167 -4.819992 85.251567
1920 3 -3.439190 6.230026 115.271635
1921 2 210.333704 171.829322 166.848712
1922 3 229.084157 179.023609 148.290126
1923 3 228.356556 195.999663 210.534006
1924 2 -3.063289 99.642080 113.833941
1925 3 -13.835878 87.686329 88.614112
1926 3 -16.162110 76.246633 117.321391
1927 2 -194.487449 46.068940 101.184759
1928 3 -160.650864 59.490182 64.311099
1929 3 -174.032701 62.682234 79.168703
1930 2 -105.249618 42.091342 57.336770
1931 3 -91.089424 37.599179 97.679356
1932 3 -111.890829 34.003419 68.037992
1933 2 -114.811083 17.288060 -69.672476
1934 3 -119.953078 35.949185 -59.414739
1935 3 -114.066917 66.859595 -29.297620
1936 2 -45.737084 93.738409 -96.479683
1937 3 -63.942748 114.336960 -85.798885
1938 3 -77.454337 113.974870 -85.537433
1939 2 92.883066 -80.289825 62.374890
1940 3 70.292346 -81.828696 -17.714491
1941 3 69.177665 -80.654796 0.216283
1942 2 196.029184 105.851913 -46.477378
1943 3 189.954300 104.273199 -67.015400
1944 3 216.077042 104.867876 -43.118666
1945 2 68.665996 185.364677 243.048470
1946 3 60.155312 199.470680 232.339975
1947 3 24.269258 235.976105 196.832550
1948 2 -101.863905 132.801529 -19.079037
1949 3 -100.492709 96.209995 26.737658
1950 3 -115.300009 122.113115 1.209224
1951 2 -49.883571 -26.535307 202.785832
1952 3 -63.034164 -19.291279 204.335518
1953 3 -40.324928 -30.977121 221.190153
1954 2 -67.394413 29.712431 105.418904
1955 3 -90.538762 30.907951 119.092212
1956 3 -61.260738 25.745490 95.361063
1957 2 226.845791 148.497041 134.947842
1958 3 206.848811 151.953522 150.047699
1959 3 215.531531 119.377218 168.838472
1960 2 -98.689876 148.978834 91.178362
1961 3 -57.969836 132.468380 119.557998
1962 3 -78.847132 125.140098 87.750138
1963 2 19.895176 132.547199 -32.587082
1964 3 32.698881 158.384523 -13.386189
1965 3 19.686009 123.859669 -3.706517
1966 2 69.340680 -24.874878 79.601691
1967 3 48.922310 -46.169063 119.952735
1968 3 62.833850 -55.354070 133.845693
1969 2 -84.291949 -22.480503 99.641392
1970 3 -155.623604 0.864409 89.336114
1971 3 -133.111053 13.027176 87.818502
1972 2 37.267620 46.850558 102.165634
1973 3 36.276445 107.433592 51.075124
1974 3 22.607438 89.758087 74.303426
1975 2 -12.106640 7.006950 247.923931
1976 3 -16.329633 27.326125 219.996271
1977 3 -0.446872 -7.101528 245.401876
1978 2 -103.463189 -99.574278 60.512775
1979 3 -122.616206 -108.790734 34.264131
1980 3 -97.515279 -100.741754 6.325359
1981 2 -39.084688 12.652972 253.989862
1982 3 -31.038550 16.347833 250.685693
1983 3 -37.767033 24.989402 247.332351
1984 2 20.469270 219.352455 87.219194
1985 3 10.516516 215.405758 102.436718
1986 3 25.217253 168.357074 77.903662
1987 2 -41.483799 93.570949 63.682319
1988 3 -33.333690 95.356928 125.648893
1989 3 -20.823844 82.092061 102.438175
1990 2 -12.782187 148.582169 174.645423
1991 3 -8.821470 194.825376 134.106065
1992 3 -31.942260 183.802224 129.604472
1993 2 76.692093 107.785662 104.155966
1994 3 78.566498 87.763559 74.910530
1995 3 103.699021 92.728670 44.673486
1996 2 25.004002 149.953124 83.197286
1997 3 25.501720 163.001395 108.949936
1998 3 54.409334 138.617304 96.433320
1999 2 263.405255 30.357041 34.974714
2000 3 287.674420 46.566960 40.714599
2001 3 267.602750 33.916776 39.381264
2002 2 52.672665 41.404011 214.507012
2003 3 53.764339 71.143821 204.129856
2004 3 47.000043 74.087750 238.038679
2005 2 42.689966 62.654611 103.361472
2006 3 45.625328 66.709252 63.514699
2007 3 58.245617 43.450255 73.812145
2008 2 76.506840 104.450200 14.124092
2009 3 61.478692 104.607404 -20.149057
2010 3 71.733773 116.176800 23.535072
2011 2 141.906632 -18.561782 104.608882
2012 3 182.698003 -2.147801 98.738716
2013 3 168.610627 -13.727196 96.647582
2014 2 -24.730620 115.853793 134.664894
2015 3 -42.581407 112.306071 69.622907
2016 3 -64.279458 128.019592 132.469406
2017 2 6.882925 49.432152 85.437856
2018 3 19.933009 73.306892 102.029663
2019 3 22.212556 37.984429 106.818411
2020 2 -50.878425 -66.237767 95.211627
2021 3 -37.100052 -20.740175 82.957644
2022 3 -57.711939 -23.117092 36.880666
2023 2 -27.626206 184.454670 116.279883
2024 3 -20.727045 155.490084 118.776309
2025 3 -43.617722 162.092635 101.277580
2026 2 -63.304386 200.152577 110.308490
2027 3 -65.702530 207.510447 103.017698
2028 3 -60.186295 209.763995 130.120410
2029 2 11.289090 284.560406 213.999922
2030 3 35.589463 272.607801 225.232427
2031 3 -7.595212 252.054696 187.253190
2032 2 -112.187827 64.010647 49.365231
2033 3 -117.491244 73.442731 79.808120
2034 3 -106.090056 67.714525 35.218303
2035 2 -91.411332 181.925529 90.020530
2036 3 -94.845076 187.612889 118.662702
2037 3 -106.922779 152.247132 121.941416
2038 2 -181.795141 121.308071 -7.310201
2039 3 -208.415091 127.562543 10.950991
2040 3 -180.105810 109.764165 1.437211
2041 2 35.816803 136.947061 4.174072
2042 3 28.782254 170.139427 9.170407
2043 3 48.983606 150.015781 20.830208
2044 2 115.265187 69.650836 122.727432
2045 3 94.035016 49.054687 113.546805
2046 3 113.462982 67.107927 125.815005
2047 2 5.080696 199.597499 -4.512357
2048 3 8.602710 203.014722 7.806415
2049 3 25.669310 179.668924 34.832394
2050 2 157.161272 11.276710 -91.641097
2051 3 131.598276 14.121264 -37.176330
2052 3 146.216939 27.892778 -47.120056
2053 2 -78.569657 214.755714 87.288153
2054 3 -106.530445 180.909305 95.794877
2055 3 -74.089312 200.050404 65.344031
2056 2 -218.654784 38.008085 131.668740
2057 3 -211.494303 -5.577603 105.727518
2058 3 -217.748098 -2.493682 76.622716
2059 2 -66.093181 182.079457 60.701711
2060 3 -60.401775 173.456728 21.767076
2061 3 -85.192935 159.975940 -2.936566
2062 2 -158.111309 13.895758 -26.064389
2063 3 -135.402208 29.243938 15.226423
2064 3 -137.635855 49.572697 -17.611920
2065 2 -21.247190 157.520950 -20.359766
2066 3 3.668245 154.457956 -47.375843
2067 3 -5.691615 152.485900 1.496192
2068 2 -97.967130 -69.456423 54.656613
2069 3 -125.220136 -35.241071 68.561942
2070 3 -81.734503 -84.905450 62.312602
2071 2 27.013014 177.158484 90.215985
2072 3 -7.994207 223.250438 69.269603
2073 3 30.846313 166.386690 72.501676
2074 2 28.969788 168.990849 74.415198
2075 3 64.945831 176.060583 89.919253
2076 3 65.360871 179.320944 79.813475
2077 2 -24.468190 221.208336 76.982584
2078 3 -44.800540 207.952770 111.109683
2079 3 -64.375132 195.717700 130.374185
2080 2 54.673163 200.632728 135.189070
2081 3 23.566630 190.443121 157.654043
2082 3 71.848002 202.006496 151.012881
2083 2 46.259607 177.993245 -65.960404
2084 3 87.814714 150.409359 -26.399080
2085 3 62.600957 164.306349 -45.664289
2086 2 -78.289451 150.018792 -83.687141
2087 3 -88.399268 134.309885 -38.941616
2088 3 -78.903976 150.180307 -74.267416
2089 2 -29.861901 -87.700386 1.962609
2090 3 -32.873161 -56.071134 13.941032
2091 3 -32.685631 -43.809788 41.755588
2092 2 82.734820 131.423207 -66.495615
2093 3 64.034727 110.326754 -75.022710
2094 3 80.455565 134.735050 -57.416500
2095 2 109.526194 127.987594 170.839663
2096 3 71.197494 174.153388 147.489266
2097 3 83.130635 124.897483 166.580387
2098 2 -120.628569 9.168375 0.889842
2099 3 -98.560733 -3.916472 -12.992259
2100 3 -105.543005 1.642135 -22.245108
2101 2 -8.814996 146.830461 61.862338
2102 3 -12.332107 179.251004 14.887810
2103 3 -14.331554 128.541980 42.291541
2104 2 91.475789 160.359697 12.381812
2105 3 116.651191 162.670170 40.438451
2106 3 105.280674 124.397711 -4.637798
2107 2 6.836198 32.810591 32.893642
2108 3 48.907535 87.730413 7.640151
2109 3 42.027344 31.265274 19.512152
2110 2 -270.272968 172.374548 -52.901686
2111 3 -247.113680 191.115272 -17.288745
2112 3 -266.613736 167.354747 -26.998623
2113 2 40.129256 169.115737 97.417194
2114 3 41.616948 150.785301 109.739089
2115 3 47.403731 125.634997 102.153742
2116 2 20.315762 111.113743 -23.726034
2117 3 56.473106 127.223047 -14.968588
2118 3 42.331085 108.235207 -10.669357
2119 2 11.592884 38.517765 93.902920
2120 3 25.755728 43.700255 91.903256
2121 3 25.887141 73.052182 113.292032
2122 2 173.215690 231.567759 -58.252880
2123 3 192.265902 244.121450 -14.269870
2124 3 211.174993 209.667798 -35.179891
2125 2 -21.086332 303.426824 -12.957106
2126 3 1.180621 287.772189 -12.570819
2127 3 -44.690421 281.354370 -36.678904
2128 2 142.017509 89.047751 19.856220
2129 3 144.116146 102.448791 -28.441889
2130 3 127.813648 103.023620 -59.244900
2131 2 165.873906 235.349126 74.518855
2132 3 176.623267 220.792590 94.950858
2133 3 176.186070 197.341350 113.797287
2134 2 -109.198367 -83.719227 102.203589
2135 3 -108.579301 -77.378296 105.330723
2136 3 -109.785783 -50.631330 80.171429
2137 2 -238.488234 200.008273 -26.106233
2138 3 -226.861176 209.741204 -30.595006
2139 3 -249.695844 191.881036 -25.494198
2140 2 28.433867 316.576796 38.321300
2141 3 42.958901 283.263511 42.975743
2142 3 39.204771 283.426714 -12.686899
2143 2 67.841094 231.031261 253.897492
2144 3 68.395768 233.688544 272.180843
2145 3 71.027753 234.981319 287.927138
2146 2 -29.495413 135.295275 -23.216887
2147 3 -28.980331 145.756841 -11.272062
2148 3 -25.271952 163.009530 -57.382129
2149 2 113.080749 54.688277 56.356443
2150 3 136.909938 57.452967 -5.816732
2151 3 98.343462 79.612132 46.298176
2152 2 54.746507 172.498098 109.992265
2153 3 47.362534 228.872982 89.791023
2154 3 62.153758 209.514995 133.540658
2155 2 34.845250 260.501922 60.004743
2156 3 57.618003 260.960864 26.550640
2157 3 60.700231 238.009222 53.569313
2158 2 89.377350 320.030176 105.046732
2159 3 59.594565 338.457251 78.510438
2160 3 91.155163 352.694755 123.188734
2161 2 96.518986 258.495717 -34.360330
2162 3 84.615764 297.925245 -55.609357
2163 3 97.343907 254.793276 -29.310988
2164 2 63.197367 102.044274 164.637513
2165 3 56.694657 109.419925 139.337064
2166 3 69.058049 138.678859 81.413867
2167 2 178.678014 37.504498 9.299838
2168 3 181.264443 -9.927856 15.503626
2169 3 148.772296 15.211056 -18.161707
2170 2 -29.030534 106.877510 -36.851225
2171 3 -34.853144 81.672099 -38.542777
2172 3 -9.357055 111.030264 -8.699599
2173 2 -20.489235 -96.919701 -60.774981
2174 3 -47.183820 -68.756532 -115.008867
2175 3 -38.679838 -79.463792 -78.690202
2176 2 -65.320611 -7.641736 117.283694
2177 3 -70.034277 16.661505 113.158543
2178 3 -82.016971 -16.977366 161.970907
2179 2 -98.798756 137.450877 25.324508
2180 3 -105.345298 118.297091 34.714913
2181 3 -106.005123 119.955901 62.922634
2182 2 -28.577262 17.640633 52.304528
2183 3 -29.061227 11.860921 37.981967
2184 3 -42.210057 31.113043 61.195825
2185 2 -161.294027 -89.856497 75.613162
2186 3 -114.710103 -110.024136 9.106934
2187 3 -118.703988 -109.850899 58.810363
2188 2 8.818558 -21.699904 73.295224
2189 3 -0.947847 -20.520458 55.674724
2190 3 1.682425 -81.298234 91.641348
2191 2 140.634457 -25.352870 28.163391
2192 3 140.371093 -42.624078 67.299180
2193 3 139.019064 -40.851847 64.431556
2194 2 246.562029 -32.795990 100.774900
2195 3 208.291972 -56.460926 58.256170
2196 3 215.271989 -59.784279 118.765146
2197 2 148.372765 -87.202977 92.868997
2198 3 147.660545 -96.289818 89.127176
2199 3 144.317735 -123.973504 97.899504
2200 2 -63.800473 -96.252658 49.176894
2201 3 -36.738353 -149.206230 -15.379819
2202 3 -57.566133 -85.941858 42.088835
2203 2 48.744418 67.708682 73.895459
2204 3 64.131535 95.901637 57.369717
2205 3 23.561785 56.852257 51.547066
2206 2 180.123358 -100.252427 138.196092
2207 3 209.894929 -46.183446 187.275627
2208 3 168.948224 -46.172993 191.151080
2209 2 269.520244 -2.335192 75.164411
2210 3 293.075859 18.469696 80.814061
2211 3 275.816487 3.297071 95.207946
2212 2 -203.929139 56.763529 104.616032
2213 3 -182.007972 53.662106 69.379210
2214 3 -184.582790 42.582507 142.391470
2215 2 -12.068272 90.460898 -1.450586
2216 3 4.967549 95.770454 -32.587359
2217 3 11.390719 89.296151 18.747756
2218 2 -163.378983 -138.161382 1.299469
2219 3 -139.320268 -149.979428 20.020427
2220 3 -169.799450 -131.055599 17.712488
2221 2 60.824589 20.005390 40.948399
2222 3 64.744833 25.752600 28.654431
2223 3 42.813624 18.759847 55.672055
2224 2 -71.366753 -47.363747 125.570962
2225 3 -94.074916 -19.503543 168.320329
2226 3 -88.337950 -54.406379 146.040898
2227 2 106.840536 -102.902670 106.241195
2228 3 139.424080 -96.449219 137.625888
2229 3 110.487942 -102.649435 86.806485
2230 2 31.093708 93.432415 124.608151
2231 3 53.618575 82.186635 75.195678
2232 3 57.218484 118.620417 123.149432
2233 2 -184.557055 -19.196572 162.335873
2234 3 -153.225381 -18.038298 211.894322
2235 3 -198.134208 -15.743451 199.341412
2236 2 115.122881 -26.100328 33.137960
2237 3 112.730389 -45.078201 24.365409
2238 3 139.672899 -0.973466 36.568873
2239 2 34.210073 -15.296430 72.494359
2240 3 50.550117 -58.092270 75.676322
2241 3 34.306916 -81.960282 76.255383
2242 2 135.629074 -17.291680 -64.975931
2243 3 159.075648 -15.544986 -30.844870
2244 3 162.870629 -27.742759 -33.298488
2245 2 217.218016 -46.985791 137.977522
2246 3 199.830525 -50.430763 145.897851
2247 3 215.627162 -38.300340 154.291844
2248 2 -34.810678 -129.454497 -48.514591
2249 3 -14.571266 -70.554773 -101.022442
2250 3 -45.262942 -109.986810 -61.215553
2251 2 -123.831180 -52.780828 -2.091380
2252 3 -102.516114 -80.352003 -12.509827
2253 3 -133.961302 -54.284593 4.081801
2254 2 8.233070 120.399592 76.812625
2255 3 -9.164971 96.947653 40.429998
2256 3 19.692188 126.655912 33.731739
2257 2 -130.463344 77.516297 70.546554
2258 3 -116.117609 76.376344 56.189654
2259 3 -93.097213 106.935765 80.573566
2260 2 6.969733 30.022245 86.883917
2261 3 8.954878 56.652652 60.079547
2262 3 10.078505 26.343060 81.490349
2263 2 6.065003 99.710515 120.432065
2264 3 32.550602 98.736209 111.455283
2265 3 -3.818864 87.224111 93.480602
2266 2 -71.881222 70.367144 -75.949697
2267 3 -66.688608 68.048441 -47.529490
2268 3 -62.594859 70.301203 -50.268561
2269 2 36.026790 57.025396 94.087055
2270 3 34.453294 62.391463 69.424242
2271 3 26.815370 9.655206 110.046660
2272 2 54.427101 71.886633 21.586196
2273 3 65.794725 72.672239 52.016499
2274 3 50.327630 76.057279 48.000417
2275 2 14.335124 23.836939 49.781008
2276 3 20.783507 5.475458 59.506796
2277 3 -6.266553 -30.509167 82.636321
2278 2 -66.299263 11.595742 -42.675723
2279 3 -76.232714 25.490704 -36.721412
2280 3 -68.210583 -6.371257 -47.866899
2281 2 16.746968 -58.350545 5.113626
2282 3 -4.370901 -41.037241 21.556537
2283 3 7.555546 -79.663675 -22.254436
2284 2 31.446199 141.273858 -30.439403
2285 3 38.116997 140.435638 -51.445938
2286 3 43.329269 140.841615 -59.233709
2287 2 197.993156 149.877985 -42.862870
2288 3 225.289657 129.943534 -50.287488
2289 3 185.563966 131.239639 -5.534151
2290 2 -200.848916 202.749301 -111.901541
2291 3 -159.668613 218.768611 -99.987171
2292 3 -174.907317 199.689606 -155.554637
2293 2 21.167544 -65.463056 133.396273
2294 3 -1.473218 -90.970226 89.622065
2295 3 -9.463227 -66.049531 121.377338
2296 2 -55.936147 -15.975666 158.592073
2297 3 -43.560836 -36.759652 138.229398
2298 3 -65.446894 -21.800507 117.388915
2299 2 -188.044857 -135.156407 131.313618
2300 3 -189.305570 -142.354586 156.831428
2301 3 -157.578271 -151.662832 143.915471
2302 2 14.716710 -58.610105 -57.934071
2303 3 3.304356 -46.270308 -42.601469
2304 3 12.873531 -43.160302 -74.629107
2305 2 -33.809095 85.717366 198.489108
2306 3 -26.227917 116.895598 204.009624
2307 3 -5.086034 111.688974 226.617376
2308 2 62.332910 226.290687 67.970786
2309 3 85.257429 263.425037 95.019240
2310 3 81.194598 202.879359 108.137285
2311 2 27.193473 26.539913 -21.127266
2312 3 32.691758 27.421010 -27.757989
2313 3 38.602029 33.162891 8.133523
2314 2 100.136263 -151.996094 136.680809
2315 3 70.427137 -151.687675 137.478219
2316 3 91.353438 -146.223301 141.142593
2317 2 60.129451 72.868287 -209.294357
2318 3 99.396102 61.403941 -184.473266
2319 3 73.996162 55.119988 -211.305577
2320 2 -16.817943 11.859806 -129.602713
2321 3 -3.421783 -8.685316 -114.976401
2322 3 5.965637 35.230892 -121.397831
2323 2 17.964469 92.014152 115.856028
2324 3 22.026656 52.359547 94.446430
2325 3 17.694471 64.487343 92.586404
2326 2 97.907473 137.556752 22.503070
2327 3 112.345370 133.883489 33.077069
2328 3 119.614041 143.631617 39.006007
2329 2 -160.089159 259.127546 -53.672198
2330 3 -184.138161 239.096906 -34.307336
2331 3 -182.153026 273.731018 -45.328689
2332 2 -38.065584 135.439123 151.515035
2333 3 -49.548531 141.720332 191.741313
2334 3 -60.241247 116.538001 147.288529
2335 2 43.442043 -162.846525 31.368534
2336 3 35.132174 -132.498151 40.106281
2337 3 14.496548 -146.878971 44.047324
2338 2 137.883439 187.936649 90.069496
2339 3 172.408985 151.894271 90.395852
2340 3 158.874194 155.841941 59.093321
2341 2 111.514669 107.161275 156.305656
2342 3 127.527557 83.747172 142.606801
2343 3 82.211094 109.415052 157.250818
2344 2 -72.341202 121.735722 -0.046590
2345 3 -75.142870 142.826709 44.795701
2346 3 -65.167009 92.777346 50.556230
2347 2 -36.548441 170.134637 -60.164967
2348 3 -60.006607 143.794462 -70.058560
2349 3 -64.651443 138.111374 -52.504984
2350 2 42.141925 17.911914 13.102596
2351 3 39.266119 -14.273778 40.485035
2352 3 25.918744 -5.164149 47.485798
2353 2 6.175363 272.103962 132.416994
2354 3 -14.501863 243.041794 151.489839
2355 3 -4.953798 278.088429 141.080881
2356 2 -37.394598 -16.653910 186.408304
2357 3 -37.503133 -68.990473 207.744696
2358 3 -36.232844 -46.095413 198.017187
2359 2 -132.645595 4.263120 102.937866
2360 3 -127.982099 -17.834812 139.258838
2361 3 -138.939175 -7.704720 93.861745
2362 2 -63.585603 91.608517 82.704381
2363 3 -52.586275 61.871260 68.821996
2364 3 -74.402253 95.440620 66.660451
2365 2 91.557893 45.126674 -50.463628
2366 3 47.999114 61.980944 -46.970846
2367 3 55.133016 30.060667 -38.157118
2368 2 127.823705 100.082396 178.443858
2369 3 84.067524 120.830489 209.351822
2370 3 118.380881 133.270171 192.031559
2371 2 -142.165389 -0.253416 148.663340
2372 3 -137.460246 0.624181 193.818645
2373 3 -133.485700 -15.206500 190.098114
2374 2 -95.689101 59.324911 52.362612
2375 3 -59.382789 31.616868 93.377646
2376 3 -77.495177 30.161553 106.525370
2377 2 155.308583 194.387477 264.349803
2378 3 184.150840 158.119725 229.218387
2379 3 151.105468 186.008731 229.176446
2380 2 90.889803 154.018948 -72.749089
2381 3 101.178242 147.292930 -39.698570
2382 3 80.576431 156.525237 -74.512520
2383 2 16.006649 107.627036 -12.668627
2384 3 18.292454 104.357066 21.105984
2385 3 -7.378345 99.464456 32.684802
2386 2 -176.882037 -9.606491 342.325640
2387 3 -176.276811 34.669017 299.306647
2388 3 -168.866007 18.834419 315.934639
2389 2 -219.463288 10.862563 161.960989
2390 3 -186.026642 7.287338 115.105578
2391 3 -195.768227 47.905295 156.124552
2392 2 -165.596791 128.015965 169.999141
2393 3 -141.435482 125.356630 144.707115
2394 3 -152.093601 88.678788 112.676308
2395 2 42.385739 137.388730 67.108468
2396 3 27.763220 120.091911 69.244153
2397 3 14.714209 98.485703 34.672460
2398 2 -34.230220 103.473195 40.702091
2399 3 -16.066097 69.302779 61.406281
2400 3 -29.522593 60.780638 50.790513
2401 2 -7.882378 166.601998 -16.517382
2402 3 -3.671501 180.584101 -13.271952
2403 3 1.875558 182.484150 19.054466
2404 2 -20.300260 179.822442 95.200279
2405 3 -3.376304 225.864161 72.037213
2406 3 10.836942 184.638140 59.070145
2407 2 184.652695 190.446511 54.010989
2408 3 192.794959 209.734788 54.707288
2409 3 163.887687 171.251757 10.728243
2410 2 230.434868 -24.273009 40.742441
2411 3 236.223267 -46.609599 60.341321
2412 3 251.683342 -38.294555 61.086674
2413 2 61.929872 98.691395 -9.643442
2414 3 83.450522 104.310442 41.410310
2415 3 49.952025 99.970037 20.931243
2416 2 -112.871280 153.940265 -23.941440
2417 3 -114.769092 116.574400 27.380451
2418 3 -123.855633 135.716510 37.450984
2419 2 -22.689338 192.864312 143.448873
2420 3 -12.860069 195.913379 116.716368
2421 3 -9.993857 171.921156 88.948407
2422 2 101.246782 140.840391 138.026908
2423 3 143.323936 152.734915 116.130682
2424 3 123.482856 163.386672 125.956419
2425 2 -90.553170 281.956216 -4.619074
2426 3 -97.263895 285.740714 -58.030998
2427 3 -82.421235 275.191344 -25.506579
2428 2 -126.048631 24.738798 206.807034
2429 3 -150.206574 36.917565 243.324323
2430 3 -156.578272 32.112019 216.487546
2431 2 -107.402448 36.863575 164.212662
2432 3 -102.842150 4.068038 129.891470
2433 3 -64.529338 31.729678 142.804438
2434 2 38.216342 253.074325 -59.907603
2435 3 56.584072 278.036673 -48.624466
2436 3 28.205749 304.002671 -71.696510
2437 2 86.803961 155.569085 176.926739
2438 3 59.204333 144.756133 194.540735
2439 3 74.669847 164.927079 178.605107
2440 2 168.667594 105.393063 142.430717
2441 3 176.039525 101.659180 105.480237
2442 3 172.057103 103.415822 178.520174
2443 2 233.217562 59.099241 -188.799863
2444 3 218.194930 45.865733 -192.165623
2445 3 224.379446 63.484917 -188.152299
2446 2 164.807905 86.026013 136.973260
2447 3 184.587593 76.075752 138.072198
2448 3 146.810764 53.547021 139.531840
2449 2 0.230130 8.493207 -49.591023
2450 3 10.672566 15.893947 -67.351803
2451 3 6.250004 -3.306071 -45.731444
2452 2 72.831412 165.520137 138.622567
2453 3 51.750736 180.634472 125.271832
2454 3 77.516262 193.653946 160.997357
2455 2 250.732532 93.550271 142.350867
2456 3 222.979829 144.523538 139.212229
2457 3 251.086214 81.008079 132.238511
2458 2 110.348662 134.531244 188.317375
2459 3 109.752317 113.651589 205.800880
2460 3 103.579029 101.864133 250.980718
2461 2 249.218661 141.410354 228.175698
2462 3 266.768462 171.697957 206.336460
2463 3 225.295437 156.086548 192.235709
2464 2 -76.813252 255.561366 76.762898
2465 3 -52.297029 258.375770 74.080299
2466 3 -88.500716 221.413031 116.336908
2467 2 -177.668799 80.058959 86.367426
2468 3 -146.587128 102.217899 81.249642
2469 3 -139.257201 90.071843 74.643828
2470 2 -42.627004 130.840496 43.212298
2471 3 -50.854533 143.110756 30.480326
2472 3 -43.429591 152.889604 48.810743
2473 2 18.382613 173.572919 22.108706
2474 3 13.526610 162.661245 3.601741
2475 3 13.229278 200.198661 15.311622
2476 2 -7.000543 -94.282723 -70.590966
2477 3 -17.320906 -53.941098 -118.043539
2478 3 -1.737101 -59.447686 -85.247133
2479 2 1.385440 144.490012 63.843680
2480 3 3.452329 181.324154 20.963860
2481 3 -26.565841 136.265795 24.286315
2482 2 42.361895 40.298990 -14.463650
2483 3 53.544551 21.998402 -45.000267
2484 3 54.825027 69.745327 -56.768766
2485 2 85.799827 340.730474 -115.673996
2486 3 75.582510 307.235102 -135.974665
2487 3 55.897350 334.874848 -142.889448
2488 2 -11.504077 116.065756 47.268098
2489 3 -43.396856 140.834819 18.218318
2490 3 -1.267127 162.576648 37.954547
2491 2 77.578060 129.239895 -35.342621
2492 3 93.051126 152.054934 -34.536318
2493 3 75.788772 122.989718 -2.641181
2494 2 16.814006 210.520788 126.238878
2495 3 19.100129 209.169690 115.193916
2496 3 -13.595054 237.837976 117.557287
2497 2 24.951707 101.460034 37.373704
2498 3 42.043097 85.833382 50.921850
2499 3 48.948344 77.051597 51.212352
2500 2 -127.788988 33.296389 157.762770
2501 3 -91.743063 61.988610 174.748790
2502 3 -121.897761 37.722727 226.134753
2503 2 -18.735462 101.753591 51.139364
2504 3 -11.478160 106.805959 45.118045
2505 3 -13.582279 137.451987 79.749466
2506 2 -2.455378 100.604390 149.828188
2507 3 13.941991 165.367592 188.119646
2508 3 15.484764 122.679946 144.232011
2509 2 -105.796644 198.832875 49.973759
2510 3 -126.707273 177.861941 25.336072
2511 3 -120.900695 190.598919 9.031419
2512 2 -65.651664 209.272577 107.786287
2513 3 -71.701152 283.273394 140.312154
2514 3 -64.733688 231.737105 126.049055
2515 2 -25.631707 133.286622 -74.806299
2516 3 -18.895664 141.569231 -67.880482
2517 3 -35.532622 126.704223 -88.284378
2518 2 24.671851 79.637044 123.081566
2519 3 41.699995 87.659630 167.874157
2520 3 40.018567 114.625051 168.801024
2521 2 -124.448336 265.390814 199.533974
2522 3 -87.785242 282.974356 171.628123
2523 3 -109.629870 295.512599 179.897927
2524 2 71.931222 188.513074 120.510180
2525 3 91.505604 181.545498 115.192735
2526 3 71.921614 158.281393 109.865428
2527 2 -16.202238 281.613755 61.875444
2528 3 5.697140 279.584165 34.243347
2529 3 25.946094 315.343668 67.330465
2530 2 208.689618 224.821816 105.866072
2531 3 210.497924 215.135851 82.793166
2532 3 231.074370 225.879867 90.831345
2533 2 132.827671 91.349900 -22.119563
2534 3 125.625062 74.866145 -22.066542
2535 3 105.685425 71.328629 -6.714978
2536 2 128.688695 288.525713 35.766114
2537 3 125.695291 272.195020 63.351771
2538 3 152.209811 282.707368 65.176674
2539 2 33.571357 207.605473 167.189358
2540 3 36.207706 247.888813 153.984042
2541 3 46.349254 191.124805 148.593085
2542 2 -73.433954 -57.263310 62.954214
2543 3 -75.789292 -64.499621 13.672893
2544 3 -48.895497 -58.564416 62.470816
2545 2 -66.773238 32.539376 5.660415
2546 3 -76.534568 33.804094 5.290312
2547 3 -87.353444 39.155949 17.246776
2548 2 -49.094461 -153.728683 214.546647
2549 3 -50.433981 -138.840116 219.583838
2550 3 -40.657842 -155.434345 192.287853
2551 2 -99.847711 67.403095 36.779117
2552 3 -93.809433 63.468219 27.421722
2553 3 -92.024249 77.591038 45.622859
2554 2 47.676862 21.573725 6.554733
2555 3 23.617987 -14.298185 -42.914733
2556 3 32.060682 -45.074066 -4.020618
2557 2 -134.492047 -118.606225 106.359637
2558 3 -144.551904 -92.925155 152.629676
2559 3 -159.142996 -87.958364 151.493603
2560 2 216.625387 -12.251137 85.577752
2561 3 213.874073 -13.240081 73.601924
2562 3 189.523413 0.365788 72.287534
2563 2 76.519491 -89.870569 -39.615339
2564 3 71.299429 -63.342674 25.276043
2565 3 34.624346 -72.739066 -38.411419
2566 2 22.777604 18.152639 74.692887
2567 3 8.722281 52.818082 80.839271
2568 3 20.129625 26.351052 90.231955
2569 2 98.802949 -28.992753 248.267226
2570 3 91.472727 -49.831935 224.505337
2571 3 87.220045 -46.822209 237.647207
2572 2 86.379860 97.718153 69.493768
2573 3 98.540547 84.573989 48.184286
2574 3 108.656736 56.563311 52.685072
2575 2 143.958680 196.264355 47.168839
2576 3 138.903799 164.317797 40.764101
2577 3 130.642770 215.571591 52.527416
2578 2 159.139147 -71.112398 108.254611
2579 3 172.682652 -90.872607 80.458086
2580 3 180.089611 -101.962126 40.006660
2581 2 13.192551 83.527083 205.125197
2582 3 10.823542 78.683838 222.048490
2583 3 -15.501915 94.485943 196.464161
2584 2 -40.456967 -56.095773 -9.245876
2585 3 -53.038614 -26.092589 19.889214
2586 3 -30.771530 -92.838879 -0.151806
2587 2 -224.124110 -4.663129 238.725009
2588 3 -229.356472 -21.238108 258.256638
2589 3 -227.608448 -0.826499 253.235850
2590 2 -28.692092 -29.712250 40.372442
2591 3 -43.949404 -31.847114 45.675576
2592 3 -16.290760 -18.874807 82.100382
2593 2 -172.059090 43.065684 79.800158
2594 3 -188.810889 24.298186 45.465242
2595 3 -179.859554 37.540819 51.816388
2596 2 -36.881823 4.205977 157.841199
2597 3 -41.753688 -2.474015 150.684615
2598 3 -35.876802 -16.917803 170.999999
2599 2 -56.847146 67.695937 150.813288
2600 3 -107.337716 106.656455 114.804640
2601 3 -86.641889 118.812470 124.089916
2602 2 26.778744 -43.333426 0.794080
2603 3 30.809405 -53.870192 14.421684
2604 3 25.336742 -56.951561 1.307331
2605 2 77.555967 -68.163877 186.016316
2606 3 82.495472 -58.987711 225.044662
2607 3 114.068627 -49.438106 181.633109
2608 2 18.204755 41.042168 221.185687
2609 3 5.279432 58.255438 235.538692
2610 3 31.587241 35.294920 197.470850
2611 2 -14.977637 67.546171 83.373255
2612 3 -54.277733 12.105472 67.532677
2613 3 -18.070850 27.168085 70.302784
2614 2 95.585018 197.386066 62.045813
2615 3 69.728370 140.935638 70.832699
2616 3 67.077080 138.112066 2.229413
2617 2 34.901936 19.092941 41.989191
2618 3 35.994716 -26.288036 22.266113
2619 3 28.272472 -17.463443 -13.794044
2620 2 -163.875192 57.275400 114.233439
2621 3 -151.713679 29.468141 108.613367
2622 3 -151.043340 -5.928975 112.370138
2623 2 -100.566623 -4.809435 82.519739
2624 3 -112.460718 -14.347842 118.406416
2625 3 -110.953909 -55.047475 63.151260
2626 2 -98.329415 -176.043296 74.060565
2627 3 -115.295880 -164.759513 84.639832
2628 3 -84.497921 -173.844529 58.133845
2629 2 -42.378055 95.962514 -51.186876
2630 3 -47.361647 110.218925 -33.003916
2631 3 -43.642939 120.320614 4.405549
2632 2 165.846975 152.579224 54.728439
2633 3 146.095795 160.228408 18.872437
2634 3 151.982647 161.862701 55.643157
2635 2 92.929655 -46.088168 111.229905
2636 3 102.924177 -26.766983 85.457470
2637 3 109.071729 -3.588675 117.366606
2638 2 -75.836695 -36.391066 303.301648
2639 3 -58.715587 -6.900677 285.064390
2640 3 -67.546431 -17.728648 303.267716
2641 2 23.144806 39.926717 95.286541
2642 3 5.919704 -10.124096 151.354108
2643 3 7.894176 31.091925 139.377611
2644 2 50.629815 68.385942 225.533891
2645 3 61.662762 60.353713 219.143598
2646 3 59.870682 82.559296 247.344603
2647 2 121.302498 45.754871 72.773636
2648 3 121.146776 37.168812 36.738589
2649 3 136.929597 65.581147 74.442354
2650 2 -219.661673 100.121798 36.863656
2651 3 -197.611943 67.400552 69.748771
2652 3 -191.465524 78.542906 55.046207
2653 2 139.856359 37.036183 96.890037
2654 3 122.947798 45.257799 139.222119
2655 3 105.385450 44.292759 82.855657
2656 2 27.839380 -11.472459 164.904371
2657 3 28.465762 39.914624 144.895590
2658 3 22.538607 30.556791 127.267533
2659 2 -19.337778 -53.520349 -35.941499
2660 3 -12.421464 -88.695719 -19.989856
2661 3 -31.773467 -42.842328 -39.670865
2662 2 49.021641 10.355226 4.864131
2663 3 44.921259 15.239392 19.130826
2664 3 43.567998 22.075014 29.454327
2665 2 -139.917877 -156.086624 202.693463
2666 3 -146.640545 -132.428667 199.236846
2667 3 -131.593374 -99.571974 168.994435
2668 2 -1.255450 115.161321 148.124614
2669 3 2.319545 102.207180 141.084719
2670 3 -12.511376 88.455240 111.226593
2671 2 82.926790 -46.242066 78.203456
2672 3 67.103980 -34.074990 43.463283
2673 3 76.564417 -58.047417 63.353044
2674 2 -1.199308 21.382889 -75.466594
2675 3 -2.759906 -0.474015 -11.880339
2676 3 -12.940984 40.307959 9.471085
2677 2 236.848052 -2.948295 -20.981751
2678 3 215.210597 37.669719 -2.871590
2679 3 201.323394 40.393151 6.502841
2680 2 239.662890 71.917202 162.515205
2681 3 205.441281 69.903322 174.183595
2682 3 233.568187 46.969756 176.006643
2683 2 104.592475 -2.073505 -0.310516
2684 3 97.704891 -18.160328 57.880415
2685 3 94.928810 -18.980204 22.249172
2686 2 38.719241 1.751459 188.199893
2687 3 29.998627 -23.123736 178.667696
2688 3 47.039677 7.553132 176.985415
2689 2 160.037292 73.645651 -9.366211
2690 3 175.526491 87.412385 -27.931168
2691 3 150.154165 80.322521 -25.745843
2692 2 145.230682 -67.809237 106.490893
2693 3 121.343337 -51.131407 48.655831
2694 3 121.442868 -60.156951 81.007472
2695 2 -154.268851 -32.362467 177.761864
2696 3 -154.275285 -50.257115 177.145631
2697 3 -165.180349 -38.269700 161.454683
2698 2 190.772479 27.299501 -6.909111
2699 3 168.266263 50.710432 27.903792
2700 3 180.307495 19.262721 60.978708
2701 2 3.909090 149.985570 174.239559
2702 3 18.114580 166.822141 165.998466
2703 3 7.936685 163.421064 111.621376
2704 2 76.545442 123.840276 236.904378
2705 3 47.858984 138.324014 200.720937
2706 3 46.768780 136.861202 193.607945
2707 2 -30.399597 -27.432843 99.094105
2708 3 -75.503528 -28.403252 128.800087
2709 3 -34.045324 20.371060 130.072186
2710 2 13.163472 9.706378 189.827132
2711 3 -7.003380 40.913990 151.504647
2712 3 -16.145782 14.155316 182.458731
2713 2 -187.099322 30.590563 45.123616
2714 3 -202.413024 29.099213 31.504236
2715 3 -193.731524 17.979945 63.089604
2716 2 30.308120 46.932222 161.870345
2717 3 35.983243 54.560132 122.018037
2718 3 20.878996 50.282781 168.533816
2719 2 -40.781303 47.092569 20.988074
2720 3 -77.859064 45.804870 7.329293
2721 3 -21.056283 25.721042 47.076721
2722 2 -188.994582 217.515595 -46.695242
2723 3 -191.974577 238.217596 -13.492462
2724 3 -158.390941 189.698354 0.662298
2725 2 -105.563502 210.920068 -43.292956
2726 3 -119.184212 217.327473 -36.009748
2727 3 -95.198499 221.344551 -43.996041
2728 2 -124.974447 112.483474 115.273009
2729 3 -120.050237 88.978199 130.037654
2730 3 -89.224312 95.835239 75.384531
2731 2 -56.468087 228.344360 8.897719
2732 3 -61.778702 252.785885 8.309974
2733 3 -37.989791 255.300415 -24.335015
2734 2 -117.826217 196.318877 -53.447770
2735 3 -91.876446 166.285095 -74.799315
2736 3 -112.889633 186.570514 -35.579172
2737 2 110.488984 118.245373 198.278537
2738 3 142.315592 124.207353 242.381514
2739 3 126.372569 150.485366 233.314835
2740 2 -151.827859 -107.463545 144.902270
2741 3 -132.229215 -90.964190 172.015591
2742 3 -164.238648 -99.866131 177.733208
2743 2 99.235198 -64.212207 -122.561840
2744 3 105.361329 -27.824733 -116.542934
2745 3 85.147711 -63.726286 -163.524342
2746 2 179.462681 78.963490 173.188853
2747 3 173.917261 92.022910 164.925738
2748 3 162.727818 91.864717 234.373226
2749 2 -177.858754 75.994067 162.930092
2750 3 -159.310494 85.150649 153.500302
2751 3 -173.373763 69.043999 147.000849
2752 2 47.186605 174.773814 97.392340
2753 3 52.918918 137.786299 105.849392
2754 3 39.342495 152.201929 104.804129
2755 2 89.781768 130.416327 95.711328
2756 3 52.930599 138.219066 98.501712
2757 3 84.417970 169.654091 97.770849
2758 2 -75.159293 112.363041 139.487713
2759 3 -50.993036 87.428859 161.818219
2760 3 -60.313201 99.252379 101.838559
2761 2 -23.797432 69.063396 159.751174
2762 3 -4.455212 49.297372 131.640260
2763 3 -19.176159 72.487412 140.846867
2764 2 47.934876 180.537089 138.741451
2765 3 40.297425 152.338190 158.076643
2766 3 59.836976 165.341304 210.349802
2767 2 -12.824989 217.178015 -21.285434
2768 3 -30.541515 186.716961 -20.875930
2769 3 7.378327 208.471570 -15.151140
2770 2 -5.466767 71.357642 85.828825
2771 3 -23.392798 45.945879 72.710987
2772 3 2.326915 67.093700 63.678135
2773 2 -4.803668 156.863897 138.539820
2774 3 -37.807687 121.208658 168.541667
2775 3 -29.315075 126.319327 144.580352
2776 2 8.709845 104.417001 75.384153
2777 3 -25.739777 118.708906 128.814120
2778 3 -3.287671 117.705895 108.709685
2779 2 58.723250 125.734874 48.586072
2780 3 57.771478 181.714722 -33.737612
2781 3 52.952667 116.693974 -7.992289
2782 2 -114.370090 95.490383 134.397731
2783 3 -137.576115 80.963834 131.209781
2784 3 -108.301702 94.017385 103.439726
2785 2 170.763112 5.808300 120.212120
2786 3 184.455468 -6.751166 134.823108
2787 3 184.176328 26.644737 137.721293
2788 2 -15.169546 154.253960 127.054554
2789 3 -31.075649 163.308780 91.093789
2790 3 -10.376017 167.515791 96.844739
2791 2 -83.898735 68.345263 102.042478
2792 3 -52.920360 50.594013 100.008840
2793 3 -94.981935 38.989493 93.961458
2794 2 -174.652717 71.118673 125.947008
2795 3 -183.522681 58.590175 160.774183
2796 3 -143.374792 86.669534 101.928539
2797 2 53.700439 -45.686312 127.673232
2798 3 43.307572 -73.132317 86.135026
2799 3 38.561732 -38.275854 92.642110
2800 2 -86.795904 140.290300 -146.088755
2801 3 -94.782403 116.707437 -147.966661
2802 3 -62.928291 132.025236 -164.961085
2803 2 -46.087185 138.574847 18.617564
2804 3 -38.021362 127.585988 44.053044
2805 3 -41.075523 163.148421 -1.738553
2806 2 163.656344 99.149568 62.704027
2807 3 174.983286 72.799791 66.124783
2808 3 138.963354 113.939687 94.469185
2809 2 256.891473 63.124903 66.135877
2810 3 268.409183 63.314568 57.469834
2811 3 253.545373 76.238685 76.182933
2812 2 56.868142 51.877184 220.655237
2813 3 40.499903 32.562238 204.924866
2814 3 55.829130 45.172543 173.909707
2815 2 101.266484 182.015538 84.762647
2816 3 90.398018 167.876102 81.496978
2817 3 92.471444 147.205764 90.381856
2818 2 -36.840750 177.678151 172.169811
2819 3 -51.650576 153.550549 164.293637
2820 3 -31.077655 151.365162 139.408066
2821 2 135.130535 75.447990 227.177644
2822 3 123.660067 85.560200 246.000745
2823 3 87.751967 82.801150 248.612494
2824 2 128.762399 54.125662 17.543066
2825 3 122.023253 79.863953 17.498364
2826 3 110.837304 16.982355 -16.807653
2827 2 16.257452 186.096779 85.092938
2828 3 32.111916 189.856129 114.994591
2829 3 49.087846 194.896638 63.533991
2830 2 4.628131 160.424528 335.683278
2831 3 9.947939 152.043212 272.790691
2832 3 9.397681 143.454350 302.708905
2833 2 -134.549014 233.607536 133.500701
2834 3 -108.599723 258.359775 126.920761
2835 3 -161.478817 251.212424 167.052908
2836 2 57.845442 90.307433 131.296070
2837 3 61.919667 44.598045 121.425487
2838 3 54.696214 42.044328 157.426478
2839 2 -32.147344 289.663632 81.631404
2840 3 -5.870629 266.356104 117.344686
2841 3 0.540700 272.226691 121.160447
2842 2 -63.987661 184.893086 156.071236
2843 3 -76.963132 210.267850 168.823664
2844 3 -41.644580 175.195170 149.599562
2845 2 82.742671 179.100603 29.945262
2846 3 67.404417 199.953659 30.715348
2847 3 80.320321 156.275187 -0.773316
2848 2 21.070119 112.184330 -39.128693
2849 3 45.770429 120.897244 -94.983267
2850 3 55.053667 111.622714 -71.824279
2851 2 -21.799929 205.680839 229.442261
2852 3 -34.949681 216.816289 197.571172
2853 3 0.991436 193.635640 219.731175
2854 2 86.854414 39.847321 42.146435
2855 3 87.991346 56.812141 90.485952
2856 3 115.020478 35.894228 69.183678
2857 2 55.736547 165.979200 34.303839
2858 3 39.241608 187.635680 14.917563
2859 3 29.157468 159.380814 8.020083
2860 2 44.663254 172.855018 29.382888
2861 3 49.497967 183.232504 -10.970783
2862 3 64.358937 184.522466 15.996887
2863 2 215.873196 125.569961 210.655603
2864 3 198.680997 106.313591 172.875746
2865 3 198.207108 83.937986 187.995503
2866 2 -47.575666 -59.032761 145.658504
2867 3 -48.037218 -83.413469 127.235123
2868 3 -65.166670 -82.223316 103.814988
2869 2 106.672088 43.788503 6.777087
2870 3 130.846850 53.851122 48.193353
2871 3 133.092895 48.553252 10.572218
2872 2 210.583460 -55.603481 101.839878
2873 3 212.411511 -67.887866 87.318953
2874 3 224.499875 -50.048634 69.119027
2875 2 -11.278983 56.465187 193.278840
2876 3 -42.840272 35.941234 190.631165
2877 3 -26.353793 44.016293 168.637782
2878 2 3.075285 101.969408 -110.433734
2879 3 -18.842767 95.974404 -157.841285
2880 3 -3.854817 69.165169 -139.307969
2881 2 35.924681 -5.774589 71.291681
2882 3 13.112344 -0.422896 63.495505
2883 3 -6.701298 -29.483441 27.959765
2884 2 -14.849410 -87.709409 184.543056
2885 3 -0.122766 -79.564490 143.235387
2886 3 -27.370703 -83.481934 176.015334
2887 2 77.020452 68.512655 165.078915
2888 3 88.866621 30.130725 133.530399
2889 3 122.429933 58.007289 160.159667
2890 2 122.471604 -219.114418 68.195445
2891 3 100.397359 -218.619792 76.697394
2892 3 82.088429 -195.126908 61.063402
2893 2 170.083517 -82.173567 67.459844
2894 3 174.828433 -82.276843 84.905731
2895 3 150.121454 -101.818992 54.689812
2896 2 229.647810 -51.978323 63.990948
2897 3 206.252841 -45.744871 61.645927
2898 3 204.334669 -70.570715 67.757765
2899 2 -3.562850 -94.247996 12.656815
2900 3 12.161424 -83.578390 65.009681
2901 3 4.964540 -125.980014 41.730618
2902 2 129.015360 -69.082960 94.683059
2903 3 139.057210 -82.097029 76.144106
2904 3 131.417861 -66.635527 107.083397
2905 2 -74.619521 -27.766550 302.500585
2906 3 -64.673603 -17.098708 242.554960
2907 3 -88.779584 -25.544794 252.557491
2908 2 -41.986042 86.390870 20.542365
2909 3 -26.946571 64.859727 47.013513
2910 3 -32.648576 40.416520 37.007752
2911 2 137.225178 -8.565499 87.079173
2912 3 155.610043 -20.509374 70.872541
2913 3 170.357418 -3.688923 48.827017
2914 2 -105.360384 -122.556054 90.577860
2915 3 -88.587583 -126.050181 72.205950
2916 3 -65.267582 -141.809057 45.919166
2917 2 44.343475 180.981875 7.520878
2918 3 11.038393 148.098658 -7.007281
2919 3 47.378997 173.426517 9.389106
2920 2 129.702018 51.153410 84.624785
2921 3 116.103247 85.469894 101.923243
2922 3 127.112151 35.262736 144.380307
2923 2 -24.522615 -85.024614 21.194246
2924 3 -24.584660 -102.590701 54.753565
2925 3 5.713816 -62.678293 46.053677
2926 2 -8.286972 54.984061 156.209209
2927 3 -22.572126 61.528966 117.811284
2928 3 -0.178862 48.484622 112.154760
2929 2 -26.580955 -52.864992 169.655607
2930 3 -30.067950 -26.468032 180.589627
2931 3 -65.393095 -64.316486 158.216811
2932 2 88.776722 55.460461 153.760001
2933 3 88.287081 41.825795 176.713123
2934 3 100.110374 79.453144 157.422373
2935 2 268.470982 -49.480404 71.017996
2936 3 274.357981 -30.660108 62.910332
2937 3 271.249140 -23.845046 67.790093
2938 2 92.449863 6.585607 57.643691
2939 3 73.164098 -16.625220 12.509152
2940 3 68.113424 -10.365120 60.253823
2941 2 210.521009 -126.476403 188.310252
2942 3 246.766404 -96.104607 205.272239
2943 3 212.071473 -115.105788 190.359704
2944 2 61.735416 65.934787 80.805532
2945 3 47.235200 119.028630 93.422876
2946 3 67.672236 101.698673 66.567196
2947 2 -70.040020 59.611873 38.948677
2948 3 -69.564511 45.096202 9.675376
2949 3 -74.593028 51.822061 35.905559
2950 2 -66.303096 148.303262 -31.836406
2951 3 -70.023961 129.314624 -21.061319
2952 3 -63.587002 121.720708 -36.857876
2953 2 -71.217896 -46.484514 199.684411
2954 3 -75.302031 -18.590290 175.555038
2955 3 -89.875559 -37.148479 238.747133
2956 2 67.769164 158.295913 55.222654
2957 3 71.381583 177.901122 71.159502
2958 3 86.832796 154.852599 101.806536
2959 2 129.691061 53.283725 94.961459
2960 3 102.674784 69.365870 85.416535
2961 3 99.664513 78.074348 82.929667
2962 2 -32.376773 209.960419 127.162460
2963 3 -47.585576 186.731649 135.950352
2964 3 -40.208333 165.447445 112.620371
2965 2 -33.093874 51.022391 165.188380
2966 3 -33.571540 66.898131 202.898609
2967 3 -38.027475 64.147250 158.463594
2968 2 -52.669840 19.007959 156.681803
2969 3 -53.834053 16.999606 157.673399
2970 3 -73.044197 56.626983 170.969056
2971 2 -97.557566 63.220891 156.669053
2972 3 -91.954649 -28.731939 129.238261
2973 3 -92.222868 14.421305 183.098268
2974 2 -10.490107 -48.460789 -65.848882
2975 3 -4.607432 -1.049134 -41.965184
2976 3 -12.972635 -41.296314 -41.620769
2977 2 97.858832 39.238623 37.520939
2978 3 115.162778 45.870235 25.443422
2979 3 86.474979 3.559992 35.459805
2980 2 192.731151 22.635720 27.736544
2981 3 177.455744 -4.793729 29.737936
2982 3 192.636297 12.497073 13.545311
2983 2 74.502638 -153.065700 107.932296
2984 3 71.635369 -113.211486 92.423609
2985 3 75.964602 -111.008005 117.135010
2986 2 -146.004507 1.151118 221.004971
2987 3 -135.130057 32.638679 180.049268
2988 3 -100.575288 0.059177 196.631371
2989 2 -26.215191 46.505010 175.010822
2990 3 -21.487158 38.251420 166.435559
2991 3 -29.154753 25.793633 131.902173
2992 2 73.400987 96.558819 60.337972
2993 3 62.027324 135.895844 73.842821
2994 3 79.617807 116.363912 84.182119
2995 2 31.395212 169.411065 79.151815
2996 3 55.045012 211.150443 32.531500
2997 3 42.789409 186.360603 63.147681
2998 2 66.798123 -22.525782 -31.018962
2999 3 74.438677 -33.127634 -18.255144
3000 3 72.391793 -14.489915 -7.835099
3001 2 22.055376 71.505785 9.290688
3002 3 40.710073 63.846486 37.902371
3003 3 18.890442 52.530816 36.052217
3004 2 -58.081243 -12.451993 147.019448
3005 3 -76.262559 -39.395015 124.383834
3006 3 -75.387647 -57.175923 120.964074
3007 2 92.224412 -52.562183 183.212687
3008 3 97.125222 -57.342752 126.691526
3009 3 105.046250 -78.854898 145.718269
3010 2 -16.037352 36.717684 63.588151
3011 3 -34.745989 27.157683 45.897389
3012 3 -34.358062 42.073292 61.312971
3013 2 27.433270 -10.763807 233.876340
3014 3 21.423655 7.819269 200.177183
3015 3 32.614908 10.908462 244.721967
3016 2 -174.635030 89.902003 -66.801462
3017 3 -152.660421 92.545929 -0.773260
3018 3 -172.997341 74.697408 -18.759195
3019 2 189.899059 -16.185063 133.104847
3020 3 224.961020 -11.749947 149.461211
3021 3 187.738882 -19.050387 146.533485
3022 2 -133.668889 68.635247 96.164972
3023 3 -119.510692 66.331950 133.710192
3024 3 -134.666830 71.781640 130.929656
3025 2 70.956088 19.628311 -18.938564
3026 3 60.714115 33.457150 -4.448544
3027 3 54.862461 23.561415 -11.976865
3028 2 -66.808612 12.893028 145.693812
3029 3 -64.954037 24.451341 135.635491
3030 3 -15.831544 31.138504 109.432384
3031 2 148.658510 -24.603029 203.842378
3032 3 138.200774 -28.209101 183.913151
3033 3 114.351624 -50.357341 223.273906
3034 2 -104.857937 72.100330 126.030613
3035 3 -106.147811 102.828305 154.367690
3036 3 -103.846956 65.967313 140.528409
3037 2 -218.442644 82.547387 203.463398
3038 3 -179.353336 65.461303 169.427322
3039 3 -160.266702 63.843993 178.219669
3040 2 -45.609605 96.037259 123.885425
3041 3 -54.186853 113.685350 136.628019
3042 3 -53.282103 109.429648 141.221538
3043 2 17.350040 114.711039 107.955536
3044 3 18.697516 73.565916 125.304390
3045 3 -14.631049 105.770692 148.129642
3046 2 135.089702 178.936184 137.304551
3047 3 153.449732 155.563794 160.075823
3048 3 121.296027 140.132883 129.491695
3049 2 202.698804 41.590914 45.736028
3050 3 227.823346 14.562422 51.749567
3051 3 236.396780 3.846517 77.720930
3052 2 -212.344786 137.937559 112.040932
3053 3 -213.373910 118.211673 97.206886
3054 3 -207.164929 129.325860 115.835270
3055 2 -104.667231 38.779109 164.304690
3056 3 -108.082154 29.445263 135.739292
3057 3 -86.451146 35.448080 157.167932
3058 2 48.083859 186.729687 66.291029
3059 3 62.662379 175.403712 77.547973
3060 3 40.828909 171.796541 52.419572
3061 2 -21.567490 151.779843 125.369931
3062 3 5.270259 157.607873 130.950128
3063 3 -14.272418 191.184619 152.688952
3064 2 56.816999 36.430538 79.450105
3065 3 106.581850 50.137523 40.398254
3066 3 101.569639 40.319583 50.843348
3067 2 120.251848 45.007126 195.674889
3068 3 114.549775 37.492933 201.327094
3069 3 117.769086 88.504251 200.260437
3070 2 197.109148 32.667428 -23.487956
3071 3 173.147766 38.481830 -8.782911
3072 3 166.542039 34.964612 -1.172599
3073 2 -2.181816 184.500131 101.396216
3074 3 -1.710238 158.656452 145.346753
3075 3 -9.899983 182.890499 95.479283
3076 2 63.242619 111.841701 97.544825
3077 3 102.749376 134.796597 117.103236
3078 3 106.087976 142.191908 106.085029
3079 2 144.808251 100.885836 199.063123
3080 3 157.291450 97.759098 201.391214
3081 3 104.031164 104.956229 220.494467
3082 2 4.591733 126.550683 65.647931
3083 3 6.792882 109.056520 47.976081
3084 3 24.231396 131.443520 48.769563
3085 2 78.316717 -98.949017 183.219164
3086 3 72.291146 -89.886868 147.277643
3087 3 71.813480 -86.980714 189.339231
3088 2 26.561151 130.384200 122.753513
3089 3 41.002792 134.624515 160.550281
3090 3 48.339063 121.026875 149.856446
3091 2 -15.331279 158.632490 -38.041458
3092 3 -25.625046 167.728270 10.705037
3093 3 -29.343842 127.453004 -24.554798
3094 2 42.586269 299.535683 187.453594
3095 3 79.489324 262.184504 202.365520
3096 3 48.064068 241.881707 186.253679
3097 2 -63.165568 99.026900 195.332185
3098 3 -98.572540 113.904307 231.594544
3099 3 -96.619599 151.012589 229.590447
3100 2 42.013670 208.507604 -131.617899
3101 3 40.212868 235.624566 -204.485322
3102 3 45.613641 216.632713 -107.229888
3103 2 -73.346822 46.387246 92.438167
3104 3 -43.784734 84.847149 89.210799
3105 3 -66.121042 91.200989 100.949075
3106 2 44.137063 -4.320725 72.058147
3107 3 14.150337 6.187821 75.032708
3108 3 37.383952 -8.523816 39.669332
3109 2 -0.853161 126.574896 11.408515
3110 3 18.018695 99.693577 6.628155
3111 3 -3.555603 107.950089 -2.999527
3112 2 82.654577 168.796767 77.961176
3113 3 87.576322 184.267506 58.802420
3114 3 78.311769 165.715512 52.648023
3115 2 -28.218727 21.579215 186.964070
3116 3 -35.049040 12.842808 192.104831
3117 3 -48.005154 -11.363515 209.134996
3118 2 -9.617839 55.021696 7.063213
3119 3 39.307137 58.759259 9.843742
3120 3 -0.070903 36.077055 16.536742
3121 2 105.643248 184.625247 35.272828
3122 3 106.001164 187.206114 -19.048089
3123 3 128.019366 177.486395 -11.029323
3124 2 220.572842 136.160444 41.930153
3125 3 228.321133 129.422643 0.738716
3126 3 202.249775 141.345516 51.951537
3127 2 92.638875 141.645663 121.317047
3128 3 78.315053 151.433064 55.100220
3129 3 84.113632 146.092323 56.329880
3130 2 -18.920006 59.375541 149.992574
3131 3 -29.172723 55.741771 137.470063
3132 3 -25.663106 31.555730 203.077923
3133 2 75.174894 246.185128 163.253468
3134 3 67.214278 224.081748 188.009471
3135 3 60.240242 256.283919 198.017630
3136 2 115.547630 65.821888 12.483054
3137 3 130.733976 70.401316 52.153980
3138 3 101.310965 47.428650 52.644831
3139 2 10.835862 50.776795 185.461380
3140 3 -19.507033 96.857340 243.714392
3141 3 12.846831 84.035331 196.642368
3142 2 115.976230 65.140553 -111.279275
3143 3 119.932929 103.064800 -99.712195
3144 3 112.078999 71.517166 -120.543600
3145 2 131.468344 161.655877 0.046548
3146 3 100.633373 155.695448 33.689339
3147 3 137.996583 180.356721 28.474539
3148 2 50.130370 49.716883 177.618475
3149 3 77.149355 33.418348 143.382327
3150 3 81.098801 28.424515 136.474888
3151 2 89.938125 172.883055 8.416858
3152 3 75.432236 198.059601 -24.474372
3153 3 87.457791 209.539747 3.350909
3154 2 -98.141728 87.361641 112.401285
3155 3 -56.632929 134.486301 136.215005
3156 3 -82.218918 71.987176 178.386491
3157 2 3.374670 19.151092 169.606193
3158 3 4.772936 66.272072 169.553513
3159 3 -25.885667 57.756312 111.265028
3160 2 116.120680 174.954015 94.600755
3161 3 132.637913 203.345583 167.530106
3162 3 124.163758 206.173732 137.373247
3163 2 -4.358597 215.848689 75.669075
3164 3 11.989945 241.656866 50.466665
3165 3 8.664780 200.305912 70.224401
3166 2 59.655692 172.234592 72.989355
3167 3 55.550241 174.579898 27.353875
3168 3 54.938738 186.538995 36.615498
3169 2 36.477339 -63.021225 65.504270
3170 3 8.381956 -42.968101 20.946100
3171 3 25.218506 -73.716177 25.085508
3172 2 -174.601025 -3.683151 104.986543
3173 3 -207.529753 11.846214 72.659244
3174 3 -217.806445 3.189497 74.148612
3175 2 92.910890 74.950962 74.679265
3176 3 79.289829 114.351929 55.427191
3177 3 100.831579 88.251115 69.168280
3178 2 17.603920 26.550071 114.167613
3179 3 26.858974 22.314534 175.758320
3180 3 27.140093 55.458971 108.809398
3181 2 48.621872 -149.557935 169.006678
3182 3 44.325870 -140.367599 163.623895
3183 3 54.136351 -106.486312 198.592161
3184 2 29.385468 -32.684209 70.304274
3185 3 43.111723 -29.648004 37.979735
3186 3 49.253249 -14.580050 90.323000
3187 2 2.488166 17.344313 121.899097
3188 3 -18.678208 23.993884 126.285662
3189 3 -10.090832 26.985900 129.155191
3190 2 19.825371 17.136834 -11.476611
3191 3 7.648524 10.291786 -9.689098
3192 3 4.117075 29.631208 9.088462
3193 2 14.862638 -8.267379 154.278614
3194 3 16.954584 2.454598 141.517246
3195 3 29.596004 -23.074911 126.640544
3196 2 111.901672 -96.969692 147.247087
3197 3 106.654876 -97.229230 152.777742
3198 3 111.894079 -117.880615 156.168661
3199 2 291.629850 41.746501 198.556531
3200 3 281.056689 40.803889 162.358928
3201 3 262.968649 0.175491 212.517843
3202 2 -5.688417 65.712656 166.349418
3203 3 -10.750762 33.666312 193.300263
3204 3 -18.199340 15.506109 212.227523
3205 2 -93.713518 54.867790 261.374278
3206 3 -88.459291 41.739450 243.364363
3207 3 -80.431047 49.689778 259.925541
3208 2 -16.611179 64.273685 132.424818
3209 3 -0.877602 -0.705441 125.873958
3210 3 -5.896679 31.594307 113.724928
3211 2 -20.163688 34.684402 166.558337
3212 3 -38.596193 13.204478 176.154516
3213 3 -43.450655 36.704289 151.441652
3214 2 158.408267 -57.000329 267.462738
3215 3 143.815745 -45.820299 289.074540
3216 3 132.511630 -6.487246 318.324100
3217 2 -14.348011 103.956828 90.985629
3218 3 -11.369970 86.974525 90.013878
3219 3 15.872136 95.912325 85.410870
3220 2 -15.180897 -12.104110 216.792424
3221 3 -27.140466 -4.987716 193.521942
3222 3 -42.026967 -13.004418 169.693073
3223 2 45.830563 -45.952828 66.078082
3224 3 51.721217 -39.117305 72.141987
3225 3 46.444524 -43.568058 15.468221
3226 2 100.040127 40.413578 11.787353
3227 3 104.441376 48.666833 3.250336
3228 3 76.662900 22.206386 29.007237
3229 2 103.389111 1.805885 -36.416470
3230 3 69.995344 8.878245 20.047954
3231 3 97.719256 -6.146212 -10.530271
3232 2 50.744300 -56.804186 263.334626
3233 3 21.311889 -26.706910 269.928146
3234 3 30.147491 -47.070654 301.024466
3235 2 -31.212495 -65.487421 71.913162
3236 3 -50.982930 -63.507207 113.234601
3237 3 -34.902315 -64.356807 69.581492
3238 2 -1.981630 63.636774 123.705142
3239 3 9.113393 79.275216 120.942144
3240 3 -22.043030 98.578921 113.440200
3241 2 150.239011 101.532490 11.968054
3242 3 154.222320 85.862560 -21.270516
3243 3 145.953403 97.873032 -38.051994
3244 2 88.095271 34.046333 117.334916
3245 3 114.389998 47.288995 146.301132
3246 3 87.746150 45.490980 166.853242
3247 2 -50.644303 -20.148843 45.964684
3248 3 -65.887012 -6.693350 26.800428
3249 3 -57.615877 -44.566471 20.928032
3250 2 -42.053805 -81.597127 107.985926
3251 3 -51.491576 -37.598085 112.544322
3252 3 -54.582761 -61.534239 128.147727
3253 2 162.184514 27.486308 263.223971
3254 3 169.161696 90.459172 283.797974
3255 3 173.709595 62.574625 227.375595
3256 2 -111.807227 21.322162 37.767393
3257 3 -66.838537 17.652614 19.058110
3258 3 -101.837011 45.829442 4.323346
3259 2 4.736757 -38.258521 199.129033
3260 3 14.343540 -84.423079 232.492239
3261 3 13.585443 -63.534643 193.362666
3262 2 59.944522 14.192566 98.103893
3263 3 80.752415 18.933666 74.220218
3264 3 79.552225 40.399246 78.369877
3265 2 9.078736 47.382108 110.163783
3266 3 -14.498686 58.413247 89.197685
3267 3 1.106858 63.334516 123.761891
3268 2 -73.269734 80.042622 130.681942
3269 3 -62.152246 44.726400 149.531263
3270 3 -38.880781 31.491996 147.787030
3271 2 -21.267776 16.985107 195.161322
3272 3 -4.116502 0.209490 225.670028
3273 3 2.610716 30.667886 194.266838
3274 2 165.793213 7.325046 3.607667
3275 3 170.790930 24.257443 42.460921
3276 3 163.734781 18.174892 44.956738
3277 2 72.648236 -57.610043 210.716752
3278 3 66.752723 -83.239783 200.140611
3279 3 75.821501 -74.653529 186.058035
3280 2 170.654515 28.623981 77.959700
3281 3 169.963815 10.854331 22.613699
3282 3 173.905046 14.796080 10.180232
3283 2 96.325685 78.051857 55.446483
3284 3 133.818093 89.618185 84.681091
3285 3 97.904971 93.947035 29.859018
3286 2 -40.585414 -13.260379 104.256233
3287 3 -46.060495 29.592969 81.925547
3288 3 1.705260 7.614450 88.455340
3289 2 -113.542347 14.663607 42.354759
3290 3 -105.621960 10.716524 74.715043
3291 3 -108.872996 -2.570874 93.265256
3292 2 138.645353 -53.316460 146.709810
3293 3 152.376546 -77.816993 124.511658
3294 3 152.116744 -37.428055 111.627678
3295 2 -80.931244 47.766633 204.255899
3296 3 -88.329569 36.034369 203.379830
3297 3 -82.291864 29.104646 183.151095
3298 2 128.737811 47.005980 102.046741
3299 3 127.708551 52.503600 85.604493
3300 3 105.431459 11.318781 112.217967
3301 2 -21.575067 -8.220010 31.121106
3302 3 -14.301046 -5.090604 57.444488
3303 3 -7.888815 7.524669 58.936841
3304 2 -41.779460 136.094412 67.632229
3305 3 -66.800064 126.247464 56.591885
3306 3 -47.779881 112.244425 53.612038
3307 2 7.482520 124.692735 95.444054
3308 3 5.676572 117.687711 125.195912
3309 3 29.528706 106.884892 130.498458
3310 2 121.182506 62.425110 124.100655
3311 3 118.791271 62.058812 121.279968
3312 3 149.688990 79.403928 115.420798
3313 2 -123.855966 -22.991884 118.806625
3314 3 -128.532231 -33.035929 92.876119
3315 3 -146.728337 -48.853691 95.420556
3316 2 182.934917 56.761039 78.547567
3317 3 161.870162 43.115746 125.586868
3318 3 148.776511 42.241513 130.532298
3319 2 8.973591 -2.605427 175.140778
3320 3 6.792286 18.012870 162.662976
3321 3 8.437528 -21.170346 161.116334
3322 2 217.446364 121.588385 91.105538
3323 3 221.814821 151.075566 132.387398
3324 3 198.521744 123.738643 114.170408
3325 2 -99.444839 95.079351 83.267721
3326 3 -105.760383 55.497331 116.797924
3327 3 -98.921872 88.464811 97.878229
3328 2 285.571088 145.177961 92.663509
3329 3 264.238236 140.749287 130.466933
3330 3 269.905257 148.274465 112.826311
3331 2 -156.990769 62.597128 72.224937
3332 3 -185.431449 31.600246 55.753081
3333 3 -161.263892 12.993892 80.626675
3334 2 -1.933808 114.530161 -58.543633
3335 3 -5.064647 95.266827 -117.216071
3336 3 -24.502186 123.711549 -52.481402
3337 2 21.891717 143.607366 -118.081734
3338 3 30.642902 154.251436 -139.104059
3339 3 3.970064 180.708973 -156.366955
3340 2 -43.882478 105.983962 54.419271
3341 3 -20.160761 139.504315 27.896521
3342 3 -20.090033 116.063011 65.659855
3343 2 54.254115 138.575333 110.401542
3344 3 52.060457 102.386089 150.098681
3345 3 51.311256 123.044218 93.965633
3346 2 -78.486622 107.022422 27.266878
3347 3 -92.214623 113.463345 54.915887
3348 3 -48.546141 105.903455 81.274146
3349 2 -22.140553 26.068358 175.841980
3350 3 -27.063749 -9.732758 208.077546
3351 3 -24.401357 38.519918 187.320096
3352 2 4.753687 99.269249 23.770866
3353 3 -18.981428 109.589057 -27.290506
3354 3 5.274986 139.583453 41.885850
3355 2 26.392419 65.106135 168.166091
3356 3 14.436781 51.798943 172.298124
3357 3 38.115943 58.166835 165.815065
3358 2 -89.120054 179.703362 -36.823238
3359 3 -74.015558 157.996221 -52.138625
3360 3 -95.103288 168.324506 -66.436477
3361 2 28.948222 31.723413 57.925029
3362 3 24.576172 -59.146094 32.757388
3363 3 47.195288 -49.418431 75.555805
3364 2 -55.707941 107.933942 188.367951
3365 3 -33.267541 153.773353 222.011660
3366 3 -37.283783 134.590754 237.577423
3367 2 85.323066 71.113906 134.113040
3368 3 84.409713 120.012620 119.259661
3369 3 67.687954 76.009374 101.028205
3370 2 72.478852 71.197530 -23.068309
3371 3 24.774919 40.774240 -48.821226
3372 3 43.467266 66.868479 -40.589391
3373 2 -167.770327 171.213138 25.242285
3374 3 -170.288019 163.823309 34.120751
3375 3 -146.166902 131.472986 5.740772
3376 2 38.702009 163.416199 269.744053
3377 3 71.314152 192.824872 213.849946
3378 3 35.266825 196.752123 233.814397
3379 2 -84.927858 153.815499 20.703059
3380 3 -111.359418 126.881429 77.365739
3381 3 -104.184036 115.654875 50.817425
3382 2 -31.763823 147.720573 -54.563066
3383 3 12.943055 148.959540 -73.112846
3384 3 -3.430421 145.605482 -54.316292
3385 2 60.772666 73.678432 72.865687
3386 3 77.329924 89.511078 46.124068
3387 3 91.933206 85.675418 63.738985
3388 2 36.239345 217.268845 116.204701
3389 3 59.376848 213.836949 99.608945
3390 3 34.901720 261.147633 105.490293
3391 2 64.619826 204.070766 62.056557
3392 3 90.575987 153.660567 59.918675
3393 3 62.745173 180.413296 52.537400
3394 2 20.199826 253.816082 29.923534
3395 3 18.057972 278.112482 -20.382993
3396 3 -12.323245 277.787323 -6.464127
3397 2 -149.381037 232.151528 192.843638
3398 3 -156.939065 187.135824 229.135815
3399 3 -142.114770 220.022964 210.640767
3400 2 7.179588 180.688220 60.563383
3401 3 23.532500 168.328946 37.424643
3402 3 29.489639 164.778807 39.323513
3403 2 87.743136 205.591636 243.903024
3404 3 102.047016 229.645664 276.712937
3405 3 88.581048 227.691351 217.006630
3406 2 138.357217 206.960188 97.200963
3407 3 130.366860 186.463977 112.066746
3408 3 149.091480 215.310168 70.822675
3409 2 113.665373 160.686315 -0.735713
3410 3 99.688467 134.289306 -8.133332
3411 3 108.034644 156.199896 19.580944
3412 2 -123.943819 30.829778 136.273155
3413 3 -142.547505 44.361834 169.716101
3414 3 -145.453277 63.831442 159.926419
3415 2 39.731616 56.116484 28.071154
3416 3 71.776276 58.916368 60.529672
3417 3 69.596429 45.616558 22.627715
3418 2 -86.152113 165.286097 194.606608
3419 3 -71.419652 211.399748 183.348676
3420 3 -67.555459 166.332091 190.773022
3421 2 39.510343 230.969228 244.874840
3422 3 22.830540 182.585410 226.633226
3423 3 35.761061 183.506106 201.811802
3424 2 -62.375053 124.798374 -67.354967
3425 3 -51.219708 146.411416 -31.489135
3426 3 -57.152680 147.330446 -35.967299
3427 2 -71.252252 131.089709 87.107298
3428 3 -102.795426 137.170100 106.467340
3429 3 -103.876302 125.239435 43.047788
3430 2 91.750825 158.066054 152.521503
3431 3 91.678519 157.472266 188.767320
3432 3 94.639274 159.392917 149.409924
3433 2 76.662814 178.326280 -56.669053
3434 3 60.840319 112.601414 -48.450033
3435 3 63.273700 132.244315 -12.907708
3436 2 103.445437 56.295317 250.635984
3437 3 121.634906 74.598671 237.690993
3438 3 128.794802 34.193934 211.734401
3439 2 105.586824 147.448964 107.361436
3440 3 98.818251 150.772088 42.417149
3441 3 96.931033 146.991923 32.574508
3442 2 -4.139088 -23.727741 159.308886
3443 3 -15.845139 -4.511967 197.790582
3444 3 -1.290074 -29.324571 171.534223
3445 2 10.878769 33.937556 79.891683
3446 3 -12.657678 63.096147 34.842537
3447 3 -27.112300 42.551555 64.699660
3448 2 114.474357 134.409435 111.301377
3449 3 145.085197 116.400622 158.363272
3450 3 102.249832 141.373248 117.968825
3451 2 -91.355388 -27.532473 126.849251
3452 3 -99.134012 3.264401 167.148313
3453 3 -85.816143 -16.448972 111.788734
3454 2 -105.837613 151.897144 47.713502
3455 3 -99.387700 121.473182 31.598929
3456 3 -98.393543 115.145197 12.462316
3457 2 -243.896797 179.315729 38.860154
3458 3 -229.224963 162.912253 81.243562
3459 3 -239.896356 169.115129 68.477318
3460 2 -43.193232 166.480957 -35.413125
3461 3 -55.637718 182.768135 -23.861170
3462 3 -46.897994 179.347460 -30.331414
3463 2 -181.152571 -40.211808 224.480796
3464 3 -203.601931 -49.336571 211.747262
3465 3 -202.836615 -77.148278 179.072305
3466 2 79.093268 227.662509 1.351585
3467 3 72.873016 200.460524 -27.542330
3468 3 86.137671 214.659410 -40.676391
3469 2 20.367020 298.025776 39.980410
3470 3 23.869533 235.522074 36.428953
3471 3 27.158084 256.834436 49.325221
3472 2 -122.085855 11.722104 147.695842
3473 3 -141.683427 41.035594 164.237849
3474 3 -132.523502 29.298396 178.821786
3475 2 75.577944 285.247062 7.890708
3476 3 42.009234 310.965807 19.583335
3477 3 39.539153 280.175825 43.828489
3478 2 -71.760861 137.045843 105.813632
3479 3 -64.548004 149.976463 70.764510
3480 3 -72.405860 139.470189 127.704830
3481 2 71.659311 190.114921 12.131017
3482 3 82.036478 264.003165 35.189371
3483 3 88.195259 267.236325 15.942166
3484 2 55.654363 194.841127 118.316732
3485 3 60.428317 179.892762 75.261232
3486 3 31.152639 189.842582 98.552473
3487 2 239.564806 140.645412 -0.738988
3488 3 211.281408 148.865973 11.745224
3489 3 218.327709 155.823696 -35.730365
3490 2 84.792648 -111.295184 204.905049
3491 3 65.213906 -106.378263 213.657735
3492 3 54.782135 -118.257788 196.446687
3493 2 83.878185 -156.970510 164.912296
3494 3 77.832444 -123.432460 108.951338
3495 3 93.120368 -118.939001 134.253909
3496 2 -34.083181 67.112040 65.713637
3497 3 -38.318366 14.665801 53.918249
3498 3 -20.079945 82.309489 104.440907
3499 2 65.745624 -105.354885 35.351251
3500 3 56.812694 -79.310244 73.337280
3501 3 13.296215 -78.370892 96.828607
3502 2 68.722861 12.356227 133.636266
3503 3 64.203310 0.487820 119.104011
3504 3 71.585742 0.542198 121.313162
3505 2 -76.083968 -16.508842 148.883709
3506 3 -80.293363 -23.653434 149.074121
3507 3 -108.792168 -28.704008 173.671264
3508 2 -143.165647 144.072244 130.985353
3509 3 -163.125824 157.162327 136.308583
3510 3 -139.646367 158.057814 151.488298
3511 2 -32.390047 51.837561 15.227328
3512 3 -32.015973 54.657466 6.806320
3513 3 -22.906030 49.860689 -18.130835
3514 2 79.563687 -106.415567 197.755136
3515 3 115.059265 -56.500860 185.175508
3516 3 80.085090 -100.135848 148.572640
3517 2 117.118209 -66.812269 131.355144
3518 3 112.570279 -77.855832 84.751507
3519 3 152.667444 -68.870792 159.376880
3520 2 114.994823 49.647981 194.158175
3521 3 135.486398 32.006017 218.377446
3522 3 123.698447 39.015468 188.378801
3523 2 126.890003 -66.566492 107.565024
3524 3 152.342997 -54.297303 112.046956
3525 3 141.780891 -77.514131 122.951703
3526 2 301.703030 -27.818598 39.505603
3527 3 295.960112 -44.839676 23.168112
3528 3 312.801908 -57.490553 63.900290
3529 2 49.101653 -133.349728 22.223136
3530 3 45.993643 -142.112686 13.716565
3531 3 30.894824 -132.838651 -36.428786
3532 2 -64.077862 -149.520016 245.987054
3533 3 -88.687799 -122.905342 247.463653
3534 3 -85.941008 -160.642512 244.688256
3535 2 -53.389362 32.494140 167.623564
3536 3 -37.351257 13.974298 188.684546
3537 3 -39.486468 27.069021 192.701098
3538 2 -32.389369 -123.018052 52.116800
3539 3 -36.048811 -127.280269 78.460618
3540 3 -57.628775 -131.016630 47.511460
3541 2 129.448071 -20.263510 217.701651
3542 3 134.190805 38.705274 193.192338
3543 3 143.678517 -4.900542 211.769625
3544 2 -49.567789 25.394005 235.909627
3545 3 -46.375421 66.374275 281.648994
3546 3 -37.152828 53.221341 262.896730
3547 2 128.193163 -121.824090 97.265535
3548 3 132.618267 -97.702250 78.016277
3549 3 147.195308 -108.637338 93.819131
3550 2 140.025263 -73.558356 140.567351
3551 3 126.663590 -33.432959 172.526510
3552 3 135.432710 -67.172709 127.372136
3553 2 74.405504 -5.368717 69.995567
3554 3 58.508826 -25.961144 93.123792
3555 3 38.902075 -47.198142 34.213943
3556 2 48.354238 37.033561 39.583608
3557 3 55.339367 61.075844 40.047590
3558 3 27.921971 54.103874 16.220773
3559 2 34.245917 -30.902103 75.983705
3560 3 37.028432 -26.816533 111.271882
3561 3 -0.017565 -16.482820 88.108115
3562 2 49.041059 -49.037359 134.422918
3563 3 40.867776 -62.491059 112.745483
3564 3 33.790360 -13.695244 98.815493
3565 2 111.502239 -87.491243 62.311698
3566 3 111.874778 -90.804637 73.920567
3567 3 131.421028 -99.928879 96.056352
3568 2 37.560412 -29.003058 149.267560
3569 3 40.122211 -48.914280 146.334889
3570 3 58.616656 -37.192157 146.622985
3571 2 3.652081 -38.379213 141.835538
3572 3 2.415839 5.434290 174.720235
3573 3 -0.781128 -3.147717 127.862140
3574 2 30.498159 -17.261561 120.989233
3575 3 44.360909 -14.467983 117.613426
3576 3 31.975223 -12.191286 148.560222
3577 2 6.725231 23.170055 193.457158
3578 3 -23.236855 33.790962 165.598635
3579 3 -15.558616 35.193476 184.645224
3580 2 146.707652 107.912732 126.484009
3581 3 109.848268 79.106445 114.602059
3582 3 127.581405 107.955555 112.277123
3583 2 87.048646 136.967237 61.996238
3584 3 75.681352 130.617943 62.601911
3585 3 90.679050 148.402075 114.083132
3586 2 47.367402 137.502017 33.132076
3587 3 13.028172 146.550436 31.790812
3588 3 22.801331 152.991290 36.558681
3589 2 137.295850 -61.600476 84.807983
3590 3 127.907134 -94.391890 103.336119
3591 3 113.488785 -65.038355 136.842096
3592 2 140.187424 -43.048353 109.722777
3593 3 110.310423 -32.887802 154.105325
3594 3 84.205713 -25.532672 134.030634
3595 2 -32.447340 24.025963 153.729306
3596 3 -35.959417 -4.251776 171.787971
3597 3 -39.056537 24.119684 166.652801
3598 2 101.600439 -8.598644 156.890686
3599 3 113.009540 -15.121033 146.001448
3600 3 106.753028 -19.750992 129.253372
3601 2 -11.883485 153.078745 103.895336
3602 3 -21.032317 119.057024 108.239951
3603 3 -9.953021 124.331542 125.855967
3604 2 121.435128 -19.249137 273.232499
3605 3 125.521815 -5.085548 269.337857
3606 3 86.055610 -2.509787 264.475478
3607 2 -180.267688 21.788419 194.949016
3608 3 -155.073226 34.178901 146.700768
3609 3 -166.514163 0.143348 204.406576
3610 2 -91.359443 146.991292 3.951670
3611 3 -82.078455 117.281597 -10.954757
3612 3 -89.432385 115.481143 8.655273
3613 2 -87.839916 48.130478 178.977352
3614 3 -96.810207 50.729042 227.962193
3615 3 -86.009968 49.512762 203.830587
3616 2 40.449757 -25.673768 -28.170404
3617 3 61.764823 12.945400 31.777705
3618 3 70.804421 17.335532 1.323118
3619 2 -48.894733 22.900001 210.618644
3620 3 -22.811243 24.203683 182.088258
3621 3 -46.412051 22.542687 187.988750
3622 2 -94.931475 113.118048 68.987383
3623 3 -95.935443 125.255202 50.923306
3624 3 -81.951247 122.764930 58.861027
3625 2 -0.380945 44.285117 123.298190
3626 3 9.396373 42.501764 125.846981
3627 3 -3.066870 52.084969 111.162205
3628 2 68.204482 173.015895 33.607052
3629 3 65.297467 150.567606 27.247615
3630 3 86.424292 224.254864 46.826770
3631 2 -49.567111 39.907402 207.437973
3632 3 -31.265216 64.652914 216.439849
3633 3 -24.291617 39.593097 188.254916
3634 2 136.621308 145.899335 101.581222
3635 3 120.775943 113.670473 76.220279
3636 3 151.604623 149.292772 58.311237
3637 2 88.768686 4.330480 66.251380
3638 3 64.906185 20.849673 94.798590
3639 3 81.704137 23.639908 94.941891
3640 2 327.204167 -87.271267 244.697076
3641 3 280.025174 -61.321211 227.795261
3642 3 289.318445 -61.740348 248.519811
3643 2 -17.577164 -22.369558 272.973326
3644 3 39.678694 -2.668692 222.892232
3645 3 30.297161 -22.701091 209.160699
3646 2 -28.878276 139.301718 179.605006
3647 3 -59.903113 121.657564 196.071748
3648 3 -29.143956 99.037239 192.078150
3649 2 178.816426 121.575005 78.106995
3650 3 206.339413 131.232994 73.407235
3651 3 180.175160 119.002425 66.935437
3652 2 129.855145 -67.044590 254.112824
3653 3 111.481945 -91.598832 307.800197
3654 3 103.721483 -67.268306 247.932733
3655 2 -60.257288 -61.138296 169.977654
3656 3 -38.284244 -60.039642 215.386680
3657 3 -60.921058 -58.817347 200.321180
3658 2 102.061122 43.360415 97.467226
3659 3 103.154589 29.092095 45.919233
3660 3 132.918827 57.583344 91.908105
3661 2 -35.035969 46.759787 171.327194
3662 3 -51.666642 44.531850 146.134632
3663 3 -45.984899 33.537642 155.673647
3664 2 -69.413361 45.938567 168.371828
3665 3 -97.214780 27.617025 159.874966
3666 3 -79.985426 48.889958 136.288655
3667 2 232.437357 212.062305 94.436913
3668 3 215.197323 201.661191 53.814940
3669 3 210.790301 239.276134 52.649405
3670 2 88.888005 248.438418 -14.402118
3671 3 83.227659 201.696800 -0.361865
3672 3 76.535483 240.875290 13.538692
3673 2 251.556073 -13.127345 206.134432
3674 3 294.367163 -15.389054 256.561884
3675 3 244.838507 -12.795850 212.427761
3676 2 -83.515546 77.154534 12.212852
3677 3 -81.726474 82.609611 31.987628
3678 3 -69.668424 76.772887 24.605298
3679 2 -141.460256 196.705659 152.652990
3680 3 -142.670658 209.131710 144.620143
3681 3 -168.067314 213.839321 156.273208
3682 2 57.228193 -97.129117 86.160024
3683 3 73.351761 -102.663530 65.713877
3684 3 43.564514 -110.824748 118.473977
3685 2 112.776078 97.300294 84.899176
3686 3 119.673485 87.831020 138.764433
3687 3 152.213879 58.501983 94.981456
3688 2 12.397501 -31.837303 102.281705
3689 3 38.448205 -76.859670 132.016536
3690 3 16.174294 -55.594221 128.236369
3691 2 -207.707530 153.548329 14.052473
3692 3 -186.112597 128.774439 31.798003
3693 3 -188.677974 139.467072 34.620980
3694 2 90.483703 88.081990 45.905895
3695 3 75.012147 105.361848 61.033653
3696 3 82.180460 106.822942 50.072868
3697 2 -72.989645 -28.187964 84.041803
3698 3 -82.879489 -26.397458 29.857177
3699 3 -75.487881 -44.050315 58.212938
3700 2 25.954260 234.071236 34.745714
3701 3 40.949184 224.930512 7.703463
3702 3 45.006450 201.566955 10.606349
3703 2 71.480405 38.418519 74.145844
3704 3 70.770823 38.346300 92.432383
3705 3 56.104760 33.787172 89.230764
3706 2 86.731853 13.819820 66.038821
3707 3 99.299985 -2.363381 87.489521
3708 3 81.841599 5.831105 97.634325
3709 2 32.858833 134.377202 -34.008488
3710 3 34.595282 160.484265 -12.677774
3711 3 42.976199 147.533469 -15.656498
3712 2 139.508544 254.127633 221.303483
3713 3 178.932097 252.474091 171.508759
3714 3 158.328721 255.434593 213.743701
3715 2 45.657223 102.154003 144.542544
3716 3 47.388873 105.114893 149.268113
3717 3 35.922543 113.589495 151.662169
3718 2 100.040756 21.790094 136.352009
3719 3 130.600569 26.575331 132.863489
3720 3 126.802457 14.703809 162.726828
3721 2 -37.457814 130.727330 233.303746
3722 3 11.694956 156.508832 181.661192
3723 3 -5.989877 163.943939 228.654686
3724 2 -13.040173 74.698103 101.897807
3725 3 2.894144 71.545373 55.572192
3726 3 19.871797 71.727179 111.967291
3727 2 -36.066972 171.408817 214.680145
3728 3 -29.512373 164.070333 194.613859
3729 3 -0.523789 180.802708 199.388224
3730 2 -28.630531 265.611930 182.982373
3731 3 -1.677235 250.338391 184.909268
3732 3 -38.960185 253.436492 191.772368
3733 2 -60.170636 83.590751 241.888078
3734 3 -38.820449 70.608599 197.429555
3735 3 -40.725396 78.872652 222.062661
3736 2 -28.174850 106.957492 297.604993
3737 3 -60.215881 96.152522 289.631819
3738 3 -60.032773 68.409258 264.503856
3739 2 107.176537 232.390418 68.830765
3740 3 95.893036 216.288260 128.430343
3741 3 65.727411 214.766417 103.486159
3742 2 -148.499298 33.119956 103.583529
3743 3 -192.885576 42.972299 103.712876
3744 3 -161.439882 69.192164 137.462092
3745 2 -117.063833 177.880992 99.965801
3746 3 -120.755703 162.570901 90.950746
3747 3 -115.872548 177.419891 85.201097
3748 2 41.420506 3.882138 165.128753
3749 3 43.764762 10.033076 135.567340
3750 3 20.353314 8.089299 145.748336
3751 2 35.319360 107.865211 113.093372
3752 3 68.943401 98.082159 135.744864
3753 3 43.586469 115.496560 105.586168
3754 2 156.462622 82.519499 -64.087979
3755 3 160.665220 64.979377 -154.345625
3756 3 141.640261 69.080504 -82.196583
3757 2 27.395220 28.726082 324.646989
3758 3 24.816029 5.431137 344.199413
3759 3 34.664149 39.406087 360.442169
3760 2 -9.466440 31.834618 -0.888480
3761 3 -4.824866 53.229384 -5.259785
3762 3 6.537689 2.733352 -22.349028
3763 2 112.174162 89.815795 244.972560
3764 3 82.763587 136.308078 240.519790
3765 3 94.205670 123.571426 211.378098
3766 2 -15.797847 16.342014 206.373825
3767 3 -47.287141 6.544707 182.244581
3768 3 -45.827932 -8.129109 167.311490
3769 2 -43.359252 128.037761 -88.496961
3770 3 -17.588038 89.124943 -51.023712
3771 3 -46.143517 102.945911 -49.641834
3772 2 -93.119706 223.283477 135.097725
3773 3 -106.433446 216.797284 161.446758
3774 3 -118.676281 216.864563 152.577762
3775 2 -86.769726 88.293801 74.232595
3776 3 -91.025543 96.676242 87.448641
3777 3 -97.390240 92.363592 97.814967
3778 2 -125.604396 204.050575 32.555033
3779 3 -131.968822 236.248185 -13.868035
3780 3 -117.295842 230.248788 18.402988
3781 2 83.895570 202.797879 188.726542
3782 3 50.659863 173.551587 232.031813
3783 3 63.047155 177.793795 217.521120
3784 2 -134.133829 -5.074071 206.679496
3785 3 -84.312920 -47.703654 180.670206
3786 3 -124.828517 -10.726495 180.715468
3787 2 60.953873 127.659592 99.120104
3788 3 66.238355 82.688939 135.954642
3789 3 50.881451 113.096868 93.037844
3790 2 58.552340 135.734124 207.938550
3791 3 46.449738 137.508198 229.281879
3792 3 65.363604 152.134255 208.712433
3793 2 12.777537 139.880895 -7.411244
3794 3 -1.756456 137.521456 -14.026118
3795 3 17.102039 132.922350 11.746574
3796 2 136.971638 23.481778 62.423801
3797 3 118.373615 10.748142 95.850449
3798 3 130.127284 -15.433420 33.988506
3799 2 162.458317 116.142735 234.663933
3800 3 174.605829 118.084801 214.710443
3801 3 168.904483 90.726957 225.879584
3802 2 -63.690452 76.320146 105.510526
3803 3 -43.287902 84.026916 108.780909
3804 3 -36.188640 71.513748 118.227592
3805 2 -6.611771 32.358723 246.327488
3806 3 19.383646 0.582845 279.413162
3807 3 -2.562980 11.922653 287.465217
3808 2 9.505905 -34.994807 160.313305
3809 3 17.224582 -40.638246 170.470979
3810 3 3.802450 -41.710555 154.506724
3811 2 -144.535918 -35.154319 184.568852
3812 3 -166.258367 -6.432718 91.138354
3813 3 -147.973273 -31.616780 178.561414
3814 2 117.875643 78.101651 30.400493
3815 3 123.050836 78.313328 6.677092
3816 3 129.553488 60.393844 -12.811937
3817 2 88.077979 65.060647 135.349591
3818 3 69.763934 52.316618 82.804882
3819 3 65.419680 45.105576 82.814113
3820 2 34.508803 164.259018 190.795810
3821 3 53.109646 161.276819 188.139906
3822 3 46.719640 189.305141 202.938575
3823 2 -94.573085 64.348904 148.516215
3824 3 -128.786202 34.346538 133.521773
3825 3 -127.535793 68.769991 116.307385
3826 2 124.666722 61.724858 28.812740
3827 3 165.145441 69.823450 40.082690
3828 3 137.819927 90.447989 46.234921
3829 2 -85.624647 37.803798 62.772239
3830 3 -72.020940 67.250707 53.896035
3831 3 -64.760933 56.825703 119.135010
3832 2 86.400529 82.486000 123.043759
3833 3 66.118971 79.889667 153.965820
3834 3 59.385041 96.027232 153.129026
3835 2 127.408496 125.122066 117.354050
3836 3 114.663517 140.585872 147.510227
3837 3 116.775915 114.821437 126.725653
3838 2 116.681129 85.455837 -27.205300
3839 3 89.721997 112.461474 59.546093
3840 3 95.887286 121.446050 50.337390
3841 2 -99.309916 -51.661686 363.344847
3842 3 -74.326460 -51.804455 323.550662
3843 3 -126.667476 -39.539839 363.916813
3844 2 44.371897 -8.361321 159.176938
3845 3 67.920609 26.494407 177.840450
3846 3 16.620554 55.272164 208.696048
3847 2 -4.304709 123.307480 60.216182
3848 3 -8.187074 116.481555 64.334666
3849 3 -11.823575 128.761926 88.561243
3850 2 -78.220948 -11.544301 206.131332
3851 3 -86.309197 -29.048918 217.582379
3852 3 -85.647584 -16.866105 207.757446
3853 2 -46.924265 53.090128 29.768801
3854 3 -53.056522 19.408462 79.421967
3855 3 -35.936486 35.003917 99.860341
3856 2 -20.877156 -29.793574 148.734563
3857 3 -3.165064 -34.715972 165.919871
3858 3 -42.034707 -28.781862 190.061727
3859 2 84.528632 -25.427101 212.876175
3860 3 93.577421 -9.470633 211.147083
3861 3 108.393416 -11.062297 222.171637
3862 2 52.069199 31.101121 220.904668
3863 3 48.897823 -24.954480 218.357832
3864 3 28.471397 20.666457 243.495223
3865 2 28.803243 -58.581673 196.756086
3866 3 -2.368133 -61.546531 190.555255
3867 3 11.775049 -87.449188 202.834342
3868 2 111.492403 -101.707697 123.093735
3869 3 82.380528 -114.730349 136.792433
3870 3 104.154588 -97.623142 100.161463
3871 2 172.411500 55.693938 206.834288
3872 3 179.411668 50.244472 235.938984
3873 3 155.625770 50.855291 220.858520
3874 2 18.186518 -181.883885 240.823838
3875 3 29.255745 -172.838370 192.334795
3876 3 66.070315 -154.395604 234.711022
3877 2 230.554397 101.609735 227.223958
3878 3 237.080948 86.868057 238.810422
3879 3 236.900409 88.056203 204.947064
3880 2 -30.403905 69.390075 304.322693
3881 3 -27.419575 114.153224 281.407996
3882 3 -39.781495 105.581915 292.257942
3883 2 -29.697385 62.193526 145.662600
3884 3 -57.380553 66.611112 131.731319
3885 3 -41.578745 40.100274 126.725883
3886 2 -22.289650 -11.994228 83.583799
3887 3 10.355208 29.452527 41.655245
3888 3 4.003809 -6.934119 71.862531
3889 2 -96.388084 127.525787 203.756596
3890 3 -106.452932 134.006469 210.019406
3891 3 -86.360617 134.933535 261.730341
3892 2 31.719809 165.366832 -20.716637
3893 3 11.375654 159.776171 -4.153611
3894 3 17.632547 176.302954 -1.693807
3895 2 46.913138 -73.876841 124.312084
3896 3 24.494869 -49.191796 118.728823
3897 3 40.611677 -80.047492 133.678511
3898 2 66.928926 59.392749 86.386247
3899 3 60.964001 31.134042 98.135169
3900 3 77.804941 59.676164 105.588244
3901 2 244.745798 81.055775 -1.310203
3902 3 237.681921 94.588982 -22.316014
3903 3 221.924724 96.507961 -30.622855
3904 2 -133.818368 -61.275120 -75.737059
3905 3 -128.686541 -95.427051 -99.046392
3906 3 -156.349098 -77.782152 -42.326953
3907 2 171.488705 202.507675 26.713179
3908 3 143.313385 191.216608 17.458576
3909 3 111.231684 189.321623 8.976807
3910 2 122.939638 84.705559 125.228065
3911 3 100.200021 125.944040 103.472431
3912 3 121.234900 71.577872 91.874748
3913 2 63.412758 -92.934856 73.067110
3914 3 46.389422 -93.674460 31.702431
3915 3 42.462289 -32.694281 31.149621
3916 2 201.230326 -46.609774 -62.189850
3917 3 206.150962 -87.061699 -52.316670
3918 3 183.887378 -56.325152 -76.311554
3919 2 -45.416828 -23.959409 164.019251
3920 3 -77.286605 -27.034023 143.875717
3921 3 -51.232144 24.312628 183.380709
3922 2 -95.759724 70.141174 69.471635
3923 3 -88.889623 70.993009 68.505664
3924 3 -115.508106 72.198257 26.117620
3925 2 51.574909 142.960697 41.165407
3926 3 51.064309 159.280405 40.163071
3927 3 41.725881 164.747486 56.046078
3928 2 -11.045672 95.041051 247.424167
3929 3 -12.603608 71.140403 284.185719
3930 3 -26.961003 82.470624 256.796701
3931 2 142.745456 72.920031 133.314486
3932 3 163.643970 91.650694 159.555475
3933 3 156.386835 105.992188 161.089911
3934 2 82.318231 8.977133 284.602396
3935 3 87.779304 14.281835 297.505593
3936 3 97.324445 -20.902675 296.631830
3937 2 -4.003823 133.209734 173.185956
3938 3 -47.493901 165.156770 160.179789
3939 3 -30.512739 182.090936 157.522067
3940 2 108.204786 -43.154966 243.901640
3941 3 85.544155 -53.045862 259.163669
3942 3 90.855872 -57.233927 224.100174
3943 2 -13.592743 -113.203854 -10.243201
3944 3 -12.758791 -111.312517 -11.172356
3945 3 9.472933 -89.466500 35.419905
3946 2 203.074757 24.775441 115.002839
3947 3 248.635116 42.233646 137.769442
3948 3 263.674657 33.925701 117.587990
3949 2 98.520624 178.177840 220.793035
3950 3 97.334854 123.066097 216.153496
3951 3 87.316194 173.336142 209.762724
3952 2 115.837159 -162.606571 -92.752555
3953 3 150.315612 -196.394717 -77.778751
3954 3 157.496626 -168.847854 -88.622838
3955 2 131.445962 -71.416080 69.747539
3956 3 159.728954 -85.346321 77.506544
3957 3 144.366654 -46.399438 51.247602
3958 2 50.810030 -31.333369 -61.325313
3959 3 83.208475 -55.495576 -4.852959
3960 3 87.890791 -56.117948 -3.573800
3961 2 -160.007604 32.822228 155.399704
3962 3 -160.581018 57.667553 157.426349
3963 3 -185.244489 77.324164 163.059005
3964 2 -101.940271 33.673080 178.613743
3965 3 -98.027363 11.238660 180.970692
3966 3 -77.643744 38.687821 153.741678
3967 2 30.345337 59.085999 252.010951
3968 3 54.988501 91.083802 244.926744
3969 3 35.948609 77.943560 242.335643
3970 2 123.415992 110.720659 206.478040
3971 3 104.262285 103.286114 213.737631
3972 3 148.285219 86.562398 205.829075
3973 2 157.787882 -1.803747 50.978223
3974 3 153.786306 -26.606995 43.235186
3975 3 142.845523 -11.078951 3.062560
3976 2 -29.577490 13.518616 155.047507
3977 3 -42.800424 6.314542 194.250047
3978 3 -57.892484 28.313378 180.528072
3979 2 76.264102 -80.633168 76.830477
3980 3 77.239741 -74.655931 26.365989
3981 3 94.085654 -81.215295 5.678572
3982 2 73.636262 -100.541985 212.276365
3983 3 78.366042 -136.318638 161.635307
3984 3 58.900932 -104.139843 181.046547
3985 2 139.155491 244.656504 19.092805
3986 3 157.280074 224.653049 18.386313
3987 3 135.571232 214.218440 7.970062
3988 2 76.870819 111.024266 150.519537
3989 3 31.301494 60.887714 160.781296
3990 3 69.540181 81.190093 139.885357
3991 2 145.293762 -24.001563 224.766004
3992 3 120.057888 -17.370716 211.190278
3993 3 137.643974 -22.885964 225.287247
3994 2 61.784581 44.158041 178.099106
3995 3 50.559716 54.949168 179.561700
3996 3 46.593168 55.612036 212.371207
3997 2 -87.694480 211.062973 4.556543
3998 3 -94.617443 226.449496 41.433843
3999 3 -71.877130 231.829319 39.455968
4000 2 -67.743479 83.439255 105.920966
4001 3 -56.592682 48.632569 64.888070
4002 3 -60.265583 61.893002 81.944608
4003 2 49.571884 -170.364679 179.725330
4004 3 34.531467 -139.130685 194.948149
4005 3 50.383660 -140.192324 168.761519
4006 2 191.078364 -64.923593 228.960118
4007 3 172.832945 -58.751725 270.604808
4008 3 195.549280 -61.083173 288.765787
4009 2 226.063564 114.377213 41.163262
4010 3 251.597189 116.121289 52.622876
4011 3 233.957686 125.126232 15.012503
4012 2 -63.423891 31.601108 252.596461
4013 3 -38.599811 40.989293 191.738933
4014 3 -78.681815 67.729098 193.122369
4015 2 -74.198587 169.456785 268.317145
4016 3 -92.119842 155.991293 292.718663
4017 3 -86.796902 125.004947 287.366722
4018 2 126.035427 140.946494 119.233026
4019 3 131.671265 139.713761 152.630580
4020 3 145.736173 145.259950 163.683061
4021 2 59.273295 -166.413344 255.801692
4022 3 29.751850 -158.727669 190.052298
4023 3 58.738265 -180.399567 233.366500
4024 2 3.914962 73.126045 119.200523
4025 3 -11.635743 62.505822 89.733592
4026 3 10.072672 85.542927 97.956805
4027 2 202.557225 85.435426 30.489835
4028 3 191.962298 75.689654 37.220119
4029 3 178.616586 80.857191 84.501818
4030 2 9.839499 249.319612 -29.122739
4031 3 29.638881 235.290103 6.991840
4032 3 31.821840 201.647979 2.562902
4033 2 -84.439672 221.611569 207.330104
4034 3 -85.953124 201.395147 194.476892
4035 3 -72.422850 247.256300 150.901192
4036 2 -50.843847 -35.432102 150.410413
4037 3 -79.041894 -56.394522 123.663155
4038 3 -60.316744 -33.979997 167.207663
4039 2 119.418041 8.544885 178.554845
4040 3 179.262879 -3.646757 189.885273
4041 3 119.180443 -3.872993 160.218279
4042 2 174.332728 -7.302122 219.234233
4043 3 173.145658 2.684913 253.416419
4044 3 161.167444 0.603319 248.039015
4045 2 -153.959293 113.147270 193.036735
4046 3 -168.798909 77.841262 181.246158
4047 3 -143.270078 70.243564 193.679981
4048 2 72.109462 140.160805 108.028374
4049 3 108.653957 139.893309 99.624472
4050 3 99.684855 166.758237 59.017193
4051 2 -153.348570 -5.103809 126.793518
4052 3 -133.070158 19.111810 96.682649
4053 3 -135.996723 39.279490 111.929640
4054 2 39.483529 -72.384342 228.765674
4055 3 57.838435 -65.152645 276.770156
4056 3 62.948803 -106.435302 308.390800
4057 2 103.129902 -61.830258 158.071034
4058 3 140.720215 -33.687767 172.927512
4059 3 109.241071 -70.364826 139.951202
4060 2 170.489876 8.591708 -20.671255
4061 3 156.845810 45.655203 -53.302550
4062 3 183.290904 7.255199 -48.651770
4063 2 41.573088 39.707591 57.314957
4064 3 55.123048 32.223681 50.730398
4065 3 28.394445 59.241177 62.377381
4066 2 106.662530 101.831345 89.666728
4067 3 120.137113 76.787408 76.173066
4068 3 91.005259 89.468491 53.525705
4069 2 4.800237 145.336944 219.432331
4070 3 24.939550 174.135857 232.536541
4071 3 52.894551 153.208407 238.293276
4072 2 -60.976816 82.527663 46.534849
4073 3 -59.512499 84.145464 -22.414135
4074 3 -63.365975 112.715704 27.152126
4075 2 158.999935 56.461773 34.174363
4076 3 161.352371 72.792341 42.395969
4077 3 155.423305 48.517562 40.046827
4078 2 105.776144 38.445358 123.224521
4079 3 116.007973 65.866471 156.842822
4080 3 114.833764 64.749754 167.037778
4081 2 13.043786 100.222071 173.397238
4082 3 28.215101 108.681468 182.055358
4083 3 7.287871 94.631349 236.314403
4084 2 -144.923334 175.868066 103.949842
4085 3 -127.850429 163.803589 125.909053
4086 3 -101.980833 150.727114 76.457282
4087 2 65.495255 147.547123 47.205157
4088 3 54.690902 125.090745 34.547075
4089 3 31.656933 125.220734 -14.267580
4090 2 -166.725785 21.790137 249.345637
4091 3 -171.090717 19.928846 268.035129
4092 3 -153.019280 16.062026 245.713932
4093 2 -4.634110 -10.733809 31.182890
4094 3 -5.370114 -3.041355 21.776070
4095 3 -33.354223 48.652555 -0.808238
4096 2 -40.975738 101.025465 -9.689917
4097 3 -29.507421 88.285514 26.875210
4098 3 -20.701967 124.477708 44.859198
4099 2 26.186296 162.870851 106.101267
4100 3 20.507180 187.747234 99.554291
4101 3 22.137462 187.459554 110.011371
4102 2 32.323944 80.902074 -4.458826
4103 3 17.868306 99.164347 -17.271156
4104 3 52.646536 83.336630 4.856110
4105 2 39.711530 23.301769 144.254476
4106 3 46.874536 52.316717 140.176580
4107 3 39.385627 61.403093 141.047105
4108 2 88.840338 77.415253 276.033194
4109 3 95.176989 80.859514 292.465487
4110 3 113.549480 64.371141 260.452375
4111 2 -90.965372 11.944299 82.806063
4112 3 -98.511654 -2.848147 47.906177
4113 3 -50.826881 -5.828226 42.716508
4114 2 -20.225776 200.661312 217.375462
4115 3 -29.337753 151.946695 178.092500
4116 3 -28.241045 144.020208 179.459477
4117 2 -199.001281 9.222990 209.157747
4118 3 -214.706823 -4.336441 205.127060
4119 3 -224.344828 31.356072 219.648419
4120 2 31.335986 88.544603 199.116670
4121 3 24.944440 126.285497 231.497949
4122 3 22.139181 107.243873 211.782542
4123 2 -111.943235 224.103642 132.559091
4124 3 -116.770273 226.397086 84.852590
4125 3 -105.642346 215.761021 128.788961
4126 2 57.355022 158.037105 109.192585
4127 3 43.838015 112.369168 63.946733
4128 3 49.475175 140.118173 92.110815
4129 2 55.287133 7.841497 100.065210
4130 3 40.050739 20.581492 162.843987
4131 3 57.433567 6.920988 103.467108
4132 2 81.497673 89.590027 61.722608
4133 3 60.507448 106.783662 59.099806
4134 3 75.436230 142.431109 72.281874
4135 2 -16.011479 73.289730 133.803235
4136 3 1.364268 43.965439 114.272926
4137 3 0.869818 52.746732 124.437500
4138 2 -65.975531 47.286936 -9.439788
4139 3 -51.644962 48.394888 27.359688
4140 3 -51.726462 37.152306 65.839464
4141 2 51.943171 18.516565 90.923664
4142 3 40.605023 28.711511 144.141994
4143 3 40.081434 22.531229 142.285898
4144 2 -40.348673 162.517777 210.757438
4145 3 -80.834744 171.227597 178.007751
4146 3 -58.376726 162.151050 144.929624
4147 2 -46.595498 174.983435 -7.196861
4148 3 -61.276601 226.300478 -17.421837
4149 3 -68.622125 236.323234 25.929770
4150 2 -61.479626 59.261813 33.104649
4151 3 -40.987527 50.859228 75.932875
4152 3 -35.150439 44.682146 110.238115
4153 2 152.732804 235.873932 140.413270
4154 3 173.590041 237.221396 106.231591
4155 3 157.521104 264.124434 115.392355
4156 2 -90.843624 61.882918 232.421698
4157 3 -71.290152 64.089447 174.813149
4158 3 -73.961346 63.659580 206.342180
4159 2 75.131737 25.506907 68.890932
4160 3 72.798714 42.140096 104.148060
4161 3 50.612603 38.962998 74.887696
4162 2 -96.513011 129.804833 74.910456
4163 3 -112.264329 150.454379 111.656933
4164 3 -102.613383 132.278304 89.939965
4165 2 106.322301 90.961833 77.814798
4166 3 113.555950 112.985147 82.601355
4167 3 129.501414 84.749857 90.442595
4168 2 -26.577528 137.947031 44.005268
4169 3 -38.090949 153.710818 44.392738
4170 3 -29.542862 187.522743 43.371119
4171 2 119.638605 161.216093 169.673745
4172 3 110.226662 119.530318 212.532401
4173 3 119.728634 139.008442 207.264729
4174 2 -18.668943 160.615463 191.324692
4175 3 -40.178426 139.408026 221.546917
4176 3 -16.984985 128.759455 204.232115
4177 2 -6.818516 52.176750 191.865457
4178 3 -1.780003 71.847156 169.822908
4179 3 14.339407 80.370977 210.136021
4180 2 65.802496 -0.998082 221.261007
4181 3 57.751324 -32.197417 241.633370
4182 3 52.139058 -2.790000 247.479190
4183 2 -148.828194 173.751949 117.952965
4184 3 -190.911953 156.909556 102.885980
4185 3 -175.346991 171.554185 73.798089
4186 2 125.721112 40.870042 117.021061
4187 3 113.542060 46.946931 117.771714
4188 3 133.040821 53.645066 98.531429
4189 2 -64.885941 30.964318 160.663870
4190 3 -23.146031 73.154158 156.305508
4191 3 -14.563880 99.841553 113.500952
4192 2 100.100410 44.974319 130.980085
4193 3 127.282188 33.266076 191.379918
4194 3 118.125671 13.632280 161.573244
4195 2 -68.486832 207.183950 154.507268
4196 3 -61.241924 154.339804 101.049416
4197 3 -65.824524 145.932200 115.073094
4198 2 -257.042583 28.789169 112.757735
4199 3 -279.656902 28.272313 82.059428
4200 3 -248.239901 48.412739 101.252855
4201 2 -69.194227 -35.152677 60.892322
4202 3 -105.310541 -16.416507 27.129773
4203 3 -61.543088 -22.493948 34.110621
4204 2 -24.446748 192.403303 265.657809
4205 3 -15.099465 163.991802 213.163764
4206 3 -26.817425 221.421621 312.844677
4207 2 129.932251 169.123598 156.871561
4208 3 152.885919 228.713535 171.759924
4209 3 145.639938 248.893011 156.892559
4210 2 -120.881172 157.445218 198.982212
4211 3 -102.300609 145.982541 197.354992
4212 3 -77.809350 140.336727 208.567458
4213 2 131.844754 148.727568 83.878902
4214 3 128.582933 174.031404 123.703242
4215 3 98.790877 190.325911 119.579688
4216 2 -9.362047 -16.899927 191.957438
4217 3 -2.151596 10.034729 223.055382
4218 3 -6.187380 -22.359607 171.745236
4219 2 46.599035 154.405851 44.201050
4220 3 46.041986 166.903742 62.406517
4221 3 25.631634 119.944026 49.839569
4222 2 -82.225518 201.662484 202.359025
4223 3 -91.168256 226.856545 218.993217
4224 3 -73.591537 181.456857 226.329419
4225 2 -134.909043 171.278471 83.740597
4226 3 -150.728100 185.920972 102.079105
4227 3 -139.544586 187.236233 83.629416
4228 2 204.414474 189.130687 146.032954
4229 3 210.568485 207.882952 99.315498
4230 3 203.167455 193.792184 89.067886
4231 2 146.270147 46.034972 15.036220
4232 3 187.362153 64.803535 -9.089383
4233 3 165.139994 61.867501 20.539775
4234 2 -56.570915 -7.071155 98.601260
4235 3 -95.537342 -2.329449 107.696234
4236 3 -91.288599 -60.093808 72.764184
4237 2 -38.435147 -114.019412 296.236447
4238 3 -16.956357 -96.218882 320.462563
4239 3 -32.382704 -150.549787 321.651038
4240 2 -32.167461 12.742828 189.728636
4241 3 -52.052757 -2.408112 205.520820
4242 3 -13.055746 33.926159 220.950188
4243 2 76.123621 41.358372 0.652766
4244 3 99.736627 36.426378 61.429221
4245 3 79.546395 -28.678594 26.926504
4246 2 -120.869624 -112.834511 151.643459
4247 3 -112.385190 -117.083561 168.282881
4248 3 -113.163645 -86.896429 192.092431
4249 2 40.139389 -19.298787 296.448180
4250 3 22.750519 -7.112367 334.724269
4251 3 39.212038 -45.141937 362.899459
4252 2 -16.878696 -163.568957 57.954030
4253 3 -40.539416 -151.704248 55.305336
4254 3 -22.585746 -179.176230 54.130718
4255 2 -159.147408 16.960460 -13.234878
4256 3 -150.135274 17.085934 6.353342
4257 3 -129.533007 5.654886 -37.323114
4258 2 138.469227 -124.953937 293.919132
4259 3 147.976573 -160.703025 274.163241
4260 3 149.004883 -144.314844 313.368853
4261 2 -49.217010 45.258478 221.331991
4262 3 -69.841647 26.170055 177.704313
4263 3 -68.790807 28.305171 231.897484
4264 2 14.348351 47.608680 252.674697
4265 3 30.317150 12.055284 260.268245
4266 3 31.636532 20.640647 229.122530
4267 2 13.704823 -48.964773 124.448562
4268 3 -12.648305 -35.342537 141.829919
4269 3 4.312880 -61.457883 143.323051
4270 2 110.001845 71.795176 201.962332
4271 3 120.095140 88.225670 176.314455
4272 3 130.179690 92.395977 187.377850
4273 2 90.496200 26.170476 66.021103
4274 3 96.172471 26.783211 76.257284
4275 3 94.645018 28.893457 71.345578
4276 2 -51.159598 95.370764 291.213279
4277 3 -20.329976 114.326880 244.905303
4278 3 -30.356197 149.268415 254.070219
4279 2 -208.628217 -62.982583 80.597401
4280 3 -151.719299 -72.175960 89.122425
4281 3 -170.010777 -54.328199 73.490240
4282 2 -64.340560 38.546102 241.295224
4283 3 -44.819231 37.776298 301.632561
4284 3 -57.485138 11.642806 271.806366
4285 2 -2.946073 110.929543 173.737497
4286 3 15.748873 107.333152 141.802768
4287 3 18.228549 137.495836 149.856972
4288 2 46.703645 130.386184 175.038242
4289 3 38.977722 122.884436 169.525061
4290 3 45.451556 105.352688 206.454459
4291 2 90.547220 52.297472 114.941091
4292 3 105.379836 45.157732 136.293544
4293 3 82.728978 40.042150 157.978664
4294 2 63.122301 -4.250599 285.379951
4295 3 40.403638 11.784470 242.077891
4296 3 66.763307 32.616812 264.695514
4297 2 15.291386 47.600384 113.957189
4298 3 -7.004613 16.933707 103.530388
4299 3 -22.520324 32.334308 95.991817
4300 2 76.587440 -105.983461 92.409576
4301 3 32.435026 -97.321360 107.703771
4302 3 84.738750 -123.171965 119.778514
4303 2 91.136657 24.822740 99.074528
4304 3 133.093795 8.892522 106.253936
4305 3 140.205431 28.520878 151.000859
4306 2 200.065109 193.409690 164.051034
4307 3 204.961464 188.626300 130.720192
4308 3 188.932091 197.566419 136.339342
4309 2 249.906157 43.375351 25.741440
4310 3 232.194847 5.919566 14.739730
4311 3 221.341425 67.197146 8.568200
4312 2 -27.197871 54.266229 121.734083
4313 3 -36.932671 79.849208 137.155876
4314 3 -50.056807 51.285370 140.639230
4315 2 -49.216326 53.924790 93.027884
4316 3 -93.021253 13.381057 104.916214
4317 3 -65.341360 28.866657 72.448364
4318 2 -109.535250 87.856928 123.354615
4319 3 -123.485066 79.864519 132.683428
4320 3 -135.579049 121.764618 114.857781
4321 2 -51.652228 75.311760 106.623331
4322 3 -61.192081 53.479788 169.111133
4323 3 -41.559592 53.244509 139.184348
4324 2 104.325963 169.828195 250.082728
4325 3 77.612872 168.896324 248.148507
4326 3 96.108510 176.603786 228.649649
4327 2 52.667793 -7.789965 137.291875
4328 3 25.044816 -27.075744 111.762680
4329 3 36.016226 -21.454826 104.007827
4330 2 104.897590 -6.271079 209.629484
4331 3 91.627795 -60.893165 223.537046
4332 3 71.902085 -23.166262 159.323629
4333 2 84.648604 -63.467190 141.637108
4334 3 74.670839 -50.330612 161.036558
4335 3 74.307383 -74.933713 142.829624
4336 2 220.735497 50.311279 88.507355
4337 3 227.603047 45.745796 61.687356
4338 3 218.648125 43.241316 66.342919
4339 2 88.872229 -32.928283 199.430165
4340 3 77.195303 -38.584296 183.325944
4341 3 103.700629 3.208090 240.673345
4342 2 214.165328 107.801649 112.999074
4343 3 239.969687 145.416143 152.296585
4344 3 228.667741 123.795629 89.910258
4345 2 68.210013 -3.975807 337.246656
4346 3 83.364961 4.943440 306.447962
4347 3 71.432418 23.728513 294.603986
4348 2 102.924516 63.680619 31.149716
4349 3 163.380692 41.637699 32.528796
4350 3 132.063969 38.339979 81.242354
4351 2 -110.429820 94.136807 -56.405835
4352 3 -98.884872 75.569202 -46.409983
4353 3 -117.451422 107.582001 -42.721446
4354 2 -103.149477 -231.053962 265.438787
4355 3 -103.345607 -205.876656 222.735595
4356 3 -79.903445 -234.077075 294.618526
4357 2 -121.827952 228.787276 204.616575
4358 3 -123.945286 223.236405 238.259196
4359 3 -118.580317 225.898280 221.139207
4360 2 57.846394 -75.666529 229.967250
4361 3 60.394574 -92.552833 217.510492
4362 3 59.076186 -122.242694 197.888966
4363 2 -47.271790 -100.664174 234.975121
4364 3 -41.485814 -72.015737 247.054929
4365 3 -67.553869 -118.496191 245.116041
4366 2 13.018775 82.139513 86.607284
4367 3 14.930151 56.744018 83.582138
4368 3 40.636717 93.545087 81.503270
4369 2 -43.892375 128.679268 -17.003910
4370 3 -52.978073 113.944119 -33.314906
4371 3 -55.155214 138.527432 39.059027
4372 2 155.482096 2.286321 162.062981
4373 3 174.857680 37.405773 141.807011
4374 3 167.038409 33.279288 145.880405
4375 2 55.171868 -23.673952 270.735704
4376 3 72.447854 5.289450 325.943573
4377 3 65.915403 7.110313 284.493549
4378 2 84.205781 44.879726 164.948544
4379 3 62.937020 60.165465 179.354543
4380 3 58.179027 53.308390 141.761224
4381 2 -7.742897 89.975349 205.368796
4382 3 7.047651 75.492481 240.931891
4383 3 1.265430 71.070996 232.514602
4384 2 47.842431 -40.174116 170.278767
4385 3 64.659999 -4.861312 174.054682
4386 3 50.070306 -21.084963 181.374490
4387 2 -95.728209 -31.768265 91.378766
4388 3 -121.660577 -30.132291 97.893728
4389 3 -96.279758 -13.230852 115.100744
4390 2 87.378972 103.309019 -8.503928
4391 3 82.981705 60.837277 -11.824106
4392 3 69.853023 56.306690 7.155334
4393 2 -6.789125 128.973113 205.408191
4394 3 0.435813 56.188993 204.075072
4395 3 -8.162454 145.267970 220.662101
4396 2 205.729331 -19.372098 128.584903
4397 3 222.810667 -0.247748 108.769792
4398 3 195.617771 -53.587423 143.314942
4399 2 160.797789 99.697812 69.318015
4400 3 184.939735 72.539547 12.724560
4401 3 160.666070 92.234895 14.285399
4402 2 145.621759 -25.651212 212.127183
4403 3 131.151823 -16.410604 175.715863
4404 3 156.688628 9.094206 230.811896
4405 2 304.629164 -176.411970 210.013353
4406 3 280.543470 -160.440402 237.885290
4407 3 272.796732 -161.186537 242.330827
4408 2 -25.730700 160.448733 207.464728
4409 3 -4.066333 146.834718 202.281141
4410 3 -6.359328 137.208263 208.669145
4411 2 -186.290005 -40.674866 179.687799
4412 3 -200.446723 -31.831419 173.365722
4413 3 -184.613270 -37.408111 152.382128
4414 2 -146.835886 212.201698 312.655067
4415 3 -147.280872 200.058599 345.496311
4416 3 -133.139487 162.877967 275.917059
4417 2 -26.488097 99.198055 223.268831
4418 3 -64.981183 111.919023 229.182332
4419 3 -53.358032 95.627929 254.590668
4420 2 240.047212 203.907031 171.523050
4421 3 251.739692 185.872607 178.727092
4422 3 235.024204 175.498587 168.432811
4423 2 237.002535 81.277571 122.539722
4424 3 231.569643 113.831448 131.936622
4425 3 220.330148 82.003473 99.014966
4426 2 -22.878732 77.457236 152.596214
4427 3 -36.227599 76.954339 143.157401
4428 3 -19.482996 58.291898 136.974671
4429 2 -52.053996 116.633461 48.286333
4430 3 -54.200861 116.862635 68.932264
4431 3 -15.105705 93.945491 30.190602
4432 2 -16.358237 140.633294 148.639832
4433 3 -15.983106 184.447372 188.524292
4434 3 5.078340 145.804818 186.624577
4435 2 54.728321 12.650122 193.379882
4436 3 44.390954 1.182334 199.755358
4437 3 35.126700 17.213168 211.923642
4438 2 215.169505 -97.247703 149.752397
4439 3 198.774138 -41.333884 164.666261
4440 3 201.403445 -89.807517 114.843287
4441 2 354.651860 -18.918603 172.856824
4442 3 328.937006 -34.574842 160.001508
4443 3 354.522002 0.168015 195.799512
4444 2 23.339746 216.051377 287.990667
4445 3 -17.037274 244.009714 305.804901
4446 3 11.907038 237.224528 290.759736
4447 2 52.519063 146.572140 4.311588
4448 3 32.060673 175.949789 13.501447
4449 3 55.480305 154.471518 19.680924
4450 2 -77.516912 -58.117692 129.690558
4451 3 -74.635346 -53.679211 142.749424
4452 3 -84.200491 -22.542700 114.056912
4453 2 84.458058 -28.328060 110.714068
4454 3 90.482415 -22.375799 108.817416
4455 3 112.382481 -30.262983 126.432953
4456 2 62.468795 -59.261267 55.969441
4457 3 80.967661 -76.834264 93.951642
4458 3 73.269238 -80.983095 95.026985
4459 2 114.303956 107.166567 130.051760
4460 3 112.796587 112.058712 134.567801
4461 3 134.756713 144.852521 173.005360
4462 2 -98.535972 150.432211 91.222439
4463 3 -80.453041 94.398914 73.723175
4464 3 -86.231302 97.361491 60.398356
4465 2 81.934506 136.003460 131.104053
4466 3 97.786570 161.609185 140.526563
4467 3 78.906721 120.165530 137.916300
4468 2 -23.887033 124.292718 46.328248
4469 3 27.054302 129.983377 59.388382
4470 3 -2.899374 150.718995 74.754663
4471 2 -68.832453 -102.990285 221.393675
4472 3 -50.070716 -64.389269 174.525265
4473 3 -57.905610 -82.931706 214.810193
4474 2 137.153002 75.976989 55.050407
4475 3 144.024397 74.551652 47.165119
4476 3 135.682935 77.059568 52.315793
4477 2 -130.561403 113.548914 208.409345
4478 3 -125.386143 99.423040 211.160811
4479 3 -120.685807 110.739353 198.680748
4480 2 -3.892504 26.843675 280.582669
4481 3 9.181872 14.145817 289.684775
4482 3 13.656813 -3.002609 292.813099
4483 2 164.700578 173.905193 57.693527
4484 3 147.543271 143.481163 87.107893
4485 3 145.949225 173.764067 96.607011
4486 2 -81.397257 40.831650 -33.899203
4487 3 -52.903253 24.271271 1.559223
4488 3 -64.269099 54.119538 35.556402
4489 2 -59.556616 115.986640 130.174704
4490 3 -87.196064 51.349920 110.490803
4491 3 -69.579769 103.359300 108.291237
4492 2 20.098196 -103.982592 60.364903
4493 3 9.790131 -111.853212 36.419661
4494 3 30.453997 -103.865018 40.516181
4495 2 -152.098433 -21.549792 124.598898
4496 3 -108.183960 -13.654869 110.663012
4497 3 -147.157079 18.661755 93.893099
4498 2 31.230922 2.763088 176.843540
4499 3 32.572095 7.736478 195.689410
4500 3 36.820735 -3.590823 185.538970
4501 2 -36.247948 -3.476222 181.000436
4502 3 -27.386149 22.215161 190.368358
4503 3 -34.623305 -3.470916 152.337917
4504 2 80.385176 128.649779 173.386259
4505 3 65.896888 136.800126 171.051719
4506 3 102.887898 165.692508 103.660648
4507 2 -17.676283 260.321128 214.237433
4508 3 -34.293676 278.508888 221.355480
4509 3 -7.826946 230.203251 230.814221
4510 2 55.054222 182.884448 175.233830
4511 3 50.436298 152.237751 148.005895
4512 3 65.611823 193.778622 200.778192
4513 2 21.809491 -96.695225 244.998152
4514 3 35.656500 -108.040859 226.099067
4515 3 4.901547 -90.758735 249.757885
4516 2 48.876990 124.484322 321.218880
4517 3 26.833266 146.740094 323.275952
4518 3 27.310679 159.126127 319.684601
4519 2 27.854030 -46.002979 126.467375
4520 3 59.135849 -62.657523 109.099506
4521 3 29.769555 -47.690442 86.142375
4522 2 61.157586 207.814517 211.429929
4523 3 85.119461 212.259429 222.176785
4524 3 79.637811 177.532890 223.965033
4525 2 33.119243 242.446257 113.207533
4526 3 41.263907 269.940164 90.051441
4527 3 61.704624 254.374231 117.336733
4528 2 206.366220 -134.659866 113.016456
4529 3 202.947574 -138.796541 69.355417
4530 3 192.970000 -121.800173 54.991675
4531 2 29.114334 31.682435 136.027775
4532 3 28.008809 32.991817 57.723894
4533 3 43.444901 41.686302 90.473165
4534 2 24.690061 87.803014 210.937766
4535 3 15.603972 56.966464 218.129694
4536 3 6.398710 96.786724 233.065054
4537 2 -30.359038 13.304714 231.013665
4538 3 -47.560143 -9.749858 251.009392
4539 3 -62.969118 -2.327195 296.519552
4540 2 -49.395817 58.842795 103.798206
4541 3 -64.851116 36.220831 62.499818
4542 3 -58.152507 46.619554 62.515363
4543 2 167.220500 3.157268 199.362484
4544 3 159.130298 45.916819 186.008695
4545 3 161.745209 3.886088 219.310623
4546 2 230.678240 -108.289084 261.990842
4547 3 250.817699 -117.077723 231.491307
4548 3 270.205694 -118.417159 227.769852
4549 2 -56.964734 163.133521 232.657456
4550 3 -31.955130 174.919547 257.676073
4551 3 -47.728128 180.443233 234.584000
4552 2 14.349454 121.302932 380.838741
4553 3 31.750108 124.856097 392.858821
4554 3 17.220642 92.808066 392.834501
4555 2 -24.022612 206.863307 196.499736
4556 3 -20.545934 227.761063 167.905461
4557 3 -0.178149 175.360806 200.405431
4558 2 85.021175 28.931101 5.079707
4559 3 81.925903 33.566217 -4.837910
4560 3 59.451317 39.377445 -31.922769
4561 2 -92.298322 113.969404 206.285091
4562 3 -89.925267 127.680681 221.551197
4563 3 -100.424613 142.238342 222.262825
4564 2 10.089568 122.042423 187.191617
4565 3 11.302745 108.442746 171.954488
4566 3 -1.249859 121.793932 163.725463
4567 2 -144.511329 89.103915 115.358690
4568 3 -150.128433 102.595414 129.469405
4569 3 -171.696547 138.397891 130.603467
4570 2 2.303961 115.471975 259.232863
4571 3 37.933049 102.464824 284.624132
4572 3 -24.239248 74.807031 241.070445
4573 2 19.570124 146.135922 55.931846
4574 3 17.503014 175.801897 86.934599
4575 3 32.280352 141.359047 88.297485
4576 2 2.592962 1.007609 117.590048
4577 3 -19.289701 -41.716405 92.427571
4578 3 22.643877 -10.210829 100.902346
4579 2 -41.644500 232.679542 197.650072
4580 3 -32.257937 220.952995 165.982745
4581 3 -38.420141 210.242535 193.752219
4582 2 -104.753864 183.969167 118.639720
4583 3 -112.074350 149.895713 113.825260
4584 3 -110.170783 184.546535 131.689120
4585 2 72.902479 0.990329 83.640972
4586 3 96.198415 -8.110880 156.369822
4587 3 112.512215 -23.741562 89.319872
4588 2 10.728586 -89.828810 92.206995
4589 3 -28.322252 -68.702777 139.012360
4590 3 -7.077404 -109.648073 118.762544
4591 2 35.643699 181.415000 135.836477
4592 3 35.041030 171.318564 115.288389
4593 3 46.437721 178.858004 87.159941
4594 2 64.108838 188.186121 149.006828
4595 3 51.487715 165.986726 163.022175
4596 3 18.891592 169.397716 155.910632
4597 2 -4.667517 148.804304 283.432169
4598 3 -17.765566 166.322604 307.666773
4599 3 -17.938207 139.295598 327.702133
4600 2 -112.646495 163.040926 40.095828
4601 3 -116.226476 145.381599 44.760463
4602 3 -126.049124 136.884959 49.847570
4603 2 -109.559198 88.001612 217.062539
4604 3 -99.321576 79.063261 228.304749
4605 3 -116.615581 103.630970 250.927983
4606 2 9.698009 143.360296 237.872318
4607 3 16.652623 121.164383 243.804787
4608 3 -9.765621 110.176445 260.130005
4609 2 -33.735218 168.262792 69.956528
4610 3 -29.953505 197.512125 81.050230
4611 3 -33.308078 182.980098 70.360141
4612 2 9.375988 97.358177 45.614657
4613 3 -12.190380 88.225731 48.262830
4614 3 5.707319 108.896905 33.956328
4615 2 86.046176 117.996798 100.517609
4616 3 66.012809 155.497853 107.062897
4617 3 48.355949 132.510428 97.160065
4618 2 64.350155 315.172650 186.097300
4619 3 22.835882 265.306598 163.928736
4620 3 71.844823 260.698803 221.960881
4621 2 18.968036 119.501924 203.342576
4622 3 49.204287 133.014754 204.385209
4623 3 22.984081 121.292912 186.963812
4624 2 231.514722 279.622115 146.630310
4625 3 226.790007 306.913714 147.975718
4626 3 238.270766 297.578222 128.312888
4627 2 -48.083086 254.757014 92.865329
4628 3 -59.711679 236.625845 96.376678
4629 3 -50.240359 280.874553 119.420643
4630 2 182.673316 -34.815157 36.582927
4631 3 178.605937 -50.271703 5.839647
4632 3 184.682386 -45.462649 24.822640
4633 2 -44.876673 31.795133 190.229988
4634 3 -68.266157 8.472047 221.516508
4635 3 -61.028570 32.972702 191.907932
4636 2 70.674589 -92.206859 72.201600
4637 3 58.007203 -65.462448 90.536071
4638 3 61.857206 -47.836851 120.531372
4639 2 -40.485254 55.068198 188.601919
4640 3 -40.529100 42.041591 220.866140
4641 3 -26.679941 59.813029 184.315547
4642 2 31.512993 -52.086297 87.854418
4643 3 10.645981 -28.900493 86.016963
4644 3 25.863252 -1.386931 35.518329
4645 2 192.112418 66.457556 137.270406
4646 3 180.963512 40.309388 141.146947
4647 3 162.097338 45.724744 134.372591
4648 2 -15.197749 -10.512622 185.884829
4649 3 -17.626107 -5.200493 267.000743
4650 3 6.596461 28.229616 241.901935
4651 2 -176.342369 -11.646890 109.087964
4652 3 -180.137313 20.713911 123.159940
4653 3 -183.441471 -10.246220 148.714119
4654 2 -12.958408 -163.497907 64.459773
4655 3 33.072227 -158.960310 58.745519
4656 3 24.990948 -144.516803 119.015037
4657 2 92.120954 103.210260 152.834601
4658 3 82.309905 110.543050 164.089294
4659 3 74.954564 86.759339 194.036634
4660 2 14.837475 96.158711 133.816078
4661 3 6.203576 81.975208 121.701147
4662 3 5.322137 66.556171 178.331228
4663 2 123.696993 -184.224509 89.782129
4664 3 132.749652 -193.267652 46.629680
4665 3 127.213623 -183.754164 36.381452
4666 2 35.641653 25.402482 98.453812
4667 3 32.249252 2.317800 85.391593
4668 3 55.994457 31.799561 91.349253
4669 2 4.262142 1.796363 155.620165
4670 3 14.399744 35.207886 150.161804
4671 3 29.929366 22.670831 154.722627
4672 2 -36.261401 71.340910 130.718126
4673 3 -47.375026 53.937513 137.111011
4674 3 -23.041242 68.882278 154.837858
4675 2 -99.574093 120.383020 182.249027
4676 3 -86.156353 118.302321 199.010314
4677 3 -97.980786 122.974499 180.023325
4678 2 75.293332 -38.392151 112.669656
4679 3 69.071286 -27.337162 107.024001
4680 3 76.474258 -26.493910 117.420661
4681 2 47.423174 -26.923233 43.685807
4682 3 62.082639 0.036538 36.835599
4683 3 61.449630 -12.008232 47.548350
4684 2 -80.552369 97.064202 319.333354
4685 3 -73.788677 60.087201 338.754272
4686 3 -61.267979 42.255155 272.025757
4687 2 -59.162483 23.290429 295.298472
4688 3 -67.880405 6.408100 304.092969
4689 3 -52.032205 12.151379 304.479330
4690 2 129.246838 14.882528 231.957342
4691 3 134.379170 38.725172 200.071270
4692 3 139.048139 -1.434188 210.874975
4693 2 14.853497 -82.754835 72.069988
4694 3 6.133587 -68.754031 63.521573
4695 3 43.219435 -99.482436 62.095919
4696 2 191.198189 -24.003296 79.301043
4697 3 191.785715 -41.933666 69.093029
4698 3 216.236073 -30.603734 81.739891
4699 2 26.728487 5.083535 30.800579
4700 3 6.537245 7.456873 42.257166
4701 3 -3.306265 13.675725 39.537504
4702 2 176.709063 70.236376 30.016177
4703 3 147.756311 88.523150 95.311935
4704 3 177.540676 97.897328 90.842089
4705 2 105.598422 -194.559940 0.973995
4706 3 80.660476 -164.324336 20.688051
4707 3 79.474774 -189.507176 -6.978316
4708 2 162.104869 -98.209168 160.114036
4709 3 178.804051 -65.153451 180.825606
4710 3 187.109044 -84.488435 157.564977
4711 2 -126.778377 68.793987 241.915847
4712 3 -121.176815 36.457546 255.823520
4713 3 -95.209432 67.818982 268.252232
4714 2 70.279750 -65.224729 210.339506
4715 3 86.722018 -65.561078 210.058376
4716 3 62.045732 -62.515333 191.253653
4717 2 2.384161 19.040601 279.607994
4718 3 -11.213244 23.420087 307.954195
4719 3 9.069566 10.378023 298.835335
4720 2 -11.738070 69.738652 266.719705
4721 3 2.877750 10.828098 239.164087
4722 3 10.027409 29.188166 222.027086
4723 2 -104.947603 78.778640 171.384911
4724 3 -94.223976 121.557391 167.598738
4725 3 -124.374410 110.015264 176.778018
4726 2 0.155287 74.257726 176.942312
4727 3 -5.286644 56.475834 156.368419
4728 3 -15.520060 74.453911 181.221931
4729 2 -205.279504 150.729744 216.322422
4730 3 -200.776888 151.417388 208.715330
4731 3 -211.590488 153.156150 230.422823
4732 2 -63.632752 5.568051 76.426948
4733 3 -58.226230 26.336866 63.492802
4734 3 -36.908403 13.991877 93.396301
4735 2 -14.455379 -70.813907 150.579939
4736 3 -13.345639 -85.238052 120.268647
4737 3 5.654267 -94.168653 110.843636
4738 2 54.602241 18.186704 224.645957
4739 3 22.398304 11.513982 162.279862
4740 3 7.184424 10.729281 187.915681
4741 2 92.457973 -45.918686 366.392961
4742 3 72.628183 -51.885334 350.847126
4743 3 94.078549 -95.034506 314.554118
4744 2 217.421763 36.284693 132.299198
4745 3 181.001745 7.619567 121.586193
4746 3 165.767010 72.630359 150.715411
4747 2 118.404065 28.867770 37.877783
4748 3 110.878778 32.151859 88.925886
4749 3 125.619467 -2.403284 61.264387
4750 2 -152.384018 78.794396 150.492607
4751 3 -170.999758 47.956856 167.765504
4752 3 -167.207500 91.998309 146.381969
4753 2 -43.830885 29.719700 207.541634
4754 3 -22.003993 73.125657 215.068720
4755 3 -13.166380 48.840189 181.857832
4756 2 19.844422 92.109749 188.675467
4757 3 41.238886 66.544844 191.249741
4758 3 1.020994 79.169953 178.928861
4759 2 34.807012 143.061585 56.969405
4760 3 38.405910 123.695273 37.386647
4761 3 63.692708 120.943191 76.519511
4762 2 -12.327303 -132.498197 171.301805
4763 3 -5.195293 -151.239012 164.833267
4764 3 -17.314541 -122.589002 150.853236
4765 2 57.568752 38.068260 259.371085
4766 3 59.266202 9.750860 213.279548
4767 3 55.940596 23.548247 239.256899
4768 2 102.002442 -19.476274 -39.344947
4769 3 99.029473 15.736525 -40.935163
4770 3 89.772740 -18.190219 -48.638914
4771 2 48.100483 136.977287 182.281041
4772 3 57.228295 136.785728 229.826057
4773 3 62.561849 143.671315 170.665635
4774 2 165.787753 -12.723071 117.535080
4775 3 139.039474 -24.666769 153.266325
4776 3 134.474875 -12.675036 95.707503
4777 2 39.845588 -139.236264 42.665696
4778 3 66.186279 -144.072762 53.377403
4779 3 37.009125 -149.701677 0.950699
4780 2 80.809166 -20.567573 46.944487
4781 3 61.631472 -21.479012 83.556453
4782 3 74.632736 -18.817491 112.648778
4783 2 151.384410 -134.630080 -10.746894
4784 3 141.384626 -137.897527 32.808820
4785 3 159.378427 -126.905787 -7.807823
4786 2 85.148000 87.956843 64.376782
4787 3 118.186625 108.693267 73.472033
4788 3 88.239007 77.518186 81.292321
4789 2 -88.000599 130.419269 179.497064
4790 3 -86.845451 117.743936 151.330158
4791 3 -68.350300 102.852609 144.057042
4792 2 -73.716113 121.785151 176.382985
4793 3 -78.719031 103.843990 152.824849
4794 3 -59.713620 104.737979 148.264958
4795 2 -138.663758 -27.728771 175.898387
4796 3 -162.312218 -54.552887 172.179027
4797 3 -156.604438 -20.835666 163.685339
4798 2 -36.967600 170.168756 90.889362
4799 3 -17.364596 136.012537 83.430184
4800 3 7.028145 176.129671 47.699628
4801 2 79.351338 6.640492 122.357798
4802 3 79.191111 2.174201 89.537280
4803 3 76.539575 -6.623958 87.717561
4804 2 32.057860 23.450429 163.006205
4805 3 29.935247 27.112919 191.890237
4806 3 35.245126 20.025923 160.812720
4807 2 127.414030 104.041736 272.067457
4808 3 146.921813 117.285436 238.562930
4809 3 140.736706 122.082197 264.516293
4810 2 261.300246 -72.990317 172.522543
4811 3 262.257046 -83.612607 151.341349
4812 3 282.576131 -56.633168 182.491096
4813 2 123.976280 113.579460 75.385352
4814 3 151.924066 120.124691 58.652949
4815 3 124.176280 122.045114 74.763898
4816 2 -95.981404 88.687242 255.852452
4817 3 -67.944588 114.700837 209.986968
4818 3 -85.308446 72.495021 228.192526
4819 2 1.381376 248.442781 153.889347
4820 3 -24.617106 213.426312 169.617707
4821 3 -1.557474 271.779077 205.501889
4822 2 -126.032201 -57.057740 242.037186
4823 3 -136.419106 -58.916175 268.547072
4824 3 -130.102933 -60.314118 267.824668
4825 2 53.478275 127.762290 354.598988
4826 3 34.760747 146.459256 336.422417
4827 3 38.777192 141.369546 331.199916
4828 2 240.136397 4.678881 159.934021
4829 3 235.752841 5.790778 141.911707
4830 3 248.337636 -13.626216 169.846250
4831 2 84.526487 38.738081 314.415970
4832 3 51.041761 83.929570 315.544939
4833 3 70.473646 24.841576 283.090554
4834 2 -28.219433 -92.113361 -14.359727
4835 3 -20.043595 -102.460902 8.580795
4836 3 -14.827049 -67.690119 27.478184
4837 2 241.590663 -16.792250 241.954559
4838 3 244.574306 -25.950786 185.846062
4839 3 255.216685 -28.454080 222.835954
4840 2 26.964775 159.075421 21.302312
4841 3 42.673418 145.791324 29.280753
4842 3 7.598605 146.761852 38.935141
4843 2 -91.067042 20.681294 173.579688
4844 3 -55.126121 -12.654039 144.289303
4845 3 -66.194586 39.203109 166.750041
4846 2 18.924292 195.680890 191.033062
4847 3 -3.271815 199.215689 199.303198
4848 3 -8.625371 205.651282 195.123551
4849 2 29.950912 17.301549 180.151786
4850 3 60.496925 15.672928 183.429975
4851 3 64.336055 -6.084261 182.937793
4852 2 -35.930477 145.514120 38.183880
4853 3 -50.478579 157.203728 78.897435
4854 3 -54.651948 132.600027 69.353424
4855 2 -46.507873 140.839228 240.983205
4856 3 -33.210087 144.454145 168.244815
4857 3 -55.447819 125.999794 166.417043
4858 2 249.307303 -66.353761 219.978391
4859 3 251.243286 -99.342625 196.747930
4860 3 261.667584 -74.789105 218.559730
4861 2 172.578369 185.129847 170.600898
4862 3 184.861408 200.387042 211.624576
4863 3 169.551022 197.543978 187.023651
4864 2 -152.271983 11.819869 137.924538
4865 3 -148.823473 6.382282 107.375635
4866 3 -146.793746 61.850681 164.388747
4867 2 -149.820638 147.019313 270.360286
4868 3 -160.903653 174.311482 265.155147
4869 3 -164.534328 134.636815 286.259453
4870 2 -115.042894 44.616775 54.678019
4871 3 -106.304587 71.922588 39.694353
4872 3 -101.649916 69.944507 58.755308
4873 2 -77.909726 202.327169 151.532444
4874 3 -88.821884 201.487726 126.719785
4875 3 -68.151712 186.407448 175.505513
4876 2 213.213175 41.430349 235.887337
4877 3 186.874718 50.344828 213.053109
4878 3 198.132590 25.678427 250.671356
4879 2 -1.498879 167.770006 212.551591
4880 3 -21.268722 167.894484 205.173559
4881 3 1.059255 143.501711 197.134918
4882 2 66.307826 172.238287 230.702938
4883 3 65.995316 138.924256 267.232608
4884 3 66.977574 120.509360 275.244088
4885 2 69.424044 98.868737 150.168631
4886 3 72.343947 124.209193 130.619501
4887 3 90.694506 107.407258 145.800841
4888 2 -67.752692 -7.498426 225.430192
4889 3 -76.081731 7.339075 160.664977
4890 3 -87.963562 12.547703 185.571463
4891 2 -30.524848 180.778761 204.057894
4892 3 -26.756853 149.297774 196.791808
4893 3 -36.626952 174.726574 233.081513
4894 2 -50.868750 42.868281 13.709209
4895 3 -28.709970 83.027899 -7.117334
4896 3 -47.038001 29.282447 13.233176
4897 2 -34.701755 102.649488 -22.157629
4898 3 -32.734035 111.966521 -13.604434
4899 3 -35.864976 137.175786 -10.207017
4900 2 -56.183906 95.084163 121.196400
4901 3 -32.125695 96.728430 134.970445
4902 3 -27.835545 71.290990 129.611391
4903 2 -12.506504 201.024953 82.875899
4904 3 41.472763 201.610424 95.013765
4905 3 22.137747 184.839673 82.609599
4906 2 42.410280 56.261579 213.339055
4907 3 16.540753 25.383242 192.910950
4908 3 35.388608 48.938553 213.497186
4909 2 205.746044 81.330159 167.336179
4910 3 229.747792 60.144110 158.913096
4911 3 236.217671 75.459971 173.039053
4912 2 -93.367207 165.600811 208.581002
4913 3 -49.778407 167.012437 233.628182
4914 3 -62.880673 191.861711 187.525168
4915 2 27.586163 6.949374 74.412453
4916 3 6.735809 42.298515 61.858219
4917 3 29.035234 9.784738 109.267315
4918 2 7.921370 -49.349670 108.669839
4919 3 -8.565698 -28.241353 80.327360
4920 3 7.275095 -27.945949 71.922125
4921 2 118.859731 76.118126 201.139385
4922 3 117.885331 93.641968 203.749676
4923 3 102.107846 73.393173 182.957297
4924 2 -60.025471 -48.552380 200.553118
4925 3 -76.674323 -0.887807 156.213314
4926 3 -79.803390 -13.662752 152.181926
4927 2 150.643288 186.050299 244.423344
4928 3 146.350014 154.232461 255.699340
4929 3 143.708936 171.266292 232.637565
4930 2 123.046140 160.544079 148.129845
4931 3 111.662841 175.329029 157.183183
4932 3 125.836278 162.724434 163.870558
4933 2 185.379754 102.299151 108.910283
4934 3 155.146446 108.013369 85.793443
4935 3 167.981602 98.884588 105.872262
4936 2 33.436356 33.139960 88.511442
4937 3 13.089912 30.139743 104.260541
4938 3 2.708920 16.853464 73.617271
4939 2 -32.642367 60.592139 107.949115
4940 3 -48.890394 80.804763 86.355349
4941 3 -71.953349 27.014175 104.962952
4942 2 46.954745 287.082127 58.679721
4943 3 31.404541 324.977437 48.665498
4944 3 58.775758 341.963328 84.995157
4945 2 -49.985075 49.309019 352.512541
4946 3 -30.099339 24.180644 330.241164
4947 3 -7.663940 38.659454 325.952762
4948 2 103.567062 -14.883664 46.459555
4949 3 91.788219 6.165155 53.026546
4950 3 74.828299 -5.997169 52.343279
4951 2 82.327320 134.233917 145.610788
4952 3 90.999941 152.648829 114.578376
4953 3 72.158503 153.337416 127.803436
4954 2 36.812377 226.683657 253.427305
4955 3 75.281938 202.384307 281.903148
4956 3 65.594743 222.751571 296.510824
4957 2 -72.320588 138.260878 189.111592
4958 3 -101.118851 145.851009 237.305315
4959 3 -105.249408 123.620916 223.783173
4960 2 81.008267 71.195990 231.880878
4961 3 89.833361 57.254300 229.493723
4962 3 111.523623 55.064416 230.196789
4963 2 -97.561510 144.128949 141.146597
4964 3 -106.683314 151.649725 113.068268
4965 3 -138.205387 150.612975 127.298108
4966 2 -47.668222 119.808708 -33.542554
4967 3 -50.768664 74.874199 -45.775050
4968 3 -20.675847 115.112645 20.932362
4969 2 -49.447743 80.585096 199.197212
4970 3 -48.479733 38.333421 185.612943
4971 3 -40.192476 41.826850 142.573634
4972 2 -59.875116 77.130838 172.801930
4973 3 -45.633657 73.667181 135.752503
4974 3 -28.808978 90.973084 164.045729
4975 2 15.263370 -89.744168 112.394319
4976 3 -7.234018 -70.722788 96.939207
4977 3 12.652546 -96.617356 96.687147
4978 2 100.727303 -56.579314 193.252122
4979 3 104.007796 -49.402292 184.610700
4980 3 90.845390 -65.489930 198.875543
4981 2 1.137491 145.934784 168.608342
4982 3 -2.763588 166.384136 164.881297
4983 3 -8.523457 166.540405 206.650158
4984 2 104.057978 -0.865419 278.792612
4985 3 91.676948 -54.899576 284.805918
4986 3 89.166048 -40.605842 266.694390
4987 2 0.772183 55.519879 177.574819
4988 3 20.527591 46.350753 119.182948
4989 3 22.239264 80.362581 177.068595
4990 2 -81.496092 91.998165 76.434411
4991 3 -46.749266 100.829413 93.971169
4992 3 -51.675121 96.487427 89.221589
4993 2 59.753584 199.469403 40.772642
4994 3 68.393947 185.342084 33.862852
4995 3 30.555923 175.979514 29.752698
4996 2 107.914505 171.148383 33.777096
4997 3 96.405385 148.901459 80.487272
4998 3 93.302349 150.395113 48.718546
4999 2 -78.879603 113.943025 227.488316
5000 3 -52.598693 119.077686 208.734723
5001 3 -54.028229 74.224258 200.694791
5002 2 69.086372 158.621923 150.413292
5003 3 74.050959 176.853486 98.161942
5004 3 78.652226 115.983957 119.081860
5005 2 97.212342 120.685440 176.872269
5006 3 80.532726 93.667321 166.282318
5007 3 65.049560 105.045014 144.354687
5008 2 112.717706 63.617879 39.382067
5009 3 100.503903 114.572794 38.784524
5010 3 104.817742 93.871454 44.775441
5011 2 -46.647744 172.767457 155.510045
5012 3 -66.055996 135.197374 133.336148
5013 3 -32.329558 161.899039 188.568669
5014 2 -24.156275 56.882130 151.203468
5015 3 -68.121343 67.922337 173.736500
5016 3 -60.005473 92.015855 151.263095
5017 2 124.186621 112.713583 159.075850
5018 3 110.159391 126.025322 128.194225
5019 3 109.903016 83.532606 112.757772
5020 2 241.590367 -33.407180 3.750629
5021 3 230.390646 16.177250 -12.200841
5022 3 198.740552 1.471178 16.180703
5023 2 57.871546 195.958186 170.326991
5024 3 57.808232 174.913344 179.507341
5025 3 54.741992 188.887555 176.752019
5026 2 72.890813 254.482075 179.549319
5027 3 59.984739 255.140405 219.129114
5028 3 65.039000 271.026419 209.410610
5029 2 -113.713752 107.952575 55.865231
5030 3 -141.345287 133.010329 53.908416
5031 3 -130.944185 142.435245 72.115010
5032 2 -75.726453 162.764908 140.011640
5033 3 -75.735709 163.478262 121.141930
5034 3 -97.292711 150.029769 170.068418
5035 2 19.375175 207.432281 11.662336
5036 3 34.674562 187.995824 -6.824514
5037 3 29.540886 194.666613 -22.064784
5038 2 -65.670713 131.020241 60.056519
5039 3 -21.827174 122.115829 57.535114
5040 3 -54.759189 121.873047 83.241639
5041 2 -124.561740 165.309026 280.878986
5042 3 -87.230192 219.472767 254.859768
5043 3 -82.774707 185.607155 253.298217
5044 2 65.345061 1.612355 275.177348
5045 3 58.966822 54.767761 283.092676
5046 3 72.143214 5.020746 308.920715
5047 2 -28.360851 86.946108 167.118033
5048 3 -42.621309 98.935454 162.137000
5049 3 -59.189808 46.265615 188.859874
5050 2 -50.133913 77.315566 -8.241293
5051 3 -59.685377 51.259586 3.427031
5052 3 -37.118435 75.308639 15.791307
5053 2 -189.884185 211.305679 94.778196
5054 3 -165.600895 221.301310 99.262191
5055 3 -153.688387 252.182321 73.887847
5056 2 105.826239 18.276632 183.116757
5057 3 110.806935 -12.712424 180.302943
5058 3 102.892859 -2.272577 184.719916
5059 2 227.232676 -90.234377 97.726676
5060 3 220.991773 -85.804411 96.161762
5061 3 223.125290 -62.333969 106.491327
5062 2 102.058164 42.851813 161.907119
5063 3 113.542405 65.988071 127.331607
5064 3 70.841773 40.245449 158.029333
5065 2 143.306976 186.095745 173.345315
5066 3 121.637593 180.909548 162.270498
5067 3 114.883262 220.573572 150.498622
5068 2 -58.064549 -4.463940 194.183805
5069 3 -21.164526 -5.636002 178.184962
5070 3 -49.240329 41.149073 185.612278
5071 2 -18.472357 -74.329845 139.318031
5072 3 -33.406815 -43.771378 152.264636
5073 3 -4.153516 -49.396256 178.636678
5074 2 -93.459461 -104.831904 139.016151
5075 3 -89.614193 -119.011267 111.223936
5076 3 -104.211349 -86.948245 124.382210
5077 2 93.724996 -186.921749 241.831265
5078 3 73.598060 -196.439995 251.708232
5079 3 101.170064 -199.330101 251.718528
5080 2 46.541653 -63.179167 -18.116265
5081 3 58.761689 -45.247136 49.543730
5082 3 56.816370 -37.074936 11.203687
5083 2 16.454624 -44.928713 316.295112
5084 3 32.901561 9.291756 358.475289
5085 3 20.729255 8.407277 338.521153
5086 2 23.567459 -37.667880 118.066794
5087 3 32.247604 -60.914869 134.432439
5088 3 37.010599 -27.346095 95.396352
5089 2 52.659918 -145.204310 153.317851
5090 3 0.418916 -138.375671 109.264824
5091 3 24.139252 -133.161210 145.143978
5092 2 -24.349259 -2.181458 215.799961
5093 3 -0.726429 16.098679 222.244539
5094 3 1.081296 13.574467 255.697753
5095 2 183.403124 112.482889 120.339880
5096 3 150.631406 136.792121 112.105107
5097 3 183.298360 120.966704 107.606595
5098 2 -21.813758 -134.588527 153.604250
5099 3 -21.606816 -148.125874 142.246762
5100 3 -41.531158 -132.377444 175.669623
5101 2 173.307684 89.315954 169.574022
5102 3 178.615107 101.795988 128.942443
5103 3 198.280652 68.327710 153.854040
5104 2 77.114456 -40.894431 142.175040
5105 3 111.580941 -74.713578 154.549236
5106 3 84.248130 -27.118487 159.918097
5107 2 -214.559070 76.312711 387.989374
5108 3 -228.609101 80.053394 378.301518
5109 3 -239.593305 99.110364 432.445959
5110 2 -3.759830 -6.139070 221.599762
5111 3 -30.410231 -7.206046 212.460126
5112 3 -18.338417 27.705101 221.021485
5113 2 39.462397 -77.406736 151.254976
5114 3 37.056080 -88.208885 121.938122
5115 3 20.856269 -70.197723 131.227476
5116 2 158.532960 75.232941 25.952578
5117 3 161.018051 78.442367 38.203289
5118 3 155.434312 101.611537 3.593786
5119 2 170.724744 -21.730940 68.096304
5120 3 188.010516 -0.654362 51.563415
5121 3 195.723138 -3.145191 87.822690
5122 2 15.555139 30.253422 126.536587
5123 3 5.160800 56.403750 118.468027
5124 3 5.493145 23.564908 100.621935
5125 2 115.806451 130.009133 180.220021
5126 3 89.025018 125.287230 142.823351
5127 3 82.034346 111.915602 129.273448
5128 2 -66.136331 124.880287 280.440019
5129 3 -84.822343 133.693458 264.132645
5130 3 -61.754144 125.029190 288.972742
5131 2 226.249920 116.894366 180.534567
5132 3 229.457707 85.884940 152.153308
5133 3 194.246551 102.748278 134.400425
5134 2 -68.790708 17.385922 58.592031
5135 3 -110.828637 -10.675724 25.532163
5136 3 -64.022146 -15.676685 15.936632
5137 2 184.099247 -163.388740 330.957903
5138 3 198.203041 -134.278588 319.266762
5139 3 186.766935 -135.413375 331.168179
5140 2 63.458342 -46.540260 207.342153
5141 3 73.715642 -48.182331 210.867465
5142 3 83.190166 -25.918082 221.619838
5143 2 -1.618068 -170.112196 181.342144
5144 3 -12.793853 -186.984618 169.735115
5145 3 -4.143122 -170.032009 227.663847
5146 2 -20.707575 -53.848716 38.293634
5147 3 -0.126428 -49.550389 48.947599
5148 3 -27.496977 -81.812055 52.355577
5149 2 -2.745746 79.451821 234.384389
5150 3 -37.097273 104.180764 184.068718
5151 3 -20.631630 93.878638 199.665793
5152 2 -251.567464 5.330012 190.675413
5153 3 -205.952654 31.424565 165.555366
5154 3 -233.912308 34.715135 189.843351
5155 2 115.213292 57.465815 91.285244
5156 3 104.650687 59.840686 116.729644
5157 3 119.695405 59.648880 89.282166
5158 2 -16.421622 -50.239615 230.519233
5159 3 -23.806858 -24.143936 243.940186
5160 3 -14.299238 -4.951982 240.700654
5161 2 -135.412870 165.124993 242.705673
5162 3 -146.275216 167.063265 301.353534
5163 3 -179.917149 138.366457 273.306786
5164 2 -158.564356 17.751795 109.910948
5165 3 -149.589283 -17.527050 159.994035
5166 3 -171.905778 -24.109646 129.243196
5167 2 115.195125 118.472350 163.033302
5168 3 120.013283 107.171181 178.041075
5169 3 101.888398 117.080832 103.126803
5170 2 -42.629555 -17.854319 173.963217
5171 3 -84.913376 1.346658 165.336381
5172 3 -35.716291 0.461222 194.122674
5173 2 115.086916 -20.007648 154.285847
5174 3 139.056668 -9.272759 124.912070
5175 3 122.698510 -25.399893 179.021065
5176 2 39.394153 202.905069 140.404275
5177 3 42.546969 193.367771 166.420032
5178 3 36.438035 164.226024 179.434439
5179 2 96.564952 -144.399335 166.637486
5180 3 127.878268 -166.629412 169.981676
5181 3 131.725829 -163.922882 179.985610
5182 2 240.808239 -178.144224 220.519156
5183 3 236.747676 -144.312229 204.415876
5184 3 242.197947 -153.662545 249.669095
5185 2 -91.438854 17.267274 246.057263
5186 3 -87.518268 42.747566 243.267750
5187 3 -100.589425 4.685155 267.879987
5188 2 -86.367039 267.898274 310.322584
5189 3 -93.972839 247.354018 286.251057
5190 3 -101.642102 270.984653 275.940456
5191 2 -112.878910 110.279568 179.089004
5192 3 -111.996517 128.609176 141.346152
5193 3 -111.773580 96.768060 139.382188
5194 2 8.457700 277.809643 170.010904
5195 3 17.381431 276.452630 158.673464
5196 3 27.683146 266.903686 221.803894
5197 2 13.971797 64.347726 135.577433
5198 3 8.404010 94.365137 165.088085
5199 3 -3.404124 96.375387 134.621486
5200 2 -29.927918 164.748063 136.687636
5201 3 -57.605783 138.206333 176.486444
5202 3 -31.434970 169.892661 176.586913
5203 2 103.159759 -48.993525 117.666235
5204 3 79.780400 -53.000925 175.883792
5205 3 98.303868 -66.627210 124.504323
5206 2 130.934666 -7.206506 134.695856
5207 3 136.489812 -10.731055 91.945668
5208 3 111.925786 -24.253878 87.084197
5209 2 -38.130519 -25.877365 11.502204
5210 3 -72.298902 0.869761 -16.773593
5211 3 -67.725774 -31.673762 1.153175
5212 2 16.703818 63.026767 144.230756
5213 3 -8.745966 60.434014 128.653904
5214 3 28.669268 70.330274 162.009868
5215 2 51.466953 -58.879540 258.485993
5216 3 56.894992 -72.587707 284.450722
5217 3 42.925373 -43.618054 237.997181
5218 2 58.084626 -147.989325 104.127449
5219 3 72.892477 -159.114664 82.158555
5220 3 43.972336 -119.973059 100.719314
5221 2 128.065228 -89.775740 199.094897
5222 3 135.547518 -95.799115 237.826946
5223 3 140.332688 -124.469635 278.137336
5224 2 -65.605648 -5.980332 187.998935
5225 3 -94.725560 -39.364142 211.652143
5226 3 -65.267804 -39.316865 156.464654
5227 2 38.764085 191.584765 214.196488
5228 3 41.021483 152.677763 206.475605
5229 3 14.832990 206.849699 217.479862
5230 2 95.383829 114.553104 257.524474
5231 3 67.541599 118.312637 253.677086
5232 3 77.536882 82.684454 234.456609
5233 2 63.433627 23.109036 106.138788
5234 3 59.433648 36.789644 84.661098
5235 3 51.159965 35.656185 107.615978
5236 2 31.921054 57.568953 65.596958
5237 3 41.027365 25.527683 47.050575
5238 3 24.954774 71.649644 54.983967
5239 2 56.622810 106.259988 194.688773
5240 3 30.643300 127.983208 181.381593
5241 3 53.407113 151.082544 166.860890
5242 2 -74.434859 168.540955 154.752648
5243 3 -75.280961 175.900391 146.144827
5244 3 -62.721149 174.447834 139.987100
5245 2 162.330715 3.347782 98.052634
5246 3 140.953702 -7.049364 152.875914
5247 3 176.323434 -16.271515 111.899158
5248 2 202.031349 117.418618 33.792546
5249 3 208.182180 75.044772 6.852371
5250 3 195.642409 112.540087 19.452562
5251 2 -99.269601 68.946152 100.221238
5252 3 -104.928634 95.879849 90.445787
5253 3 -116.988515 74.336006 83.596254
5254 2 21.890749 5.737665 158.432743
5255 3 12.704808 19.600917 168.698922
5256 3 11.263414 30.028296 174.606093
5257 2 193.282270 138.195872 36.605936
5258 3 219.885162 182.822141 63.560127
5259 3 228.922895 168.890212 43.442050
5260 2 199.065381 69.984110 116.289469
5261 3 225.085590 65.485641 150.408863
5262 3 197.854905 73.648666 140.613379
5263 2 13.496925 43.850010 155.628145
5264 3 6.793652 -3.836391 133.308748
5265 3 30.326550 -0.127450 174.349079
5266 2 15.357319 25.308545 174.393096
5267 3 18.011200 -8.278066 166.509108
5268 3 14.650052 8.988268 192.293315
5269 2 -36.001501 82.537265 344.550401
5270 3 -51.448690 70.933705 369.770327
5271 3 -61.787175 56.339850 343.816687
5272 2 150.483788 -7.285099 84.464546
5273 3 126.442588 -18.112833 96.321217
5274 3 141.179400 -4.241813 81.175337
5275 2 44.572767 216.612826 258.756901
5276 3 60.456807 169.005734 256.278484
5277 3 38.198802 187.620993 267.037020
5278 2 -76.417307 79.534601 166.065058
5279 3 -64.038502 105.097636 164.955464
5280 3 -82.525875 116.579539 176.232677
5281 2 144.120891 32.036583 95.614820
5282 3 149.018121 -6.091186 48.151405
5283 3 149.625429 4.949842 90.231918
5284 2 70.351800 142.637112 173.268574
5285 3 74.279325 148.556581 165.006418
5286 3 44.424955 131.332035 167.214647
5287 2 162.168097 67.518652 140.727327
5288 3 147.488363 52.185074 113.459011
5289 3 161.631374 80.960725 125.665195
5290 2 44.279594 79.835049 120.412903
5291 3 37.252306 58.587146 138.680376
5292 3 48.336361 68.403914 135.850795
5293 2 -55.001520 80.404811 257.026572
5294 3 -79.742645 110.499863 207.965249
5295 3 -60.467764 73.230859 234.821621
5296 2 -13.146629 72.813323 257.457457
5297 3 -25.116717 81.750097 229.621907
5298 3 -28.308648 73.941876 214.649054
5299 2 125.835883 89.134765 329.674918
5300 3 106.027441 148.000165 258.402610
5301 3 147.075877 134.303902 291.043911
5302 2 -127.832151 164.341547 0.268432
5303 3 -112.952602 141.045360 66.932581
5304 3 -121.842150 147.762005 59.880946
5305 2 -55.628382 -42.243446 98.624859
5306 3 -58.511335 -74.257541 139.531268
5307 3 -56.340818 -15.420139 119.458331
5308 2 48.516545 -52.273446 306.920437
5309 3 89.834896 -12.801726 296.511082
5310 3 52.460935 -3.448640 262.992347
5311 2 72.966693 174.794416 90.852025
5312 3 101.765787 176.242791 65.230156
5313 3 68.522951 187.465088 114.100901
5314 2 49.637556 112.999736 220.859756
5315 3 37.741798 126.745199 179.323673
5316 3 67.932158 120.551650 185.017764
5317 2 -27.536168 -54.346193 51.098062
5318 3 -11.359026 -59.631894 58.987915
5319 3 -34.977381 -47.706847 56.054372
5320 2 66.973571 157.951095 211.512298
5321 3 48.206186 169.574496 225.160853
5322 3 42.254905 155.338832 233.133565
5323 2 -8.767923 52.584806 254.454218
5324 3 -42.911671 60.886003 271.739054
5325 3 -41.435651 97.539967 254.069001
5326 2 0.157891 173.599906 143.509755
5327 3 -5.427528 175.777266 161.446795
5328 3 -6.732175 183.534492 119.906126
5329 2 -1.075237 43.139436 121.699745
5330 3 22.302865 62.812447 188.250727
5331 3 -16.460360 40.601054 156.624003
5332 2 -0.198775 165.561371 255.032421
5333 3 -28.640752 130.680661 265.862364
5334 3 -8.054640 168.542064 264.433260
5335 2 87.649638 52.429141 101.570428
5336 3 79.824814 61.362490 90.488692
5337 3 67.109314 32.524823 86.371476
5338 2 20.151982 50.040006 159.976322
5339 3 16.831435 34.514212 180.186605
5340 3 16.542454 37.530091 198.042835
5341 2 145.669790 105.418401 247.621010
5342 3 121.512733 113.535094 251.759823
5343 3 121.117349 118.570768 238.086451
5344 2 76.076600 142.251273 101.398209
5345 3 102.186505 109.312507 96.865584
5346 3 107.526787 158.218264 125.417868
5347 2 -101.782966 134.736061 179.946824
5348 3 -64.682669 112.664063 184.804204
5349 3 -70.529118 103.997500 226.647084
5350 2 -45.754647 110.284577 172.418235
5351 3 -57.844773 100.228373 224.500207
5352 3 -20.487399 131.012836 177.550868
5353 2 -80.719917 -1.705632 234.199097
5354 3 -79.898176 2.375850 273.413806
5355 3 -68.650306 25.658759 238.204782
5356 2 -36.273270 36.412084 184.485524
5357 3 -42.080507 65.022656 158.597212
5358 3 -26.977608 48.116961 181.321958
5359 2 93.495305 149.988231 165.024298
5360 3 126.714764 125.018639 209.464987
5361 3 101.489895 124.316535 208.613956
5362 2 43.393927 208.831881 164.814963
5363 3 88.901360 166.486658 164.410169
5364 3 54.506056 173.803796 168.914834
5365 2 -45.991092 259.911601 177.960810
5366 3 -63.116447 256.618596 187.545502
5367 3 -85.923470 252.873051 170.839866
5368 2 33.761740 80.792801 231.622277
5369 3 18.583374 50.713467 240.773815
5370 3 28.465374 46.298633 222.426639
5371 2 -146.398553 92.952956 201.852322
5372 3 -127.827036 82.739721 163.741230
5373 3 -117.685575 106.875883 200.302691
5374 2 -7.510529 223.423752 214.034556
5375 3 -18.313579 242.669061 153.447355
5376 3 -54.998531 196.999482 191.941330
5377 2 -28.084510 -0.025046 148.578600
5378 3 -37.565085 38.537209 131.305407
5379 3 -15.733498 28.086349 189.090483
5380 2 3.852476 18.824545 198.001780
5381 3 -22.655075 45.965659 129.486621
5382 3 9.782835 49.868683 206.031767
5383 2 218.691707 164.286948 -73.993113
5384 3 207.146955 166.320247 5.768863
5385 3 203.534164 163.374113 -16.500402
5386 2 -111.688253 235.453427 252.727210
5387 3 -93.003271 235.598491 209.727462
5388 3 -103.217228 230.432988 219.048922
5389 2 33.610142 -11.728332 156.143013
5390 3 41.251551 30.492112 158.336176
5391 3 16.808774 45.073396 152.894237
5392 2 -104.970651 218.274137 65.525102
5393 3 -126.619112 190.197161 66.565161
5394 3 -129.588630 255.266205 96.852576
5395 2 -6.111568 214.022669 400.310770
5396 3 -3.735924 230.614709 342.638434
5397 3 -35.588024 220.894337 358.283207
5398 2 -33.600775 48.105683 164.683827
5399 3 -19.066662 76.323795 168.784279
5400 3 -6.383556 45.923312 180.072757
5401 2 217.370663 21.847232 130.788067
5402 3 219.269940 38.785113 138.601532
5403 3 221.110033 51.932394 163.746701
5404 2 -131.507073 -4.170872 85.087144
5405 3 -124.319982 4.996323 104.093738
5406 3 -177.826339 -5.935654 57.693421
5407 2 27.945165 89.476443 194.120571
5408 3 44.215910 75.072779 175.642831
5409 3 49.188696 106.681672 180.446755
5410 2 -41.399772 96.235386 131.300610
5411 3 -38.126039 123.667320 144.639988
5412 3 -70.724884 119.190038 103.722461
5413 2 4.119075 20.012763 116.956923
5414 3 21.314796 50.492587 174.917125
5415 3 21.523850 41.154197 149.530921
5416 2 -44.407153 40.598549 185.033651
5417 3 -28.484858 61.100942 161.686187
5418 3 -41.474376 12.101054 178.223433
5419 2 37.156840 63.661884 101.345317
5420 3 46.701328 96.176218 85.984064
5421 3 55.498712 99.592180 93.810496
5422 2 33.688652 79.839021 137.226122
5423 3 46.687862 75.081871 108.095381
5424 3 23.699429 54.145553 125.392543
5425 2 -19.073346 18.816248 159.676832
5426 3 -48.488472 38.214097 142.469078
5427 3 -42.473667 -6.331079 172.961666
5428 2 -17.773140 133.854722 201.334955
5429 3 -14.795056 141.844239 174.971797
5430 3 -16.935031 125.181469 172.436180
5431 2 -153.835413 96.029558 159.911538
5432 3 -140.213101 149.028293 104.567098
5433 3 -134.111767 113.760239 173.000258
5434 2 -121.268613 -21.242327 95.280766
5435 3 -124.442173 -37.581797 98.077138
5436 3 -130.230597 -39.764593 122.462779
5437 2 36.184389 141.578217 119.780092
5438 3 35.556752 119.746652 80.432429
5439 3 13.106232 131.485697 93.921317
5440 2 -106.166028 146.574527 103.378826
5441 3 -113.668199 130.177315 155.303866
5442 3 -122.408083 136.922346 123.476267
5443 2 12.223537 -18.126913 243.175989
5444 3 32.871621 -33.676379 268.923948
5445 3 23.934502 -15.811768 231.335057
5446 2 133.453048 291.910096 286.317409
5447 3 114.530683 278.952731 241.407908
5448 3 125.031213 283.097085 238.303037
5449 2 -154.891332 123.635117 65.206616
5450 3 -137.415198 129.173338 54.268799
5451 3 -135.834032 142.218819 46.442900
5452 2 42.689318 87.342529 143.993771
5453 3 55.945899 92.059902 112.029372
5454 3 65.921211 114.312093 145.849323
5455 2 -98.495570 19.364419 119.113736
5456 3 -85.630723 39.790934 111.423316
5457 3 -103.860502 28.402054 124.903508
5458 2 -6.775037 33.644586 311.534992
5459 3 -24.266145 65.058952 349.651270
5460 3 -33.710044 78.416816 305.778479
5461 2 101.680128 85.688432 139.083039
5462 3 95.294823 100.395278 126.833466
5463 3 98.097588 128.542444 144.227758
5464 2 36.373868 162.735503 58.024657
5465 3 39.336174 135.004447 81.961800
5466 3 33.329843 110.508362 48.862364
5467 2 -68.662280 186.866800 242.140110
5468 3 -85.086914 179.895772 197.184184
5469 3 -71.237185 173.742066 242.573319
5470 2 -139.380711 114.832764 282.464856
5471 3 -130.427478 151.787263 296.934937
5472 3 -134.066990 119.778543 261.159389
5473 2 0.528275 33.409815 294.422993
5474 3 -24.914576 71.292328 241.000642
5475 3 -36.881947 -0.482474 266.462544
5476 2 100.967322 67.057932 209.300157
5477 3 68.010755 61.574366 203.660185
5478 3 81.994320 71.069456 197.111263
5479 2 83.277156 127.482918 344.911096
5480 3 57.845552 136.148524 319.813911
5481 3 76.970283 149.104208 357.832468
5482 2 87.700886 74.004096 79.005889
5483 3 104.459007 46.486716 161.398802
5484 3 96.629758 67.678046 120.106208
5485 2 72.758269 130.285957 81.635491
5486 3 75.029279 158.440110 140.270075
5487 3 83.845111 178.728129 118.465877
5488 2 115.415960 156.433449 136.466336
5489 3 119.589003 170.223962 147.628032
5490 3 110.669873 194.693752 172.190929
5491 2 136.758844 101.692523 136.305990
5492 3 160.688342 116.809230 132.934030
5493 3 140.466810 116.540639 110.857300
5494 2 15.541910 157.249630 216.047233
5495 3 16.182804 111.580651 244.554887
5496 3 27.740246 126.983602 199.524693
5497 2 147.625591 281.207740 -137.288538
5498 3 149.589021 261.950161 -147.297103
5499 3 166.465340 286.414264 -95.116027
5500 2 -135.219587 111.030310 144.619460
5501 3 -122.214949 98.232453 134.813117
5502 3 -152.947831 128.492810 114.265804
5503 2 -12.821498 208.736520 94.537650
5504 3 -36.278348 202.097113 118.035140
5505 3 -23.496040 178.546438 82.106397
5506 2 6.763966 29.184343 137.098741
5507 3 2.241055 49.880572 198.460361
5508 3 10.667525 34.997582 172.384349
5509 2 140.164919 95.402115 189.619125
5510 3 136.103049 94.071649 199.596230
5511 3 149.956359 84.290475 226.760802
5512 2 21.171716 189.056125 281.993931
5513 3 26.273054 170.268252 274.479208
5514 3 44.493985 174.959154 250.801625
5515 2 -83.042280 198.297274 326.625457
5516 3 -73.468347 205.064716 316.924537
5517 3 -76.011601 185.170944 296.625944
5518 2 -31.778616 203.740757 237.304762
5519 3 -30.718476 219.961949 245.197929
5520 3 -45.953476 231.465708 250.865653
5521 2 -77.635474 315.867304 187.948912
5522 3 -74.529091 307.857200 160.270922
5523 3 -51.405867 297.482922 156.383153
5524 2 95.781401 55.806940 202.613069
5525 3 69.466214 104.395783 175.677299
5526 3 103.144026 85.765685 180.544162
5527 2 41.622011 278.474070 40.248986
5528 3 63.894618 272.919930 42.861294
5529 3 34.181591 288.559558 28.779951
5530 2 168.041970 145.796828 186.722316
5531 3 143.913077 200.494734 186.917664
5532 3 149.241292 161.255883 174.932606
5533 2 177.908815 231.565509 176.062866
5534 3 157.948318 229.498456 247.432451
5535 3 125.063320 196.553555 224.656862
5536 2 262.748744 144.049111 -22.052786
5537 3 231.939865 96.456753 8.540352
5538 3 244.737811 123.973922 -5.294437
5539 2 206.669332 113.503940 233.952896
5540 3 219.211532 127.935793 283.941326
5541 3 210.891724 115.256249 274.856620
