ITEM: TIMESTEP
0
ITEM: NUMBER OF ATOMS
5541
ITEM: BOX BOUNDS pp pp pp
0.0 38.2
0.0 38.2
0.0 38.2
ITEM: ATOMS id type x y z
1 1 13.407 -35.756 -52.016
2 1 15.648 -41.870 -52.669
3 1 14.982 -36.197 -50.671
4 1 13.812 -30.283 -50.534
5 1 14.083 -34.554 -57.963
6 1 11.229 -31.833 -52.150
7 1 18.859 -32.972 -55.423
8 1 20.662 -31.535 -50.303
9 1 15.012 -26.249 -53.072
10 1 13.900 -34.308 -58.726
11 1 14.908 -35.309 -56.587
12 1 18.903 -31.075 -56.854
13 1 10.365 -35.182 -57.685
14 1 17.901 -36.845 -52.688
15 1 11.801 -33.591 -57.820
16 1 20.455 -35.960 -55.321
17 1 13.374 -38.540 -57.149
18 1 15.235 -36.697 -51.297
19 1 8.094 -37.888 -61.064
20 1 13.737 -30.427 -60.369
21 1 19.383 -39.514 -63.311
22 1 21.929 -33.423 -65.026
23 1 16.917 -36.756 -56.406
24 1 15.236 -29.923 -68.812
25 1 11.333 -38.042 -60.754
26 1 17.790 -38.034 -51.302
27 1 14.589 -39.100 -49.423
28 1 17.863 -39.683 -55.440
29 1 11.581 -40.041 -57.349
30 1 14.792 -43.473 -62.786
31 1 17.336 -36.142 -50.633
32 1 15.946 -34.009 -55.055
33 1 16.125 -36.532 -55.583
34 1 20.957 -41.236 -49.841
35 1 11.079 -30.888 -51.194
36 1 13.196 -36.966 -57.518
37 1 12.224 -42.993 -63.572
38 1 10.856 -36.045 -61.235
39 1 23.103 -43.188 -53.126
40 1 19.875 -45.173 -62.284
41 1 16.692 -40.896 -55.771
42 1 11.581 -41.360 -55.580
43 1 18.076 -41.761 -55.952
44 1 16.573 -39.200 -59.350
45 1 20.521 -37.929 -61.661
46 1 14.888 -36.825 -58.193
47 1 24.549 -34.622 -54.213
48 1 18.507 -28.432 -67.042
49 1 15.623 -40.871 -57.495
50 1 15.267 -30.916 -53.303
51 1 12.786 -30.288 -53.345
52 1 21.319 -35.115 -51.417
53 1 18.463 -35.409 -50.612
54 1 18.005 -31.738 -56.745
55 1 19.273 -27.205 -62.052
56 1 14.525 -35.527 -54.405
57 1 14.154 -38.190 -60.578
58 1 15.731 -39.402 -58.968
59 1 13.353 -39.123 -56.881
60 1 19.612 -39.539 -51.568
61 1 44.280 -33.572 -33.239
62 1 46.024 -31.281 -29.837
63 1 45.273 -34.553 -32.455
64 1 44.031 -39.588 -28.875
65 1 42.612 -33.163 -39.705
66 1 44.343 -36.346 -35.913
67 1 41.637 -33.688 -37.562
68 1 43.894 -35.921 -39.896
69 1 44.601 -31.566 -40.101
70 1 38.131 -37.105 -37.620
71 1 38.322 -34.562 -27.952
72 1 45.131 -34.149 -35.057
73 1 54.871 -28.485 -41.627
74 1 41.607 -36.518 -31.386
75 1 43.704 -30.486 -39.608
76 1 45.736 -28.872 -35.678
77 1 44.852 -35.387 -31.865
78 1 41.341 -30.419 -36.540
79 1 44.304 -35.665 -34.559
80 1 43.971 -33.550 -31.461
81 1 41.337 -34.344 -31.465
82 1 37.514 -26.181 -24.283
83 1 37.608 -29.909 -43.333
84 1 39.134 -26.497 -46.028
85 1 47.310 -32.362 -38.794
86 1 41.510 -35.179 -39.782
87 1 45.734 -33.535 -39.520
88 1 44.107 -33.483 -35.418
89 1 43.225 -36.289 -36.182
90 1 40.951 -34.036 -32.119
91 1 40.795 -27.357 -35.987
92 1 38.766 -33.782 -32.113
93 1 46.912 -33.003 -34.329
94 1 44.570 -27.214 -41.946
95 1 40.455 -39.923 -41.481
96 1 41.767 -26.556 -38.480
97 1 44.316 -31.139 -41.166
98 1 39.800 -29.854 -36.769
99 1 41.959 -28.519 -45.615
100 1 35.896 -30.765 -36.163
101 1 38.685 -29.189 -34.233
102 1 40.280 -18.563 -40.395
103 1 38.729 -27.493 -38.604
104 1 42.021 -31.154 -33.571
105 1 38.664 -34.527 -25.444
106 1 36.764 -28.009 -35.157
107 1 42.147 -30.993 -37.473
108 1 42.807 -30.188 -28.041
109 1 43.210 -26.225 -44.433
110 1 40.423 -33.946 -32.016
111 1 40.715 -34.069 -38.769
112 1 39.047 -25.791 -32.896
113 1 46.690 -29.207 -41.228
114 1 38.945 -29.522 -34.064
115 1 42.112 -29.920 -29.504
116 1 48.100 -23.491 -32.494
117 1 40.760 -21.210 -37.825
118 1 44.413 -28.064 -41.015
119 1 46.779 -23.597 -35.877
120 1 41.393 -27.789 -33.014
121 1 18.592 -13.569 -32.853
122 1 14.429 -11.837 -33.091
123 1 10.232 -12.455 -38.264
124 1 16.156 -4.976 -36.895
125 1 11.116 -5.191 -36.376
126 1 16.940 -12.440 -43.035
127 1 14.357 -16.345 -28.236
128 1 11.113 -15.208 -46.974
129 1 15.864 -9.427 -37.282
130 1 14.067 -10.250 -28.817
131 1 13.684 -7.170 -34.339
132 1 17.114 -13.435 -29.469
133 1 17.933 -16.539 -41.532
134 1 15.107 -10.989 -33.658
135 1 19.090 -11.880 -39.156
136 1 15.870 -8.960 -29.243
137 1 14.062 -7.800 -42.445
138 1 16.965 -19.101 -31.317
139 1 13.353 -10.802 -38.359
140 1 11.748 -16.426 -30.062
141 1 18.521 -8.242 -41.342
142 1 11.048 -13.312 -40.733
143 1 17.133 -12.252 -42.113
144 1 18.033 -15.120 -36.311
145 1 13.609 -13.760 -31.586
146 1 16.323 -12.989 -33.431
147 1 17.584 -16.482 -30.399
148 1 16.957 -12.787 -36.138
149 1 19.419 -10.490 -40.836
150 1 14.161 -13.976 -40.780
151 1 18.824 -18.275 -37.499
152 1 18.039 -12.593 -47.816
153 1 12.206 -11.317 -24.360
154 1 21.499 -11.875 -38.750
155 1 14.969 -8.657 -30.977
156 1 11.068 -11.312 -41.701
157 1 16.976 -15.514 -34.241
158 1 11.664 -19.729 -32.499
159 1 14.376 -15.810 -32.044
160 1 18.534 -12.974 -43.731
161 1 13.613 -18.612 -38.392
162 1 17.963 -12.266 -33.618
163 1 13.443 -7.161 -36.211
164 1 13.075 -20.180 -37.695
165 1 16.531 -7.338 -52.530
166 1 16.712 -7.544 -37.117
167 1 16.828 -5.917 -38.248
168 1 18.868 -18.387 -31.370
169 1 14.116 -21.313 -32.909
170 1 13.259 -9.613 -33.309
171 1 18.752 -9.304 -26.127
172 1 20.950 -21.428 -34.904
173 1 19.010 -13.669 -32.428
174 1 16.222 -13.100 -29.515
175 1 15.023 -7.878 -29.774
176 1 16.083 -15.233 -35.322
177 1 13.244 -13.167 -36.178
178 1 16.217 -17.438 -44.905
179 1 14.686 -19.267 -27.633
180 1 14.547 -13.310 -31.991
181 1 7.817 -23.274 -4.857
182 1 5.456 -14.893 -9.599
183 1 6.151 -2.202 -2.761
184 1 -43.627 -28.725 20.711
185 1 -40.113 -33.657 17.473
186 1 -38.457 -26.418 24.598
187 1 -16.507 47.945 37.228
188 1 -15.955 42.574 30.379
189 1 -15.517 48.125 38.097
190 1 19.770 38.525 -29.763
191 1 20.766 46.440 -39.756
192 1 18.361 38.937 -40.744
193 1 -11.716 -23.170 0.109
194 1 -4.994 -24.519 14.264
195 1 -11.938 -14.048 10.295
196 1 -29.514 -9.225 -24.900
197 1 -27.416 -4.212 -31.615
198 1 -28.297 -9.653 -32.696
199 1 19.880 -26.982 -4.628
200 1 21.540 -26.630 -0.293
201 1 14.154 -34.397 -2.372
202 1 30.495 5.140 53.923
203 1 24.653 -1.544 41.602
204 1 19.228 5.258 48.364
205 1 10.983 15.600 9.159
206 1 4.895 15.583 5.065
207 1 6.710 20.993 18.472
208 1 34.259 7.057 27.520
209 1 33.384 5.730 19.297
210 1 36.522 2.615 27.468
211 1 39.071 -29.062 15.615
212 1 37.418 -28.094 15.183
213 1 34.779 -28.172 6.475
214 1 74.693 42.393 21.407
215 1 64.968 46.541 14.854
216 1 70.280 49.827 10.684
217 1 46.657 17.246 55.517
218 1 49.280 13.103 53.801
219 1 48.504 15.591 54.072
220 1 -24.826 18.058 3.436
221 1 -28.948 20.548 -4.043
222 1 -18.389 18.977 0.302
223 1 -11.563 -44.274 -2.706
224 1 -9.860 -32.955 -15.629
225 1 -6.271 -38.995 -11.477
226 1 9.840 -17.455 37.324
227 1 3.718 -26.720 34.501
228 1 6.827 -17.187 32.698
229 1 23.706 6.244 -11.278
230 1 25.671 2.851 0.488
231 1 22.745 0.437 -1.783
232 1 25.111 49.512 28.362
233 1 23.190 49.780 30.438
234 1 21.526 47.104 24.593
235 1 -8.163 22.731 7.887
236 1 -9.292 26.968 15.764
237 1 -3.970 26.453 7.696
238 1 8.407 34.999 0.668
239 1 4.494 39.301 7.699
240 1 4.566 32.481 -4.120
241 1 10.900 -34.705 -17.050
242 1 12.702 -41.867 -18.982
243 1 12.751 -41.455 -11.816
244 1 4.147 -11.514 8.944
245 1 11.628 -10.687 16.817
246 1 10.050 -13.647 14.539
247 1 36.119 35.758 0.440
248 1 35.513 37.350 -7.108
249 1 33.036 38.036 -10.803
250 1 80.267 -7.105 0.160
251 1 71.475 -1.133 -8.234
252 1 81.260 -9.564 -4.511
253 1 3.442 -21.862 5.780
254 1 5.282 -26.097 10.779
255 1 5.834 -30.999 1.797
256 1 3.618 -2.770 47.366
257 1 4.934 3.571 43.987
258 1 1.874 -2.722 37.835
259 1 -20.453 36.657 -13.463
260 1 -18.025 35.627 -7.221
261 1 -14.866 41.400 -14.666
262 1 39.548 32.969 -34.432
263 1 39.598 31.428 -32.982
264 1 41.149 32.147 -29.103
265 1 -20.088 10.093 -12.671
266 1 -10.598 9.889 -12.707
267 1 -10.582 13.913 -14.075
268 1 -33.016 68.965 32.901
269 1 -35.822 72.259 29.761
270 1 -34.454 70.714 25.753
271 1 -18.815 -17.727 16.513
272 1 -19.942 -25.495 19.116
273 1 -18.505 -19.202 21.199
274 1 24.096 -6.758 -24.038
275 1 24.760 -8.879 -18.315
276 1 24.205 -11.480 -32.830
277 1 12.634 6.684 -14.188
278 1 9.166 2.850 -11.828
279 1 13.591 9.148 -10.488
280 1 -1.237 66.646 -6.101
281 1 -6.053 73.808 -10.288
282 1 -7.161 57.404 -6.101
283 1 24.918 17.450 -22.609
284 1 24.145 19.418 -21.505
285 1 31.392 14.179 -27.167
286 1 11.620 -19.972 39.439
287 1 6.331 -16.454 38.178
288 1 8.214 -17.200 33.545
289 1 46.648 -12.876 40.221
290 1 47.646 -14.930 34.338
291 1 56.258 -16.273 31.074
292 1 56.420 -0.504 28.539
293 1 55.639 -3.899 28.679
294 1 55.704 -6.857 28.567
295 1 39.199 30.358 -2.645
296 1 36.225 28.280 -4.953
297 1 38.103 30.613 -2.205
298 1 -28.770 41.768 1.681
299 1 -25.671 37.728 -6.538
300 1 -21.697 39.241 1.264
301 1 -13.238 -19.722 -5.035
302 1 -13.564 -24.631 -0.213
303 1 -16.208 -24.037 -2.810
304 1 -1.709 -31.590 -16.453
305 1 -3.830 -32.662 -18.323
306 1 -9.275 -26.810 -13.702
307 1 -27.731 17.177 7.616
308 1 -26.465 20.128 2.703
309 1 -26.110 25.527 1.123
310 1 25.791 16.509 -32.072
311 1 25.122 15.365 -24.275
312 1 23.043 12.545 -22.075
313 1 22.241 2.308 -4.049
314 1 28.220 0.481 0.877
315 1 21.613 2.706 0.585
316 1 27.362 -29.468 20.481
317 1 34.424 -31.238 23.478
318 1 33.784 -32.672 12.369
319 1 21.050 1.703 4.573
320 1 24.918 5.666 1.513
321 1 19.849 1.316 12.476
322 1 36.807 -10.579 22.593
323 1 30.119 -9.674 22.764
324 1 35.337 -6.913 21.115
325 1 13.777 12.986 8.270
326 1 9.482 7.053 9.652
327 1 13.013 5.840 9.046
328 1 6.701 11.937 -18.376
329 1 4.168 4.373 -16.494
330 1 5.720 6.435 -21.178
331 1 17.126 -31.348 -25.427
332 1 17.165 -36.313 -23.713
333 1 16.102 -33.846 -30.602
334 1 31.348 41.310 4.094
335 1 32.343 43.026 2.541
336 1 32.558 45.257 4.466
337 1 -35.560 35.293 5.267
338 1 -34.262 39.581 9.355
339 1 -35.119 35.953 4.323
340 1 -14.240 23.019 42.440
341 1 -14.587 20.508 56.472
342 1 -16.135 28.553 46.197
343 1 6.740 15.111 1.518
344 1 6.544 17.165 -1.207
345 1 10.323 13.512 -2.340
346 1 6.046 27.370 22.682
347 1 5.646 28.481 16.393
348 1 3.619 23.312 21.708
349 1 38.915 -12.075 -14.191
350 1 45.541 -11.586 -16.503
351 1 39.160 -14.350 -18.291
352 1 65.821 5.264 2.751
353 1 60.455 -4.210 1.156
354 1 59.490 4.206 1.215
355 1 -10.713 45.624 18.009
356 1 -8.767 45.873 17.707
357 1 -10.282 38.492 24.119
358 1 44.275 -24.417 -19.049
359 1 41.269 -25.058 -8.495
360 1 43.136 -26.267 -24.763
361 1 -2.667 26.442 27.802
362 1 -7.736 18.683 34.313
363 1 -5.813 22.961 35.186
364 1 -5.842 23.102 10.205
365 1 -4.018 28.903 13.913
366 1 -3.221 28.856 15.804
367 1 42.053 41.383 -6.415
368 1 40.454 37.228 -17.618
369 1 35.710 34.005 -7.652
370 1 68.837 9.511 54.667
371 1 64.069 3.519 59.144
372 1 65.455 6.373 52.075
373 1 38.331 16.600 20.519
374 1 33.546 5.929 16.186
375 1 33.440 9.146 12.028
376 1 -18.906 52.660 -10.866
377 1 -20.127 59.657 -22.497
378 1 -29.356 47.897 -15.844
379 1 -7.988 3.538 -3.670
380 1 -0.484 3.503 4.691
381 1 -5.041 -4.542 -5.576
382 1 26.331 9.109 7.512
383 1 26.055 3.440 7.517
384 1 27.929 3.300 10.045
385 1 23.053 35.230 -3.025
386 1 17.879 39.282 10.253
387 1 19.666 42.517 13.825
388 1 -21.530 21.432 2.319
389 1 -14.612 11.791 -2.677
390 1 -15.822 20.884 2.092
391 1 25.120 25.903 -4.047
392 1 24.857 31.943 -1.118
393 1 23.307 29.036 -16.730
394 1 8.042 84.452 11.551
395 1 0.932 76.791 16.513
396 1 3.752 86.208 12.980
397 1 41.063 71.263 -25.110
398 1 41.335 63.102 -29.056
399 1 39.720 64.207 -23.943
400 1 13.564 40.331 45.528
401 1 13.868 38.041 60.204
402 1 14.481 35.260 51.850
403 1 -8.317 23.385 -9.612
404 1 -8.300 20.003 -2.211
405 1 -3.002 27.388 -19.811
406 1 40.667 27.965 -16.835
407 1 37.094 27.691 -18.415
408 1 35.508 21.750 -16.927
409 1 34.315 -8.036 -15.344
410 1 30.687 1.925 -10.483
411 1 28.777 3.846 -7.146
412 1 46.411 -9.377 -26.182
413 1 54.501 -15.989 -29.029
414 1 46.956 -10.791 -23.523
415 1 -12.109 -29.656 -3.311
416 1 -9.377 -33.218 -1.222
417 1 -7.317 -23.698 2.019
418 1 -12.913 31.295 16.063
419 1 -16.092 37.697 9.321
420 1 -11.384 31.941 8.260
421 1 -11.629 73.776 12.601
422 1 -6.260 67.357 13.980
423 1 -12.279 60.799 18.543
424 1 36.596 -26.943 21.638
425 1 40.680 -29.256 16.819
426 1 34.786 -25.542 11.430
427 1 -37.744 67.355 9.902
428 1 -30.808 65.138 16.605
429 1 -31.973 61.681 19.555
430 1 37.864 -2.423 21.591
431 1 43.315 -0.229 16.402
432 1 41.336 -0.941 23.069
433 1 38.832 -2.736 40.549
434 1 42.761 -1.559 39.793
435 1 35.462 0.318 34.542
436 1 -19.093 18.599 33.776
437 1 -12.987 11.850 39.153
438 1 -16.890 17.445 32.822
439 1 3.427 25.815 -39.780
440 1 0.019 36.135 -46.597
441 1 3.807 28.225 -42.944
442 1 2.030 37.939 40.488
443 1 -0.339 32.819 38.860
444 1 0.901 30.608 41.271
445 1 21.907 28.743 -1.443
446 1 19.381 29.051 -6.263
447 1 17.410 22.897 -2.362
448 1 -3.986 24.963 -39.698
449 1 -0.396 21.966 -37.483
450 1 0.033 27.052 -45.785
451 1 24.603 73.001 28.364
452 1 29.182 69.951 21.684
453 1 30.447 67.962 21.830
454 1 12.259 -13.003 11.893
455 1 18.547 -16.264 8.513
456 1 15.531 -12.514 8.137
457 1 32.757 62.962 7.010
458 1 30.748 67.603 10.873
459 1 34.803 67.786 7.648
460 1 -14.317 24.007 -20.723
461 1 -8.887 36.429 -16.040
462 1 -14.093 31.376 -8.980
463 1 -16.310 39.810 22.295
464 1 -24.146 36.471 28.354
465 1 -14.643 29.401 15.277
466 1 -3.291 -58.464 -20.792
467 1 4.163 -51.155 -20.611
468 1 0.574 -47.276 -11.466
469 1 15.030 4.617 -7.846
470 1 5.434 4.948 -1.519
471 1 4.976 3.825 -10.513
472 1 3.367 2.208 13.750
473 1 9.117 1.735 -0.156
474 1 -0.729 2.888 4.127
475 1 -0.315 0.987 73.453
476 1 3.853 2.125 74.442
477 1 4.446 6.760 71.083
478 1 25.745 29.556 0.987
479 1 32.717 31.523 -3.841
480 1 26.508 35.748 -4.832
481 1 -0.354 12.234 24.280
482 1 -1.179 17.805 21.053
483 1 -4.984 14.550 24.088
484 1 21.170 44.473 -2.598
485 1 19.487 45.743 0.591
486 1 16.531 41.735 -1.791
487 1 15.533 35.298 -8.348
488 1 17.582 36.023 -6.999
489 1 13.270 35.512 0.435
490 1 37.535 61.372 -6.802
491 1 29.712 68.749 -1.288
492 1 36.700 65.165 1.949
493 1 27.964 17.600 3.644
494 1 19.566 8.767 2.789
495 1 24.947 10.333 0.595
496 1 -39.997 14.364 6.110
497 1 -40.955 18.276 6.579
498 1 -48.279 18.252 6.127
499 1 -39.009 19.570 10.676
500 1 -43.787 26.722 17.254
501 1 -39.595 20.409 8.729
502 1 19.165 16.802 10.110
503 1 18.689 16.631 7.695
504 1 20.660 20.175 10.981
505 1 26.153 2.592 -28.639
506 1 21.242 12.700 -29.868
507 1 22.715 13.470 -26.161
508 1 22.011 60.413 -4.226
509 1 28.902 60.687 3.450
510 1 26.437 56.240 -8.336
511 1 2.004 42.907 39.874
512 1 0.615 41.386 42.188
513 1 5.469 45.448 35.632
514 1 0.122 49.238 -3.734
515 1 2.409 51.171 -1.238
516 1 2.772 45.249 -8.685
517 1 10.223 55.900 52.955
518 1 18.291 48.461 52.978
519 1 18.121 53.637 45.756
520 1 50.287 5.916 22.993
521 1 52.057 8.192 30.239
522 1 51.072 4.529 32.826
523 1 -10.614 23.987 37.679
524 1 -1.863 28.053 38.201
525 1 -10.851 22.427 35.748
526 1 2.334 6.551 25.080
527 1 4.978 -2.962 24.626
528 1 1.131 -0.982 28.888
529 1 26.411 8.159 -0.657
530 1 24.020 10.564 -4.255
531 1 25.323 19.354 -5.938
532 1 33.177 54.781 -20.879
533 1 23.462 69.669 -23.729
534 1 21.411 63.376 -19.071
535 1 34.725 55.341 -26.966
536 1 43.838 61.504 -27.853
537 1 40.100 64.042 -20.290
538 1 -2.238 8.513 11.510
539 1 -0.783 -3.136 13.705
540 1 2.965 0.128 14.695
541 1 29.061 31.277 31.123
542 1 27.550 37.616 36.628
543 1 30.398 35.387 30.519
544 1 -2.628 37.159 16.207
545 1 1.502 33.827 19.696
546 1 -2.193 35.104 16.759
547 1 -20.976 -10.790 0.018
548 1 -13.821 -17.398 2.722
549 1 -14.462 -12.758 2.094
550 1 40.595 56.592 4.840
551 1 36.109 55.735 4.285
552 1 38.367 50.626 -1.680
553 1 8.872 7.276 19.665
554 1 6.606 7.446 22.209
555 1 3.580 17.268 21.131
556 1 0.395 47.971 -32.711
557 1 -3.935 40.220 -25.346
558 1 -5.132 49.123 -27.090
559 1 -8.643 31.297 -2.893
560 1 -9.586 18.976 -12.754
561 1 -9.310 23.170 -7.223
562 1 8.453 35.436 26.554
563 1 11.823 40.854 28.692
564 1 7.962 40.490 25.160
565 1 14.695 111.482 20.957
566 1 12.177 112.902 7.255
567 1 15.243 113.672 14.970
568 1 9.971 58.549 -6.678
569 1 12.339 61.464 -12.315
570 1 16.627 60.039 -14.745
571 1 15.650 53.795 0.709
572 1 14.895 61.343 0.798
573 1 11.885 59.473 9.953
574 1 0.185 53.526 16.992
575 1 -5.995 51.519 18.201
576 1 -4.346 47.610 18.234
577 1 -21.441 30.381 36.108
578 1 -17.420 33.070 22.035
579 1 -22.348 28.800 27.596
580 1 28.119 -25.929 28.173
581 1 33.568 -21.782 32.493
582 1 32.874 -19.235 28.584
583 1 -9.416 6.878 44.097
584 1 -6.933 5.277 44.229
585 1 -4.421 2.887 40.889
586 1 -9.312 22.258 -10.456
587 1 -6.296 25.950 -2.913
588 1 -5.239 25.254 -12.074
589 1 58.724 60.215 19.447
590 1 56.030 65.317 15.973
591 1 57.133 65.256 17.935
592 1 23.715 3.344 -8.479
593 1 32.434 -0.240 0.321
594 1 23.775 5.162 1.372
595 1 29.830 51.834 -22.510
596 1 26.420 48.086 -9.948
597 1 25.817 50.713 -22.901
598 1 44.915 -1.105 -0.979
599 1 47.549 -4.959 -4.627
600 1 42.313 -9.327 -17.844
601 1 27.060 82.451 30.653
602 1 29.956 85.479 28.332
603 1 32.232 78.149 26.895
604 1 47.326 -9.044 -19.064
605 1 46.887 -6.593 -10.442
606 1 46.256 -2.937 -17.805
607 1 44.134 33.149 25.378
608 1 41.470 32.016 37.244
609 1 38.648 27.814 23.294
610 1 -13.844 12.932 -66.011
611 1 -11.781 18.522 -65.484
612 1 -11.670 5.555 -65.863
613 1 14.709 43.815 11.646
614 1 18.851 48.891 12.325
615 1 22.083 44.244 2.792
616 1 33.720 61.432 -26.429
617 1 29.584 56.385 -20.099
618 1 32.649 60.101 -16.145
619 1 33.409 1.859 -11.517
620 1 34.325 -4.986 1.433
621 1 33.243 3.344 -0.158
622 1 21.588 68.946 22.507
623 1 20.405 70.401 37.840
624 1 20.332 69.067 31.957
625 1 41.456 15.114 -14.199
626 1 36.942 16.480 -16.806
627 1 38.107 17.911 -10.951
628 1 20.468 66.953 6.873
629 1 19.630 58.529 10.000
630 1 14.004 68.186 11.372
631 1 -12.054 67.807 -2.307
632 1 -11.840 57.192 3.151
633 1 -17.153 58.457 10.085
634 1 35.486 26.068 0.352
635 1 41.192 27.244 13.458
636 1 40.954 24.932 6.556
637 1 27.940 54.655 35.339
638 1 25.300 52.968 30.891
639 1 26.068 53.584 33.081
640 1 32.900 77.629 -3.611
641 1 38.664 80.981 -5.180
642 1 36.099 78.890 -9.562
643 1 71.610 23.965 18.588
644 1 60.024 19.895 20.399
645 1 59.408 17.994 17.399
646 1 28.040 -17.434 14.674
647 1 26.628 -10.748 20.742
648 1 24.423 -10.491 16.678
649 1 3.399 47.322 -15.192
650 1 0.784 43.238 -12.798
651 1 1.182 48.122 -9.736
652 1 21.228 49.707 -36.194
653 1 23.376 54.641 -30.410
654 1 23.885 55.859 -35.535
655 1 -14.769 47.806 -26.786
656 1 -10.211 55.803 -20.142
657 1 -6.066 55.830 -16.988
658 1 21.937 74.583 7.797
659 1 21.062 73.355 14.465
660 1 23.679 72.531 10.772
661 1 -11.849 18.957 -11.944
662 1 -15.704 16.168 -10.066
663 1 -13.324 19.143 -8.084
664 1 -3.297 18.416 -36.516
665 1 -9.217 24.706 -38.104
666 1 -7.290 24.440 -50.132
667 1 47.496 30.675 -0.907
668 1 45.728 29.138 3.914
669 1 45.689 32.064 -15.949
670 1 11.153 84.933 48.953
671 1 1.363 82.876 48.981
672 1 7.144 82.597 39.565
673 1 15.075 24.856 -14.879
674 1 19.093 34.120 -18.025
675 1 16.544 25.953 -11.014
676 1 49.781 13.999 50.474
677 1 45.201 16.297 50.501
678 1 44.986 16.654 54.738
679 1 -20.400 23.868 17.290
680 1 -17.642 33.501 11.350
681 1 -14.405 29.167 14.260
682 1 22.346 41.081 -2.510
683 1 24.385 45.817 -10.562
684 1 20.675 40.865 -14.005
685 1 -7.209 50.852 -7.982
686 1 -1.993 44.316 -7.790
687 1 -5.282 50.997 -1.522
688 1 -15.024 -23.295 0.370
689 1 -18.824 -22.361 7.639
690 1 -17.618 -23.023 3.807
691 1 -33.029 16.129 32.239
692 1 -30.317 13.871 30.712
693 1 -27.981 4.116 32.708
694 1 35.441 1.295 25.378
695 1 34.376 1.408 22.766
696 1 30.365 -5.370 23.227
697 1 -3.514 52.371 -2.471
698 1 1.114 61.095 -4.353
699 1 -3.002 62.703 -7.303
700 1 -18.886 -0.538 -20.519
701 1 -22.841 5.014 -15.405
702 1 -14.239 1.363 -13.167
703 1 10.842 15.996 45.736
704 1 6.548 20.527 50.368
705 1 9.024 14.799 49.225
706 1 -14.010 -19.663 11.620
707 1 -20.495 -20.016 10.071
708 1 -12.503 -14.164 24.454
709 1 26.709 -34.783 -4.896
710 1 31.712 -35.144 -3.474
711 1 28.904 -34.244 6.941
712 1 -5.718 45.266 -25.066
713 1 2.010 50.287 -15.467
714 1 -0.327 48.102 -23.933
715 1 40.209 13.579 -17.933
716 1 43.097 6.947 -16.946
717 1 48.448 7.488 -27.898
718 1 36.547 -42.965 11.364
719 1 41.338 -42.157 11.099
720 1 41.193 -50.402 13.252
721 1 39.958 44.050 1.201
722 1 40.336 40.962 -5.902
723 1 38.973 32.024 6.961
724 1 -1.511 55.475 -29.702
725 1 -1.538 53.553 -30.681
726 1 10.671 57.113 -36.659
727 1 -48.805 -5.846 -8.496
728 1 -48.897 0.099 -9.320
729 1 -42.258 -3.335 -17.965
730 1 23.168 11.398 3.428
731 1 21.020 20.244 4.663
732 1 27.858 19.314 4.386
733 1 20.234 6.662 18.935
734 1 17.607 8.284 22.683
735 1 25.496 3.446 19.633
736 1 0.851 34.415 5.313
737 1 7.699 22.867 -3.598
738 1 5.990 29.526 -4.048
739 1 -9.144 -5.681 47.847
740 1 -9.773 -7.893 44.868
741 1 -9.698 1.164 46.175
742 1 44.168 -51.762 42.021
743 1 34.939 -52.029 44.814
744 1 42.289 -43.588 42.931
745 1 67.734 40.320 26.198
746 1 72.216 36.954 28.341
747 1 66.704 39.865 25.568
748 1 -28.794 -17.319 28.107
749 1 -36.336 -22.107 24.903
750 1 -37.759 -19.263 24.486
751 1 19.731 -6.905 18.501
752 1 19.544 -6.968 18.204
753 1 15.500 -6.576 21.922
754 1 13.673 -22.106 9.420
755 1 15.305 -25.800 3.525
756 1 16.213 -32.168 3.861
757 1 4.869 10.325 19.277
758 1 11.170 16.320 23.033
759 1 4.718 13.157 18.011
760 1 36.011 44.669 4.921
761 1 37.774 51.406 13.975
762 1 30.570 44.125 3.604
763 1 40.657 -19.014 -5.614
764 1 37.915 -16.027 -1.700
765 1 40.976 -13.954 -0.747
766 1 -23.929 -22.153 24.956
767 1 -27.938 -16.426 31.906
768 1 -25.052 -30.733 22.360
769 1 81.469 -2.720 -1.907
770 1 78.325 -0.768 -3.710
771 1 82.454 -6.861 -1.330
772 1 4.459 43.067 -18.019
773 1 7.307 43.451 -15.095
774 1 10.657 45.843 -15.941
775 1 26.864 23.034 14.467
776 1 31.223 19.491 11.990
777 1 27.203 16.032 19.685
778 1 30.587 24.290 1.079
779 1 32.054 21.576 2.012
780 1 31.152 24.160 -1.144
781 1 -13.814 -18.569 4.260
782 1 -19.329 -20.244 9.335
783 1 -15.523 -18.413 6.299
784 1 14.222 -2.758 6.167
785 1 10.152 -9.187 3.773
786 1 14.596 -13.887 2.373
787 1 -21.805 29.782 13.411
788 1 -16.533 31.308 19.272
789 1 -21.465 30.985 18.900
790 1 21.806 -50.371 -3.830
791 1 28.026 -53.481 -8.587
792 1 26.321 -49.598 -2.498
793 1 19.371 16.421 18.082
794 1 20.997 15.795 9.270
795 1 20.517 12.545 18.750
796 1 56.110 17.756 51.516
797 1 54.632 12.257 52.008
798 1 50.943 11.692 53.067
799 1 36.822 18.390 -4.528
800 1 36.314 14.244 -10.452
801 1 37.760 13.322 -11.141
802 1 39.395 47.634 10.446
803 1 32.667 47.066 13.634
804 1 38.842 46.456 10.044
805 1 12.414 -46.383 5.205
806 1 8.843 -39.600 2.636
807 1 2.396 -41.440 0.463
808 1 2.674 60.788 -24.029
809 1 1.136 56.692 -21.190
810 1 -1.514 65.928 -21.169
811 1 -9.258 13.609 6.624
812 1 -6.476 21.981 5.321
813 1 -7.764 12.127 5.825
814 1 19.594 10.276 2.931
815 1 16.198 12.489 6.906
816 1 17.751 14.467 8.844
817 1 -27.090 -5.878 42.910
818 1 -23.189 2.776 42.678
819 1 -30.917 -5.361 31.815
820 1 -0.073 42.161 45.905
821 1 4.036 40.982 49.496
822 1 -0.161 41.859 46.636
823 1 53.844 -7.055 3.844
824 1 60.341 -5.292 10.024
825 1 63.282 -10.181 4.718
826 1 45.928 28.070 10.567
827 1 51.934 20.520 5.877
828 1 52.510 25.771 19.568
829 1 65.838 13.622 79.710
830 1 58.922 15.297 83.753
831 1 62.992 11.025 71.563
832 1 5.483 3.522 -14.344
833 1 -0.225 10.706 -12.752
834 1 -3.566 3.346 -8.914
835 1 13.833 3.042 -2.129
836 1 12.358 0.371 -7.245
837 1 14.592 -0.043 -0.127
838 1 14.904 2.823 -2.155
839 1 15.953 17.592 -3.367
840 1 11.098 8.966 3.464
841 1 9.419 -9.124 22.431
842 1 2.808 -5.261 24.333
843 1 11.671 -2.799 26.744
844 1 2.130 -18.865 7.751
845 1 -3.871 -22.606 5.076
846 1 -7.426 -21.550 8.310
847 1 20.411 31.730 24.725
848 1 14.123 30.482 38.557
849 1 17.675 34.832 41.676
850 1 -25.548 49.806 48.341
851 1 -27.992 47.237 50.856
852 1 -32.206 55.690 46.736
853 1 23.567 33.290 -10.913
854 1 26.946 36.676 -10.341
855 1 20.506 32.659 -10.151
856 1 22.354 -3.753 -3.343
857 1 19.011 -1.925 0.433
858 1 15.493 -4.716 7.818
859 1 13.130 -32.635 -48.374
860 1 10.818 -37.416 -42.278
861 1 14.020 -38.533 -31.010
862 1 53.035 -5.292 -14.775
863 1 58.150 -3.931 -8.345
864 1 58.641 7.168 -18.127
865 1 48.199 16.089 26.000
866 1 41.098 11.366 30.223
867 1 48.530 20.931 16.699
868 1 47.353 -4.998 -16.238
869 1 45.760 6.211 -16.254
870 1 48.004 -6.339 -18.906
871 1 31.592 -12.301 8.335
872 1 33.219 -7.981 10.016
873 1 29.892 -11.434 -1.088
874 1 8.788 22.778 -15.570
875 1 9.313 16.229 -20.655
876 1 11.096 15.962 -6.153
877 1 40.128 43.883 18.187
878 1 43.476 51.149 25.931
879 1 44.044 43.844 25.386
880 1 18.955 44.963 -16.158
881 1 27.116 42.929 -23.172
882 1 22.479 44.696 -26.175
883 1 -25.458 -8.415 -11.447
884 1 -19.131 -14.723 -11.587
885 1 -17.623 -11.633 -7.209
886 1 -25.588 0.259 12.697
887 1 -24.730 -6.421 11.872
888 1 -31.309 -9.127 14.096
889 1 32.702 32.245 11.532
890 1 28.513 33.951 8.840
891 1 26.572 38.845 9.594
892 1 -19.009 -28.897 0.373
893 1 -18.283 -36.016 -13.194
894 1 -15.505 -39.175 -9.191
895 1 16.594 62.509 19.533
896 1 18.983 63.523 24.743
897 1 24.123 66.212 21.894
898 1 43.348 84.661 25.876
899 1 45.493 88.548 23.969
900 1 47.771 78.592 29.011
901 1 5.581 48.713 -5.963
902 1 -3.470 43.928 -13.567
903 1 5.928 45.124 -9.345
904 1 51.784 32.171 -8.415
905 1 41.175 38.262 -5.302
906 1 47.884 40.042 0.649
907 1 59.104 0.544 -0.716
908 1 53.830 3.306 -2.202
909 1 51.861 4.492 4.238
910 1 26.755 -29.951 51.870
911 1 23.156 -38.298 50.075
912 1 16.663 -36.085 53.472
913 1 49.068 56.444 38.413
914 1 47.771 61.203 37.078
915 1 50.198 57.191 36.336
916 1 32.693 40.577 -26.232
917 1 39.723 42.671 -29.939
918 1 38.702 43.804 -28.600
919 1 35.726 9.635 9.094
920 1 35.198 28.364 16.946
921 1 37.353 20.395 13.425
922 1 44.049 -18.742 25.162
923 1 45.519 -21.463 33.960
924 1 54.069 -17.916 17.334
925 1 -38.661 38.493 17.039
926 1 -42.414 29.750 11.037
927 1 -39.347 39.544 18.925
928 1 45.314 1.377 -27.275
929 1 47.721 2.019 -27.839
930 1 47.730 -0.320 -21.110
931 1 -3.858 -3.903 23.835
932 1 -6.522 4.247 25.737
933 1 -3.997 -5.861 23.198
934 1 -9.135 18.797 -49.334
935 1 -0.317 13.287 -45.832
936 1 -0.730 16.072 -36.666
937 1 23.259 49.561 40.032
938 1 18.763 51.834 31.414
939 1 23.071 48.540 33.205
940 1 -2.510 4.900 50.985
941 1 -2.544 2.578 43.588
942 1 -8.926 0.200 48.627
943 1 -1.703 20.098 22.494
944 1 -6.181 19.797 25.560
945 1 -5.687 22.992 23.283
946 1 54.538 18.998 47.329
947 1 58.164 8.699 48.478
948 1 51.019 24.376 44.103
949 1 -2.027 1.599 20.532
950 1 -2.182 -8.964 21.515
951 1 -3.574 -4.966 21.908
952 1 47.085 9.969 14.532
953 1 48.602 13.150 33.201
954 1 44.157 16.718 22.165
955 1 28.554 45.976 25.816
956 1 23.022 44.621 24.341
957 1 26.899 43.910 22.043
958 1 35.028 6.690 24.315
959 1 36.037 14.815 20.871
960 1 37.656 13.742 25.693
961 1 21.879 -1.384 41.540
962 1 20.912 -9.807 40.838
963 1 21.393 -4.416 35.678
964 1 -3.549 6.270 68.236
965 1 -4.120 0.794 71.563
966 1 -6.982 8.724 68.681
967 1 33.373 30.538 -21.576
968 1 34.827 31.896 -23.368
969 1 27.748 44.297 -16.002
970 1 4.015 43.485 5.252
971 1 1.782 43.537 11.300
972 1 -0.870 38.121 7.528
973 1 18.197 72.889 -6.130
974 1 21.330 80.562 -10.203
975 1 20.102 74.423 -0.520
976 1 -3.065 24.169 -18.394
977 1 0.135 30.026 -19.505
978 1 -1.327 26.761 -12.155
979 1 28.840 63.392 25.224
980 1 27.833 62.974 27.827
981 1 18.146 64.302 25.141
982 1 5.598 37.952 31.634
983 1 8.822 23.901 27.991
984 1 11.074 31.010 25.173
985 1 0.730 11.779 6.796
986 1 2.039 12.504 5.443
987 1 -1.316 7.857 -0.395
988 1 14.154 3.083 -1.783
989 1 9.018 5.544 1.983
990 1 10.895 3.624 7.890
991 1 43.775 28.743 51.943
992 1 46.278 22.514 65.892
993 1 45.819 22.621 61.252
994 1 27.876 7.212 22.376
995 1 32.999 10.090 11.922
996 1 27.321 9.085 18.645
997 1 11.053 24.814 15.516
998 1 5.528 26.905 6.258
999 1 6.867 28.407 11.513
1000 1 14.894 19.422 10.007
1001 1 13.845 24.170 9.625
1002 1 11.185 22.458 12.759
1003 1 -7.241 33.909 12.834
1004 1 -14.900 31.612 7.692
1005 1 -11.380 37.145 8.412
1006 1 6.888 -0.682 6.571
1007 1 11.207 3.475 6.823
1008 1 9.614 1.513 2.285
1009 1 32.858 25.101 -27.036
1010 1 26.483 35.634 -31.046
1011 1 28.006 25.789 -24.614
1012 1 -36.443 48.203 22.537
1013 1 -31.031 50.728 33.156
1014 1 -29.596 55.062 24.957
1015 1 0.193 74.455 4.416
1016 1 11.866 69.695 11.745
1017 1 1.401 77.450 3.665
1018 1 48.534 23.495 -11.204
1019 1 45.074 26.956 -6.433
1020 1 48.425 25.944 -8.814
1021 1 4.223 15.634 58.149
1022 1 8.687 18.857 50.711
1023 1 4.675 19.499 49.629
1024 1 -9.362 50.339 -10.269
1025 1 -5.792 51.076 -13.875
1026 1 -8.289 48.831 -12.285
1027 1 40.997 3.353 -4.801
1028 1 49.805 -2.889 -13.852
1029 1 42.555 5.520 -11.741
1030 1 55.326 13.199 27.223
1031 1 58.181 16.760 13.491
1032 1 51.761 22.848 20.685
1033 1 56.016 69.900 16.264
1034 1 51.874 68.846 10.721
1035 1 53.384 68.859 18.565
1036 1 72.850 -1.239 51.387
1037 1 77.488 -2.355 41.365
1038 1 73.839 6.310 48.892
1039 1 -24.549 58.173 -9.474
1040 1 -23.712 66.163 -2.835
1041 1 -29.749 58.353 -11.326
1042 1 11.028 50.146 19.641
1043 1 10.814 56.230 18.369
1044 1 11.466 52.041 16.517
1045 1 29.257 61.111 -10.283
1046 1 27.278 66.026 -12.187
1047 1 29.629 67.384 -0.213
1048 1 -21.916 44.062 20.189
1049 1 -14.593 48.095 14.122
1050 1 -21.005 43.418 17.356
1051 1 4.764 26.273 26.502
1052 1 10.565 30.473 21.097
1053 1 8.160 27.332 25.297
1054 1 53.462 9.092 -1.601
1055 1 41.200 3.901 1.500
1056 1 42.820 2.483 1.971
1057 1 18.702 39.064 46.278
1058 1 19.068 41.675 47.497
1059 1 18.185 39.723 38.758
1060 1 3.738 0.883 43.374
1061 1 6.132 -11.429 40.067
1062 1 5.051 -5.461 43.160
1063 1 23.596 27.482 -1.450
1064 1 22.174 26.111 -2.958
1065 1 29.246 29.904 -0.093
1066 1 42.946 46.417 43.820
1067 1 36.563 39.323 39.576
1068 1 41.858 43.586 36.990
1069 1 66.510 20.081 15.492
1070 1 65.713 22.034 8.170
1071 1 65.712 28.369 1.783
1072 1 34.419 25.651 17.795
1073 1 33.770 29.501 17.105
1074 1 41.582 26.072 17.955
1075 1 88.806 -9.421 50.992
1076 1 83.801 -4.327 51.524
1077 1 85.133 -2.161 39.642
1078 1 19.719 31.114 11.678
1079 1 27.719 35.301 9.135
1080 1 26.467 33.927 2.422
1081 1 -26.127 0.446 -29.350
1082 1 -27.029 -2.927 -23.316
1083 1 -19.631 2.485 -31.344
1084 1 6.921 27.160 16.126
1085 1 10.203 27.527 14.556
1086 1 0.663 17.280 9.981
1087 1 6.463 24.294 42.683
1088 1 5.475 31.288 36.508
1089 1 6.937 25.923 46.013
1090 1 39.447 54.720 7.343
1091 1 41.031 42.387 10.310
1092 1 35.663 58.137 14.832
1093 1 23.968 36.500 -26.030
1094 1 15.753 44.830 -22.048
1095 1 19.898 41.302 -19.122
1096 1 33.005 19.434 -4.106
1097 1 27.836 14.114 1.698
1098 1 36.075 20.927 -12.103
1099 1 21.131 37.695 3.864
1100 1 21.540 33.459 9.317
1101 1 19.697 36.841 7.668
1102 1 69.495 12.721 -11.210
1103 1 64.662 2.077 -22.427
1104 1 65.804 7.771 -17.562
1105 1 -7.755 48.119 -18.922
1106 1 -19.882 51.343 -5.022
1107 1 -14.085 47.752 -17.771
1108 1 7.350 0.951 -1.005
1109 1 19.156 0.071 -4.772
1110 1 12.853 4.277 -1.510
1111 1 56.471 33.313 57.305
1112 1 54.892 27.461 44.431
1113 1 52.412 28.332 44.936
1114 1 48.242 57.486 9.550
1115 1 35.886 55.611 12.359
1116 1 33.682 49.341 8.314
1117 1 -1.363 62.514 1.122
1118 1 0.456 58.103 5.042
1119 1 -0.767 69.665 2.688
1120 1 -3.332 60.623 -17.188
1121 1 -6.595 59.285 -15.426
1122 1 4.515 61.713 -16.045
1123 1 -17.506 44.397 21.165
1124 1 -12.414 45.358 23.702
1125 1 -12.405 43.297 19.048
1126 1 -18.337 85.323 4.280
1127 1 -18.252 91.602 -2.419
1128 1 -10.582 82.005 -2.467
1129 1 39.326 21.730 54.301
1130 1 38.490 38.245 62.502
1131 1 40.056 29.364 64.231
1132 1 14.420 16.188 11.890
1133 1 19.102 15.659 10.272
1134 1 22.198 15.387 13.825
1135 1 33.571 -29.680 -10.227
1136 1 31.856 -24.558 -14.178
1137 1 36.094 -30.165 -8.292
1138 1 7.097 26.664 0.567
1139 1 9.314 25.076 -4.242
1140 1 2.223 25.354 8.746
1141 1 28.096 55.790 -36.231
1142 1 17.877 51.942 -38.539
1143 1 21.916 51.326 -31.260
1144 1 14.454 19.690 14.290
1145 1 12.881 25.488 15.039
1146 1 11.118 17.186 19.723
1147 1 -4.261 62.435 10.989
1148 1 -1.914 63.039 7.715
1149 1 -0.488 63.374 8.631
1150 1 15.853 48.512 -3.315
1151 1 18.635 53.167 -5.848
1152 1 16.547 59.660 6.259
1153 1 72.656 34.888 -17.420
1154 1 81.479 45.759 -23.275
1155 1 69.496 42.252 -12.831
1156 1 9.084 21.361 -25.321
1157 1 13.087 27.156 -18.323
1158 1 14.779 20.475 -14.181
1159 1 26.294 80.988 61.979
1160 1 25.405 83.802 45.513
1161 1 20.483 81.412 52.465
1162 1 35.568 23.855 14.176
1163 1 37.105 27.016 19.525
1164 1 37.573 23.638 15.423
1165 1 12.607 66.649 57.244
1166 1 11.867 62.806 55.512
1167 1 19.338 65.126 45.676
1168 1 17.960 29.215 35.156
1169 1 15.798 25.981 35.016
1170 1 16.981 30.593 40.111
1171 1 4.854 41.296 -6.290
1172 1 8.239 48.543 -15.031
1173 1 5.264 44.354 -15.282
1174 1 24.005 9.892 24.137
1175 1 19.609 11.920 10.536
1176 1 20.253 4.198 21.058
1177 1 -19.431 80.537 -3.622
1178 1 -16.984 79.095 -1.117
1179 1 -22.903 85.127 7.317
1180 1 57.004 39.778 5.400
1181 1 58.237 35.803 6.612
1182 1 56.115 36.888 14.384
1183 1 12.095 8.764 -22.213
1184 1 14.739 8.713 -24.534
1185 1 17.065 2.460 -30.389
1186 1 -14.269 42.523 -0.313
1187 1 -17.093 52.399 4.203
1188 1 -13.311 50.102 -5.250
1189 1 57.916 119.416 38.976
1190 1 61.430 118.273 45.893
1191 1 55.485 127.331 45.099
1192 1 2.747 81.976 57.299
1193 1 2.898 89.119 59.712
1194 1 -0.241 84.918 53.147
1195 1 -14.937 -25.275 -17.879
1196 1 -20.152 -22.778 -16.027
1197 1 -21.015 -16.981 -12.754
1198 1 33.072 10.653 -23.133
1199 1 41.597 14.203 -22.696
1200 1 38.250 12.122 -18.298
1201 1 -30.106 -2.394 7.749
1202 1 -26.209 -9.244 -0.210
1203 1 -30.583 -7.538 -1.526
1204 1 44.043 6.724 38.153
1205 1 39.303 0.338 44.452
1206 1 44.331 0.381 31.318
1207 1 31.554 -18.865 8.694
1208 1 23.597 -19.005 -1.013
1209 1 32.687 -19.085 7.502
1210 1 0.771 54.235 38.030
1211 1 9.853 46.922 42.923
1212 1 5.740 50.914 38.565
1213 1 -12.389 31.480 -8.129
1214 1 -5.439 20.058 -9.583
1215 1 -5.881 30.954 -13.044
1216 1 61.106 -1.694 16.612
1217 1 64.323 4.354 11.513
1218 1 57.819 6.101 12.897
1219 1 57.999 11.112 -9.070
1220 1 50.543 15.105 -3.855
1221 1 53.142 10.993 -3.858
1222 1 50.171 33.713 29.763
1223 1 49.367 29.412 33.080
1224 1 45.437 29.379 29.820
1225 1 28.068 23.333 45.752
1226 1 24.401 23.654 39.148
1227 1 30.386 24.791 48.450
1228 1 43.244 27.073 11.649
1229 1 42.304 36.165 1.443
1230 1 43.506 26.101 8.080
1231 1 24.140 0.280 8.739
1232 1 22.775 8.160 10.786
1233 1 29.279 8.016 16.088
1234 1 3.504 3.305 -1.393
1235 1 10.544 3.446 6.187
1236 1 8.210 -4.053 -0.333
1237 1 37.959 19.302 29.311
1238 1 45.695 24.319 35.078
1239 1 42.235 26.794 32.013
1240 1 42.222 14.017 10.102
1241 1 41.584 12.091 11.613
1242 1 47.279 10.928 2.767
1243 1 20.890 3.695 -5.252
1244 1 17.305 9.568 -9.060
1245 1 24.504 10.180 -13.874
1246 1 32.114 26.490 31.596
1247 1 29.927 20.985 33.238
1248 1 34.385 22.758 25.827
1249 1 -10.314 37.407 -5.113
1250 1 -14.447 42.793 -9.827
1251 1 -8.523 40.314 0.019
1252 1 25.674 35.311 -15.257
1253 1 20.504 32.599 -14.576
1254 1 25.725 37.609 -29.715
1255 1 22.054 11.115 41.812
1256 1 20.064 11.923 45.182
1257 1 16.997 13.922 37.583
1258 1 31.035 12.647 54.448
1259 1 29.616 10.466 52.006
1260 1 30.719 5.809 55.977
1261 1 16.622 9.088 24.159
1262 1 25.094 9.062 25.690
1263 1 19.153 7.220 15.398
1264 1 33.133 1.390 20.502
1265 1 34.991 8.688 17.458
1266 1 29.835 2.203 19.457
1267 1 35.265 14.449 29.013
1268 1 35.902 6.758 29.030
1269 1 31.643 8.426 20.042
1270 1 52.868 4.057 -19.018
1271 1 57.740 3.369 -12.659
1272 1 52.488 -0.420 -12.808
1273 1 -6.697 -36.503 54.666
1274 1 -18.979 -37.082 53.261
1275 1 -14.447 -38.916 47.443
1276 1 43.049 53.709 44.508
1277 1 42.171 58.420 45.968
1278 1 37.552 54.252 46.000
1279 1 -11.857 -14.942 33.963
1280 1 -19.424 -18.525 25.961
1281 1 -13.316 -7.794 32.230
1282 1 52.039 -25.010 -18.963
1283 1 55.802 -25.511 -13.889
1284 1 48.503 -33.059 -5.626
1285 1 9.119 24.059 17.780
1286 1 4.578 20.439 24.387
1287 1 3.799 23.612 18.703
1288 1 47.202 28.260 -0.416
1289 1 47.426 32.640 2.430
1290 1 47.061 28.848 9.003
1291 1 20.024 -15.458 -14.744
1292 1 19.089 -18.949 -17.481
1293 1 16.307 -22.854 -14.576
1294 1 15.369 7.175 -43.822
1295 1 15.165 9.289 -33.885
1296 1 9.660 6.905 -41.116
1297 1 6.794 15.954 -15.872
1298 1 7.810 17.886 -25.657
1299 1 7.279 11.059 -12.806
1300 1 35.486 5.153 54.958
1301 1 33.515 2.769 49.641
1302 1 33.780 -1.088 46.350
1303 1 9.814 3.707 -7.741
1304 1 14.603 -0.201 -5.336
1305 1 5.347 0.882 -7.133
1306 1 65.981 15.230 -27.570
1307 1 60.404 4.899 -23.987
1308 1 66.615 11.647 -17.063
1309 1 76.733 -4.001 30.527
1310 1 81.310 5.529 32.219
1311 1 76.913 1.520 27.503
1312 1 -35.402 37.396 -5.132
1313 1 -30.520 32.372 -3.172
1314 1 -36.511 39.382 -2.931
1315 1 20.226 0.605 53.656
1316 1 27.603 4.320 57.132
1317 1 27.647 -2.438 62.732
1318 1 25.503 54.791 18.431
1319 1 24.175 59.636 25.307
1320 1 23.033 59.341 22.782
1321 1 14.395 19.997 0.514
1322 1 15.385 8.492 -1.271
1323 1 10.496 11.239 -6.297
1324 1 54.022 -31.340 20.486
1325 1 58.452 -34.729 14.933
1326 1 52.768 -42.178 16.948
1327 1 27.111 31.177 32.295
1328 1 30.240 31.885 31.392
1329 1 28.588 33.561 35.780
1330 1 39.118 -16.373 25.480
1331 1 35.813 -8.885 36.048
1332 1 43.017 -9.528 20.805
1333 1 3.460 26.901 17.601
1334 1 -0.380 29.087 19.790
1335 1 3.911 26.039 19.871
1336 1 36.248 46.474 7.092
1337 1 33.375 50.192 1.553
1338 1 31.239 46.486 8.766
1339 1 15.964 60.646 9.586
1340 1 16.664 61.247 18.140
1341 1 16.626 58.147 13.733
1342 1 31.812 6.994 2.484
1343 1 30.058 0.419 1.296
1344 1 33.836 -1.665 3.731
1345 1 64.716 -7.680 -25.348
1346 1 50.158 10.110 -32.113
1347 1 62.529 0.574 -30.034
1348 1 51.573 -4.641 36.992
1349 1 61.755 -4.010 36.143
1350 1 54.172 -3.085 41.677
1351 1 36.255 -2.646 16.917
1352 1 33.250 -3.628 22.198
1353 1 36.161 -3.043 33.945
1354 1 18.291 6.611 7.640
1355 1 18.134 8.371 1.806
1356 1 18.461 5.542 1.447
1357 1 -4.616 -19.118 34.788
1358 1 2.571 -15.604 30.768
1359 1 -6.162 -10.209 33.823
1360 1 28.005 38.228 26.239
1361 1 26.689 36.085 27.355
1362 1 23.807 44.025 34.650
1363 1 61.526 6.214 -5.414
1364 1 58.056 8.612 -10.055
1365 1 55.116 4.965 -12.570
1366 1 8.415 43.047 62.790
1367 1 10.329 43.841 66.716
1368 1 1.171 42.223 61.838
1369 1 20.792 -8.424 -12.399
1370 1 19.599 -9.592 -9.263
1371 1 22.117 -10.382 -14.826
1372 1 42.565 -3.805 -26.594
1373 1 40.681 -3.139 -17.766
1374 1 36.787 -4.354 -36.424
1375 1 -9.449 21.615 -5.499
1376 1 -1.719 24.522 3.779
1377 1 -4.315 25.893 -8.781
1378 1 86.124 -1.259 32.265
1379 1 83.596 -0.793 36.330
1380 1 90.205 1.790 32.491
1381 1 9.291 35.805 23.017
1382 1 0.659 41.374 25.646
1383 1 2.224 41.885 29.193
1384 1 35.785 10.172 -19.557
1385 1 32.750 10.517 -20.252
1386 1 33.975 9.229 -15.640
1387 1 31.519 1.234 -7.834
1388 1 31.880 -0.834 -17.597
1389 1 31.417 1.037 -6.920
1390 1 -12.465 -12.757 -2.398
1391 1 -7.782 -12.928 -8.771
1392 1 -7.445 -9.561 1.182
1393 1 -5.260 41.592 48.450
1394 1 -0.235 32.965 54.206
1395 1 0.386 39.038 49.630
1396 1 -8.738 -13.004 56.299
1397 1 -10.086 -8.648 62.889
1398 1 -11.824 -10.514 59.001
1399 1 25.425 -13.101 16.538
1400 1 27.180 -16.606 21.382
1401 1 18.031 -8.376 12.609
1402 1 6.718 7.801 12.983
1403 1 13.949 7.252 3.695
1404 1 10.742 -4.601 4.816
1405 1 40.789 73.444 26.389
1406 1 40.970 76.773 30.146
1407 1 47.240 80.393 26.744
1408 1 9.286 -7.178 -43.162
1409 1 10.985 -7.872 -39.791
1410 1 15.027 -2.203 -51.864
1411 1 53.968 78.102 13.454
1412 1 45.861 82.836 18.100
1413 1 53.763 67.800 16.369
1414 1 16.199 61.175 11.796
1415 1 8.269 65.126 16.372
1416 1 13.985 67.872 8.350
1417 1 25.211 48.599 -12.905
1418 1 23.110 53.542 -11.009
1419 1 21.175 52.668 -13.986
1420 1 30.050 30.870 46.464
1421 1 25.423 31.200 42.974
1422 1 23.416 30.334 40.704
1423 1 80.617 4.993 25.632
1424 1 76.006 10.804 16.761
1425 1 76.709 13.187 28.175
1426 1 -1.168 41.125 -6.161
1427 1 -1.171 47.366 -7.005
1428 1 -7.620 41.754 -9.771
1429 1 -29.357 -26.187 -32.641
1430 1 -31.575 -30.143 -26.503
1431 1 -37.473 -23.171 -32.059
1432 1 -42.164 -33.947 -32.097
1433 1 -43.092 -33.879 -32.301
1434 1 -45.200 -36.742 -32.876
1435 1 -4.586 44.628 -1.695
1436 1 2.106 52.632 -5.369
1437 1 -0.031 50.094 -0.308
1438 1 8.911 20.054 -9.026
1439 1 6.612 24.529 -6.444
1440 1 9.811 21.525 -7.083
1441 1 11.018 38.223 13.293
1442 1 6.592 37.512 10.266
1443 1 10.447 34.674 -0.847
1444 1 -24.665 9.899 -23.782
1445 1 -22.652 24.590 -20.766
1446 1 -21.155 11.501 -22.444
1447 1 24.392 21.581 19.798
1448 1 26.710 12.130 16.664
1449 1 24.348 16.071 19.116
1450 1 15.767 16.905 17.454
1451 1 15.754 12.701 29.597
1452 1 14.936 20.141 22.624
1453 1 27.326 18.602 -3.633
1454 1 24.888 22.066 0.548
1455 1 28.939 16.452 3.845
1456 1 29.980 40.633 40.641
1457 1 21.115 36.845 37.099
1458 1 20.312 48.161 48.755
1459 1 75.245 18.347 48.989
1460 1 74.004 16.192 48.399
1461 1 76.170 15.309 46.172
1462 1 19.176 51.590 45.578
1463 1 25.873 42.710 55.407
1464 1 21.051 51.131 53.584
1465 1 64.353 88.494 39.518
1466 1 67.653 86.666 38.396
1467 1 73.895 72.119 43.332
1468 1 -43.989 35.546 30.029
1469 1 -42.437 33.135 30.582
1470 1 -46.604 36.836 33.278
1471 1 -2.435 -8.076 -0.169
1472 1 2.986 -13.732 -16.961
1473 1 3.001 -10.225 -6.279
1474 1 -37.659 34.203 38.313
1475 1 -34.225 43.872 38.556
1476 1 -37.511 31.462 22.921
1477 1 -18.678 39.836 -17.229
1478 1 -25.591 45.618 -27.136
1479 1 -28.421 36.743 -24.405
1480 1 -19.627 48.957 -23.127
1481 1 -13.376 46.687 -20.582
1482 1 -19.067 43.663 -23.752
1483 1 -29.928 40.850 19.433
1484 1 -24.283 47.679 21.935
1485 1 -20.433 38.430 17.352
1486 1 -13.453 17.453 16.740
1487 1 -7.669 17.726 15.722
1488 1 -7.920 11.282 7.592
1489 1 8.983 -22.082 2.019
1490 1 13.333 -12.140 0.908
1491 1 14.083 -13.880 4.504
1492 1 43.613 -3.057 -22.621
1493 1 36.845 -3.780 -19.093
1494 1 42.607 -0.416 -24.100
1495 1 15.535 49.311 77.307
1496 1 13.673 48.781 74.107
1497 1 15.504 49.071 72.875
1498 1 2.502 4.645 -8.285
1499 1 7.331 1.767 -3.549
1500 1 10.374 4.960 -8.004
1501 1 52.644 68.821 -24.634
1502 1 55.098 74.550 -25.003
1503 1 48.885 79.938 -24.466
1504 1 44.415 63.862 32.315
1505 1 41.901 67.650 37.008
1506 1 47.733 66.721 43.869
1507 1 12.752 33.508 44.692
1508 1 6.354 33.914 45.930
1509 1 8.434 33.215 45.630
1510 1 -33.826 56.321 -10.424
1511 1 -31.338 59.499 -18.092
1512 1 -39.926 68.298 -11.723
1513 1 64.570 5.251 64.760
1514 1 62.852 0.783 62.301
1515 1 57.319 -2.556 67.204
1516 1 -5.131 35.905 26.675
1517 1 -2.131 35.575 29.558
1518 1 4.115 35.757 19.891
1519 1 -16.381 -3.146 22.681
1520 1 -21.358 8.545 22.635
1521 1 -19.621 0.173 31.274
1522 1 42.004 66.611 39.313
1523 1 46.623 67.001 36.953
1524 1 36.962 63.522 42.400
1525 1 20.972 38.631 -15.287
1526 1 28.595 40.992 -7.850
1527 1 28.893 40.727 -15.841
1528 1 56.120 20.160 35.635
1529 1 54.182 19.350 29.845
1530 1 49.918 18.098 31.477
1531 1 28.445 34.524 4.880
1532 1 25.960 31.322 3.335
1533 1 24.271 31.473 12.743
1534 1 36.141 12.148 9.516
1535 1 42.503 13.335 18.563
1536 1 42.217 8.479 20.425
1537 1 49.521 68.697 31.285
1538 1 54.555 56.958 31.047
1539 1 55.862 58.701 32.635
1540 1 61.814 27.562 -4.110
1541 1 55.186 25.328 4.995
1542 1 62.616 27.288 11.032
1543 1 69.648 30.158 16.675
1544 1 68.685 30.932 16.413
1545 1 71.783 31.789 25.529
1546 1 -11.346 -17.398 32.593
1547 1 -10.768 -19.909 33.988
1548 1 -12.850 -21.864 32.763
1549 1 20.461 19.916 -30.806
1550 1 17.617 26.858 -31.506
1551 1 24.366 21.330 -29.418
1552 1 23.041 9.917 3.100
1553 1 25.067 6.841 3.954
1554 1 22.251 6.594 0.618
1555 1 6.092 42.802 20.273
1556 1 11.717 40.125 14.936
1557 1 9.797 41.654 19.416
1558 1 -15.164 33.222 -8.249
1559 1 -16.613 34.443 -5.196
1560 1 -15.281 40.052 -16.133
1561 1 53.155 32.438 -6.775
1562 1 62.047 30.058 -11.602
1563 1 53.184 30.249 -7.113
1564 1 18.313 28.112 27.085
1565 1 19.324 25.059 31.493
1566 1 20.285 22.859 36.481
1567 1 26.436 -35.111 6.546
1568 1 38.398 -32.586 7.417
1569 1 31.890 -33.374 1.720
1570 1 49.382 53.731 46.428
1571 1 53.468 59.093 42.856
1572 1 49.161 62.644 40.601
1573 1 86.400 72.077 25.612
1574 1 88.698 76.520 29.144
1575 1 89.708 70.418 29.612
1576 1 25.099 -13.939 -16.862
1577 1 20.378 -24.721 -21.579
1578 1 21.824 -18.180 -23.019
1579 1 18.497 45.113 5.790
1580 1 25.467 46.709 7.092
1581 1 21.723 46.450 13.353
1582 1 49.382 18.664 1.582
1583 1 50.878 13.158 8.643
1584 1 53.851 14.297 5.200
1585 1 24.484 10.977 25.557
1586 1 31.892 7.788 27.524
1587 1 28.991 2.311 14.648
1588 1 -15.802 46.216 -7.369
1589 1 -13.323 45.704 4.790
1590 1 -17.630 39.872 -5.175
1591 1 -17.580 71.907 -17.094
1592 1 -16.992 64.731 -24.416
1593 1 -18.683 72.828 -11.833
1594 1 11.197 57.833 34.011
1595 1 9.011 56.183 27.502
1596 1 8.208 56.041 30.157
1597 1 4.941 -8.370 21.277
1598 1 8.748 -9.741 11.099
1599 1 -1.529 -5.048 3.078
1600 1 8.533 43.608 16.310
1601 1 0.484 45.159 17.501
1602 1 3.066 40.778 20.465
1603 1 16.073 94.681 54.218
1604 1 13.898 92.601 43.103
1605 1 20.350 100.323 46.131
1606 1 3.261 -11.290 30.308
1607 1 10.367 -11.488 26.573
1608 1 8.326 -14.043 30.963
1609 1 29.168 60.884 15.807
1610 1 32.344 56.963 18.891
1611 1 31.085 54.087 19.567
1612 1 18.266 25.456 22.045
1613 1 21.180 21.416 24.261
1614 1 24.997 24.499 28.660
1615 1 23.085 35.418 -11.598
1616 1 18.083 36.949 -14.475
1617 1 22.818 31.361 -4.407
1618 1 52.975 1.475 6.349
1619 1 50.361 2.893 14.585
1620 1 52.136 7.166 1.911
1621 1 34.313 -11.781 1.180
1622 1 36.266 -19.673 8.274
1623 1 40.439 -12.656 12.052
1624 1 3.899 6.822 -26.045
1625 1 -3.765 10.350 -19.369
1626 1 -4.600 18.581 -15.094
1627 1 7.402 44.930 15.958
1628 1 8.905 44.448 16.590
1629 1 5.241 41.211 18.332
1630 1 5.953 50.428 45.899
1631 1 8.811 52.573 39.134
1632 1 17.176 55.066 33.052
1633 1 -20.400 52.084 57.704
1634 1 -7.250 55.049 59.909
1635 1 -9.403 48.574 54.372
1636 1 15.829 58.025 8.000
1637 1 11.787 65.343 3.559
1638 1 14.135 66.209 -0.275
1639 1 18.411 49.681 15.326
1640 1 25.316 50.865 11.106
1641 1 19.540 46.298 21.004
1642 1 56.145 48.571 -6.640
1643 1 52.934 33.624 -5.805
1644 1 49.751 38.396 -2.170
1645 1 29.477 31.829 54.968
1646 1 31.440 30.977 57.745
1647 1 28.974 26.019 57.382
1648 1 -0.359 78.715 -33.279
1649 1 3.266 84.682 -24.360
1650 1 -1.795 79.578 -22.266
1651 1 1.631 77.314 1.885
1652 1 1.996 80.445 0.512
1653 1 3.743 73.597 8.924
1654 1 28.967 12.790 56.811
1655 1 33.817 12.728 47.603
1656 1 29.056 9.109 48.593
1657 1 29.779 -24.811 -13.627
1658 1 28.240 -32.428 -14.692
1659 1 31.309 -33.262 -17.488
1660 1 72.982 -0.735 -4.831
1661 1 77.591 2.109 -3.095
1662 1 76.514 3.606 -8.806
1663 1 9.356 9.574 -3.940
1664 1 7.080 11.949 -0.350
1665 1 1.393 10.755 -7.509
1666 1 -12.106 41.473 43.082
1667 1 -12.266 43.183 44.191
1668 1 -13.883 39.436 44.115
1669 1 21.816 106.284 25.784
1670 1 19.016 104.657 21.712
1671 1 19.474 98.446 21.443
1672 1 1.623 33.279 7.832
1673 1 0.451 33.776 -6.805
1674 1 -0.883 38.141 8.083
1675 1 -1.107 61.112 19.690
1676 1 1.346 59.610 6.287
1677 1 -2.866 62.780 5.406
1678 1 29.938 18.535 9.306
1679 1 26.230 18.126 16.167
1680 1 32.334 22.192 9.521
1681 1 -29.166 31.356 20.548
1682 1 -19.889 30.277 14.117
1683 1 -25.000 29.383 14.641
1684 1 1.764 71.284 62.278
1685 1 -1.376 72.848 69.352
1686 1 1.699 62.222 72.555
1687 1 42.371 89.124 -12.850
1688 1 42.947 87.834 -8.528
1689 1 43.379 88.602 -10.618
1690 1 12.739 -0.378 -2.879
1691 1 11.675 3.656 -7.729
1692 1 8.097 -1.872 1.210
1693 1 3.063 -22.227 29.330
1694 1 -3.407 -24.074 24.309
1695 1 -2.571 -25.698 36.180
1696 1 24.515 38.369 5.052
1697 1 36.227 32.221 3.697
1698 1 32.593 39.655 7.728
1699 1 32.533 35.572 30.887
1700 1 43.803 43.134 30.690
1701 1 40.821 41.044 32.407
1702 1 24.280 27.633 36.478
1703 1 19.652 32.102 38.571
1704 1 20.578 31.203 39.463
1705 1 -13.581 8.123 12.035
1706 1 -25.371 7.107 10.842
1707 1 -28.760 13.160 3.994
1708 1 -4.055 -16.074 42.632
1709 1 -1.285 -17.163 43.366
1710 1 -4.857 -11.583 36.258
1711 1 40.066 7.885 -1.231
1712 1 36.784 9.573 2.757
1713 1 46.813 8.027 2.131
1714 1 21.346 22.446 45.400
1715 1 25.952 23.619 43.338
1716 1 15.902 27.015 44.241
1717 1 7.777 52.059 45.025
1718 1 1.684 49.353 42.887
1719 1 4.560 50.254 49.673
1720 1 -16.054 28.475 25.852
1721 1 -20.120 31.875 24.625
1722 1 -27.829 29.641 26.037
1723 1 35.485 19.679 34.453
1724 1 37.203 12.168 26.392
1725 1 40.574 19.323 27.310
1726 1 29.908 -34.960 -1.681
1727 1 31.461 -33.866 10.330
1728 1 28.792 -32.499 0.330
1729 1 30.082 12.286 12.907
1730 1 33.471 15.380 12.277
1731 1 34.795 12.281 12.788
1732 1 38.022 6.923 20.196
1733 1 39.934 8.290 20.154
1734 1 34.803 8.367 25.508
1735 1 28.744 -4.991 17.613
1736 1 27.020 -4.118 14.834
1737 1 28.613 -8.678 19.961
1738 1 32.083 5.485 8.121
1739 1 29.107 3.339 4.053
1740 1 29.758 3.665 14.309
1741 1 19.497 -7.707 -30.424
1742 1 19.206 -8.518 -16.535
1743 1 21.637 -15.689 -17.212
1744 1 18.878 8.972 22.743
1745 1 18.103 14.420 20.283
1746 1 21.439 15.782 7.784
1747 1 14.424 -6.560 19.373
1748 1 19.888 -11.107 11.621
1749 1 15.548 -16.606 16.120
1750 1 18.221 19.573 29.237
1751 1 19.625 18.403 19.956
1752 1 20.581 13.871 23.036
1753 1 -3.517 -7.189 -14.051
1754 1 -2.137 -7.268 -20.322
1755 1 -11.675 -7.126 -17.294
1756 1 -8.401 -5.106 13.729
1757 1 -8.803 -5.755 21.014
1758 1 -9.582 -5.313 16.338
1759 1 10.346 -12.695 24.688
1760 1 12.384 -9.243 21.178
1761 1 11.239 -7.440 13.255
1762 1 45.732 17.429 12.361
1763 1 40.804 22.348 15.014
1764 1 46.163 17.494 13.018
1765 1 19.237 -18.768 56.218
1766 1 14.763 -24.757 54.329
1767 1 14.992 -16.238 61.060
1768 1 34.883 15.575 0.644
1769 1 28.223 17.987 0.990
1770 1 33.776 18.986 -2.519
1771 1 20.209 3.336 29.054
1772 1 17.983 8.781 38.115
1773 1 10.923 0.343 37.342
1774 1 25.431 8.688 -11.657
1775 1 27.821 10.846 -14.842
1776 1 32.100 12.991 -8.161
1777 1 33.269 16.735 -4.259
1778 1 34.146 19.547 -3.130
1779 1 37.561 19.648 -18.625
1780 1 -5.028 26.144 1.015
1781 1 -6.070 21.340 -6.782
1782 1 -2.878 32.742 -1.164
1783 1 -26.624 41.650 -17.127
1784 1 -36.520 44.295 -12.070
1785 1 -36.004 37.502 -6.251
1786 1 26.724 19.626 14.009
1787 1 24.767 6.964 23.720
1788 1 16.738 10.171 15.403
1789 1 13.275 40.054 21.795
1790 1 7.760 35.831 8.775
1791 1 8.079 36.206 16.948
1792 1 43.025 0.023 14.180
1793 1 44.495 5.346 11.366
1794 1 44.640 7.019 4.835
1795 1 5.219 32.448 -6.997
1796 1 3.035 36.354 -16.912
1797 1 4.900 38.326 -12.575
1798 1 12.270 -5.202 36.537
1799 1 21.700 -4.591 32.963
1800 1 18.339 -3.200 45.877
1801 1 26.914 48.865 34.861
1802 1 27.083 39.739 35.972
1803 1 26.275 37.823 31.716
1804 1 51.656 -3.612 18.727
1805 1 52.693 -0.374 12.846
1806 1 56.300 3.580 12.628
1807 1 21.843 10.007 20.839
1808 1 25.261 1.335 18.898
1809 1 23.493 4.690 15.544
1810 1 71.077 12.976 33.385
1811 1 72.198 12.409 40.975
1812 1 71.433 14.232 32.111
1813 1 14.194 -26.101 56.709
1814 1 12.599 -23.903 51.873
1815 1 3.309 -25.259 55.475
1816 1 43.670 -3.652 24.547
1817 1 40.697 -2.225 16.754
1818 1 36.206 -3.666 14.665
1819 1 -9.712 18.665 10.696
1820 1 -3.598 8.167 5.451
1821 1 -2.122 17.856 15.430
1822 1 -0.380 17.176 47.634
1823 1 2.562 17.964 49.644
1824 1 4.360 23.044 47.560
1825 1 -22.749 -40.407 7.244
1826 1 -20.223 -39.977 2.443
1827 1 -23.195 -39.901 12.142
1828 1 60.541 -35.377 34.968
1829 1 59.103 -31.811 29.018
1830 1 60.131 -34.363 33.202
1831 1 -14.970 23.780 3.791
1832 1 -15.273 18.333 10.357
1833 1 -10.170 27.471 12.672
1834 1 54.516 12.459 47.340
1835 1 56.302 15.358 33.156
1836 1 55.083 12.596 36.327
1837 1 45.687 21.577 14.125
1838 1 40.627 24.961 9.557
1839 1 46.882 23.675 14.967
1840 1 -6.892 -14.067 63.707
1841 1 -7.729 -16.805 71.140
1842 1 -1.439 -14.469 67.884
1843 1 35.281 30.440 4.806
1844 1 40.813 27.980 -1.765
1845 1 41.344 29.704 0.788
1846 1 81.312 11.591 15.457
1847 1 84.394 7.564 21.540
1848 1 83.047 3.885 10.582
1849 1 13.935 -4.102 54.521
1850 1 10.858 -1.528 47.418
1851 1 10.046 -4.418 45.095
1852 1 64.955 25.298 22.816
1853 1 60.946 23.152 24.049
1854 1 58.495 20.565 12.338
1855 1 0.913 -38.386 15.636
1856 1 -3.477 -47.797 17.053
1857 1 -0.597 -41.050 10.140
1858 1 -2.643 81.902 18.630
1859 1 -6.103 81.548 10.283
1860 1 -10.752 88.061 16.929
1861 1 -30.635 36.875 44.761
1862 1 -32.471 31.491 43.008
1863 1 -34.624 31.757 46.563
1864 1 8.996 -20.387 8.769
1865 1 9.828 -19.707 -6.310
1866 1 8.403 -21.990 -5.223
1867 1 0.795 -6.367 -6.659
1868 1 3.472 -6.342 -15.193
1869 1 4.757 -8.535 -15.434
1870 1 -12.136 86.626 13.626
1871 1 -7.540 86.771 18.058
1872 1 -8.524 91.060 17.228
1873 1 42.557 -3.824 -18.285
1874 1 42.557 -6.531 -13.790
1875 1 39.303 -4.767 -16.272
1876 1 -15.997 18.057 40.902
1877 1 -13.418 21.675 45.445
1878 1 -14.649 26.424 42.056
1879 1 -10.862 34.049 39.716
1880 1 -14.518 36.139 42.089
1881 1 -12.867 31.172 36.612
1882 1 -11.139 -13.802 49.235
1883 1 -7.828 -3.538 52.870
1884 1 -4.991 -2.520 38.488
1885 1 4.753 33.853 33.437
1886 1 11.576 33.952 34.139
1887 1 10.604 37.190 35.198
1888 1 45.433 8.399 -10.137
1889 1 53.865 15.586 -11.763
1890 1 46.711 11.052 -10.974
1891 1 20.555 -27.764 41.557
1892 1 18.462 -28.789 38.231
1893 1 23.136 -29.658 46.130
1894 1 79.293 8.563 -19.286
1895 1 81.476 11.325 -16.477
1896 1 83.853 10.582 -15.981
1897 1 -40.140 9.291 39.031
1898 1 -39.935 3.996 39.306
1899 1 -37.541 4.456 40.113
1900 1 -7.572 14.690 -25.762
1901 1 -14.611 19.636 -30.980
1902 1 -7.784 20.103 -21.892
1903 1 -0.182 -0.774 9.957
1904 1 -2.135 0.841 8.616
1905 1 -5.403 -3.542 11.805
1906 1 62.742 -3.389 39.318
1907 1 57.846 -7.372 34.232
1908 1 63.869 -3.167 41.480
1909 1 30.393 -12.504 -20.632
1910 1 20.392 -16.199 -22.583
1911 1 20.066 -15.525 -18.293
1912 1 29.971 47.224 16.074
1913 1 31.567 42.666 13.331
1914 1 33.332 50.166 29.870
1915 1 50.570 26.039 4.805
1916 1 56.231 18.805 7.861
1917 1 55.925 16.323 0.745
1918 1 11.128 -13.108 10.328
1919 1 8.628 -4.696 5.387
1920 1 6.607 -11.276 4.382
1921 1 38.441 66.442 47.079
1922 1 39.794 64.264 44.013
1923 1 42.801 57.044 47.256
1924 1 4.042 14.362 59.329
1925 1 2.820 18.489 53.205
1926 1 0.329 16.210 57.222
1927 1 -10.928 1.553 -2.778
1928 1 -9.603 8.199 2.660
1929 1 -6.955 12.027 0.254
1930 1 -12.943 16.337 2.936
1931 1 -9.589 18.978 6.368
1932 1 -13.160 15.138 12.013
1933 1 -3.924 11.156 -9.348
1934 1 -9.757 3.307 -4.368
1935 1 -8.516 9.576 -22.881
1936 1 20.808 17.599 -16.305
1937 1 19.450 18.161 -24.270
1938 1 17.957 15.173 -15.267
1939 1 55.210 -2.508 24.923
1940 1 58.156 -12.541 28.943
1941 1 55.008 -3.123 31.081
1942 1 70.441 37.299 -4.336
1943 1 70.449 29.376 -13.315
1944 1 75.075 34.915 -9.984
1945 1 27.069 50.093 51.830
1946 1 22.939 52.201 42.135
1947 1 23.452 51.871 49.265
1948 1 19.843 32.134 27.198
1949 1 24.853 38.289 29.982
1950 1 21.729 31.983 29.835
1951 1 2.833 49.866 25.197
1952 1 4.020 46.497 26.107
1953 1 11.055 46.348 25.199
1954 1 -5.737 30.479 28.446
1955 1 -8.434 29.384 25.390
1956 1 -9.621 29.079 26.138
1957 1 33.684 29.178 26.727
1958 1 28.761 27.119 37.260
1959 1 27.914 33.293 38.398
1960 1 -5.750 34.939 -9.988
1961 1 0.477 45.152 -5.585
1962 1 -7.058 32.794 -9.548
1963 1 44.311 43.902 -9.198
1964 1 45.033 50.988 -2.401
1965 1 40.133 44.746 -12.272
1966 1 22.001 -23.579 23.956
1967 1 21.164 -24.265 18.099
1968 1 26.089 -27.519 24.182
1969 1 -38.231 -12.958 34.694
1970 1 -44.596 -9.663 29.954
1971 1 -33.872 -6.211 33.236
1972 1 13.154 10.602 12.885
1973 1 14.301 5.145 14.091
1974 1 13.730 7.867 15.505
1975 1 18.558 11.675 75.950
1976 1 22.625 14.912 70.424
1977 1 25.087 11.898 73.164
1978 1 0.837 -31.472 7.939
1979 1 -2.447 -30.551 8.957
1980 1 -2.888 -27.804 10.886
1981 1 0.080 32.693 59.390
1982 1 2.102 27.278 55.892
1983 1 -7.221 28.391 58.669
1984 1 8.606 61.302 6.165
1985 1 7.701 66.837 10.350
1986 1 5.003 60.103 8.376
1987 1 21.956 9.805 33.974
1988 1 29.018 0.674 33.122
1989 1 21.548 4.059 33.934
1990 1 22.247 50.569 37.245
1991 1 22.090 42.735 37.233
1992 1 24.026 48.963 43.370
1993 1 15.073 15.767 21.530
1994 1 11.342 12.202 32.077
1995 1 13.116 19.788 17.248
1996 1 25.649 32.591 31.764
1997 1 23.066 24.779 31.190
1998 1 26.877 28.377 35.261
1999 1 53.537 -8.893 21.943
2000 1 51.807 -10.028 24.286
2001 1 51.826 -3.333 25.054
2002 1 13.810 11.061 57.004
2003 1 8.136 9.675 62.242
2004 1 6.869 18.184 59.972
2005 1 32.767 6.588 44.701
2006 1 35.736 10.440 42.549
2007 1 39.360 5.144 41.571
2008 1 41.269 9.438 -2.337
2009 1 35.397 13.295 -13.486
2010 1 33.788 9.051 -15.425
2011 1 52.387 10.284 12.477
2012 1 60.715 8.539 13.550
2013 1 51.475 7.082 18.162
2014 1 -11.020 10.469 8.369
2015 1 -7.710 11.519 7.097
2016 1 -14.380 2.882 6.421
2017 1 23.202 -1.619 10.509
2018 1 27.787 -5.536 20.026
2019 1 26.756 -1.316 11.455
2020 1 -24.489 -23.014 3.674
2021 1 -24.109 -20.110 -2.302
2022 1 -19.208 -20.688 0.208
2023 1 26.442 44.456 57.264
2024 1 28.110 34.514 64.579
2025 1 32.074 43.849 54.097
2026 1 -21.771 61.406 25.158
2027 1 -18.839 52.529 29.921
2028 1 -16.616 50.248 31.019
2029 1 -13.798 79.641 47.213
2030 1 -14.124 74.804 49.408
2031 1 -11.464 77.169 40.409
2032 1 -3.423 32.944 19.179
2033 1 2.211 24.272 12.035
2034 1 6.547 30.682 16.488
2035 1 -2.286 23.198 30.899
2036 1 0.564 25.392 29.816
2037 1 -0.557 21.578 32.885
2038 1 -27.437 21.358 0.120
2039 1 -23.916 23.434 0.381
2040 1 -29.480 36.824 -2.987
2041 1 33.786 43.579 6.113
2042 1 34.638 43.709 -3.252
2043 1 33.022 41.626 -0.919
2044 1 30.231 30.244 50.282
2045 1 38.169 23.284 43.327
2046 1 29.344 22.163 48.880
2047 1 39.094 71.619 0.957
2048 1 37.935 71.173 -0.646
2049 1 33.878 69.637 4.429
2050 1 40.446 10.951 13.976
2051 1 41.727 9.867 11.953
2052 1 42.395 5.751 12.499
2053 1 -19.283 49.874 28.697
2054 1 -21.069 46.251 28.498
2055 1 -22.560 52.904 28.694
2056 1 -32.459 1.467 9.366
2057 1 -32.852 3.235 20.601
2058 1 -28.526 7.912 16.414
2059 1 -7.706 66.150 30.041
2060 1 -12.042 69.207 16.693
2061 1 -4.943 64.941 15.473
2062 1 -22.907 19.904 0.484
2063 1 -25.683 22.475 -7.141
2064 1 -23.849 20.918 -4.946
2065 1 23.088 73.251 -7.877
2066 1 30.481 67.885 -3.821
2067 1 24.473 67.133 -1.067
2068 1 -7.028 11.469 13.220
2069 1 -5.933 8.812 11.255
2070 1 -7.873 13.826 11.509
2071 1 8.399 56.658 39.267
2072 1 11.418 56.526 31.353
2073 1 7.161 58.038 31.719
2074 1 20.691 24.595 13.673
2075 1 25.057 27.946 9.375
2076 1 18.264 32.986 4.013
2077 1 13.587 77.979 43.775
2078 1 24.397 72.741 36.291
2079 1 19.633 79.353 35.223
2080 1 1.098 48.906 72.740
2081 1 5.669 50.751 71.439
2082 1 7.284 54.709 59.814
2083 1 52.686 68.921 -17.727
2084 1 52.744 69.287 -17.565
2085 1 55.665 70.202 -15.622
2086 1 7.720 22.257 -11.069
2087 1 16.935 23.531 -9.522
2088 1 10.918 28.904 -12.194
2089 1 51.331 -2.101 17.325
2090 1 54.332 -1.607 25.292
2091 1 52.420 1.842 16.208
2092 1 21.432 57.285 8.253
2093 1 20.101 45.724 6.344
2094 1 15.782 54.653 -2.912
2095 1 39.788 53.875 24.298
2096 1 41.246 44.278 14.511
2097 1 39.388 49.539 10.920
2098 1 -13.572 10.554 22.743
2099 1 -17.290 17.938 18.167
2100 1 -12.540 7.634 24.816
2101 1 15.350 18.534 -0.671
2102 1 17.059 20.796 1.294
2103 1 13.889 21.006 3.089
2104 1 28.228 44.057 26.429
2105 1 27.572 53.200 26.465
2106 1 21.332 48.391 22.710
2107 1 30.136 9.190 2.160
2108 1 27.659 3.441 10.728
2109 1 31.459 3.111 4.608
2110 1 -48.733 29.162 6.534
2111 1 -46.942 31.900 11.046
2112 1 -50.658 33.493 -3.286
2113 1 19.076 42.366 23.301
2114 1 19.047 40.600 27.875
2115 1 12.272 45.627 25.195
2116 1 43.310 13.424 4.555
2117 1 49.023 9.181 15.712
2118 1 43.667 9.066 11.967
2119 1 12.123 18.121 50.379
2120 1 8.099 19.336 43.095
2121 1 10.248 21.865 47.258
2122 1 50.720 84.209 -0.556
2123 1 55.213 80.254 4.249
2124 1 52.215 80.994 1.324
2125 1 14.957 83.121 -8.977
2126 1 4.909 82.103 -18.065
2127 1 17.569 79.545 -23.786
2128 1 56.018 8.043 -23.338
2129 1 54.503 17.802 -15.633
2130 1 55.283 16.337 -11.263
2131 1 38.897 85.898 36.668
2132 1 47.528 88.635 42.385
2133 1 47.582 78.423 40.991
2134 1 6.765 -29.558 2.903
2135 1 0.518 -23.279 3.387
2136 1 4.187 -18.677 -2.346
2137 1 -40.080 75.655 -12.906
2138 1 -40.603 79.397 -20.046
2139 1 -35.690 67.759 -25.546
2140 1 20.818 81.220 18.440
2141 1 17.360 76.834 15.286
2142 1 22.674 75.915 8.670
2143 1 30.044 70.594 66.625
2144 1 28.605 71.583 73.082
2145 1 28.767 71.633 64.518
2146 1 -6.460 33.832 -9.796
2147 1 -2.177 35.305 -14.485
2148 1 -7.310 28.816 -10.908
2149 1 34.823 27.367 24.104
2150 1 31.399 27.485 21.341
2151 1 29.742 24.527 15.943
2152 1 44.885 78.869 71.162
2153 1 36.398 70.892 73.004
2154 1 37.222 77.410 80.874
2155 1 20.169 78.969 22.639
2156 1 19.971 71.936 13.511
2157 1 20.128 73.376 4.834
2158 1 35.664 93.872 17.210
2159 1 35.751 91.006 24.372
2160 1 43.591 94.914 24.133
2161 1 31.047 100.468 -5.845
2162 1 30.197 102.214 -6.971
2163 1 27.756 112.020 -8.666
2164 1 45.504 42.010 31.169
2165 1 37.458 40.625 42.057
2166 1 42.891 39.556 36.419
2167 1 61.706 15.582 7.962
2168 1 64.316 22.368 -3.350
2169 1 58.389 12.573 5.802
2170 1 17.410 10.842 -8.695
2171 1 24.154 8.066 -10.195
2172 1 18.281 16.253 -10.953
2173 1 -9.815 -16.065 -15.060
2174 1 -9.621 -15.952 -17.935
2175 1 -10.852 -15.784 -12.834
2176 1 -15.330 -20.915 23.281
2177 1 -23.725 -17.530 27.550
2178 1 -23.662 -15.327 31.272
2179 1 -1.019 29.648 -12.469
2180 1 -1.975 36.125 -11.706
2181 1 7.368 33.495 -13.440
2182 1 26.103 18.970 10.351
2183 1 33.466 13.092 18.151
2184 1 27.739 12.885 18.994
2185 1 -7.461 -19.401 -1.933
2186 1 -3.389 -21.963 -13.639
2187 1 4.276 -30.355 -0.304
2188 1 -2.445 -27.136 -10.082
2189 1 2.265 -32.905 -16.125
2190 1 2.308 -30.570 -12.899
2191 1 27.855 -4.152 -12.662
2192 1 35.579 -6.238 -14.739
2193 1 31.149 -8.612 -9.340
2194 1 73.284 -6.469 47.072
2195 1 69.950 -15.787 43.642
2196 1 71.365 -14.205 51.851
2197 1 43.056 -30.609 11.463
2198 1 43.091 -31.919 13.767
2199 1 46.068 -32.370 10.727
2200 1 38.440 -30.001 20.498
2201 1 35.707 -35.425 15.233
2202 1 42.573 -37.109 18.204
2203 1 35.372 30.319 -3.404
2204 1 39.553 31.684 -9.700
2205 1 36.761 30.027 -1.809
2206 1 91.907 -5.227 44.962
2207 1 91.418 -1.700 43.868
2208 1 88.489 -1.133 43.374
2209 1 86.642 9.206 21.134
2210 1 94.498 11.028 22.113
2211 1 87.592 4.053 22.433
2212 1 -15.697 22.163 6.120
2213 1 -13.911 25.979 5.845
2214 1 -16.645 25.320 5.044
2215 1 16.620 -2.959 12.924
2216 1 5.411 -10.212 8.669
2217 1 10.259 0.071 4.735
2218 1 -6.793 -30.970 2.830
2219 1 -5.170 -30.798 13.089
2220 1 -9.680 -27.682 8.057
2221 1 50.130 -13.139 11.956
2222 1 47.596 -19.271 10.491
2223 1 52.295 -9.232 11.506
2224 1 9.295 9.863 68.288
2225 1 3.369 7.251 75.089
2226 1 5.705 7.715 70.461
2227 1 33.381 -29.749 52.947
2228 1 28.497 -23.880 50.201
2229 1 35.374 -27.615 52.663
2230 1 24.317 32.929 20.051
2231 1 19.412 33.076 29.426
2232 1 21.899 34.834 15.440
2233 1 -25.727 -11.966 34.173
2234 1 -31.008 -11.573 37.847
2235 1 -23.027 -7.714 40.334
2236 1 47.970 2.480 12.474
2237 1 43.650 3.194 8.760
2238 1 45.344 -0.596 12.170
2239 1 43.819 -34.246 20.827
2240 1 42.451 -37.531 16.436
2241 1 37.342 -41.523 12.378
2242 1 58.780 5.298 -16.205
2243 1 59.315 9.127 -12.678
2244 1 54.100 9.046 -18.347
2245 1 62.639 4.859 45.941
2246 1 59.424 -4.248 48.749
2247 1 60.563 4.419 41.807
2248 1 1.623 -18.787 -11.540
2249 1 5.810 -17.072 -4.908
2250 1 5.206 -16.415 -5.573
2251 1 -41.323 -4.397 13.300
2252 1 -49.911 -2.810 17.536
2253 1 -42.171 -5.822 25.829
2254 1 27.212 -13.048 26.347
2255 1 19.860 0.841 34.222
2256 1 17.796 -5.170 39.796
2257 1 -9.225 51.586 11.471
2258 1 -14.659 47.049 23.203
2259 1 -9.202 49.570 11.310
2260 1 44.755 42.166 21.494
2261 1 43.027 45.616 17.318
2262 1 48.729 36.286 32.145
2263 1 -0.748 38.018 23.281
2264 1 -0.517 38.503 21.361
2265 1 9.302 36.950 14.508
2266 1 9.414 8.001 2.891
2267 1 9.859 15.496 7.355
2268 1 9.567 13.731 7.075
2269 1 13.751 34.503 63.041
2270 1 16.544 32.120 61.909
2271 1 13.204 33.949 54.692
2272 1 13.844 22.039 21.643
2273 1 16.650 26.210 28.804
2274 1 17.167 31.517 24.722
2275 1 24.567 -4.087 11.349
2276 1 21.716 -6.594 8.848
2277 1 27.803 -6.923 18.055
2278 1 3.608 39.591 -31.766
2279 1 4.012 34.834 -29.643
2280 1 6.869 38.065 -23.011
2281 1 34.389 3.302 16.208
2282 1 36.556 5.413 24.221
2283 1 32.836 4.383 16.490
2284 1 28.778 35.650 -7.994
2285 1 28.196 35.003 -12.206
2286 1 34.775 38.523 -20.683
2287 1 61.507 54.920 26.196
2288 1 58.365 63.242 29.199
2289 1 50.375 56.230 38.271
2290 1 -16.479 69.658 -36.833
2291 1 -15.509 74.155 -38.752
2292 1 -14.838 69.503 -45.956
2293 1 15.358 -18.960 23.418
2294 1 9.913 -11.966 15.164
2295 1 13.761 -17.597 27.364
2296 1 -5.769 -8.749 50.327
2297 1 -8.831 -5.286 53.831
2298 1 -12.790 -10.668 51.896
2299 1 -40.018 -24.436 31.658
2300 1 -47.047 -16.626 32.266
2301 1 -45.630 -13.522 27.762
2302 1 36.001 20.195 -7.639
2303 1 38.241 20.117 -12.335
2304 1 42.234 13.731 -12.338
2305 1 -2.615 32.155 59.180
2306 1 -6.225 24.959 57.321
2307 1 -6.250 33.038 59.028
2308 1 48.488 75.604 31.531
2309 1 48.618 79.051 28.434
2310 1 43.116 74.001 26.143
2311 1 22.985 13.740 7.614
2312 1 16.055 14.568 6.874
2313 1 16.733 13.111 7.175
2314 1 19.529 -16.199 42.694
2315 1 23.003 -17.006 41.882
2316 1 28.596 -10.675 40.213
2317 1 27.576 21.647 -42.508
2318 1 28.075 21.178 -41.213
2319 1 21.753 21.875 -38.777
2320 1 3.189 -11.579 -12.293
2321 1 5.380 -17.204 -4.809
2322 1 4.258 -12.039 0.295
2323 1 22.285 15.569 29.409
2324 1 24.382 13.678 30.677
2325 1 22.878 16.955 28.565
2326 1 56.365 47.999 23.374
2327 1 55.366 47.301 37.409
2328 1 52.892 43.666 34.846
2329 1 -17.355 50.583 -13.506
2330 1 -16.375 46.348 -7.538
2331 1 -17.106 52.242 -3.477
2332 1 -0.975 41.338 62.829
2333 1 -1.042 50.822 49.102
2334 1 0.670 49.769 50.879
2335 1 14.165 -44.016 22.958
2336 1 18.491 -40.319 34.329
2337 1 16.457 -41.100 32.573
2338 1 54.992 59.983 27.697
2339 1 53.220 51.131 34.687
2340 1 52.040 60.780 37.712
2341 1 0.555 39.676 20.840
2342 1 2.359 44.743 10.113
2343 1 8.140 38.321 15.740
2344 1 14.137 58.644 44.026
2345 1 7.880 55.645 46.853
2346 1 8.525 61.233 45.251
2347 1 2.525 49.959 -20.355
2348 1 4.096 53.740 -25.878
2349 1 3.699 56.930 -23.925
2350 1 19.213 24.236 16.877
2351 1 20.379 26.576 18.288
2352 1 21.710 19.298 5.618
2353 1 -1.760 78.699 29.520
2354 1 1.018 70.074 27.606
2355 1 0.721 72.071 36.277
2356 1 -10.534 -22.439 48.680
2357 1 -19.129 -35.371 48.768
2358 1 -15.947 -20.583 45.518
2359 1 -32.935 18.571 17.447
2360 1 -23.087 24.355 13.393
2361 1 -33.023 23.794 18.215
2362 1 8.099 29.742 -3.146
2363 1 9.333 29.832 -2.465
2364 1 11.130 33.559 -7.408
2365 1 7.214 -15.362 26.494
2366 1 8.708 -12.250 14.739
2367 1 7.174 -18.876 21.242
2368 1 56.320 31.229 61.408
2369 1 48.738 28.013 48.861
2370 1 49.206 28.036 51.787
2371 1 -2.689 23.382 48.603
2372 1 -2.692 24.007 48.732
2373 1 -7.566 24.249 51.374
2374 1 27.585 -20.061 -11.462
2375 1 27.300 -20.158 -12.290
2376 1 26.775 -16.662 -1.252
2377 1 16.694 51.751 67.985
2378 1 17.722 59.491 76.732
2379 1 12.887 52.960 66.625
2380 1 50.454 57.070 -3.927
2381 1 47.085 50.061 -14.984
2382 1 48.543 51.704 -13.562
2383 1 20.613 43.310 16.111
2384 1 25.114 46.821 7.057
2385 1 17.053 40.142 13.414
2386 1 -37.815 8.354 85.500
2387 1 -31.049 7.498 93.425
2388 1 -31.368 1.969 86.024
2389 1 -36.419 -7.497 42.609
2390 1 -37.916 -7.393 31.569
2391 1 -35.564 -2.851 36.973
2392 1 -42.011 19.067 21.082
2393 1 -37.619 19.335 18.427
2394 1 -36.635 20.395 17.221
2395 1 14.705 27.613 48.369
2396 1 16.351 38.413 49.817
2397 1 11.076 35.569 47.702
2398 1 14.929 12.945 15.166
2399 1 10.233 11.816 18.412
2400 1 13.958 16.419 20.163
2401 1 37.835 61.496 15.970
2402 1 33.811 60.980 18.400
2403 1 35.932 55.505 11.892
2404 1 6.932 43.816 23.335
2405 1 2.483 44.332 21.285
2406 1 3.036 41.632 25.150
2407 1 51.998 86.445 10.863
2408 1 52.851 84.193 8.232
2409 1 51.860 83.922 3.718
2410 1 51.438 22.198 27.747
2411 1 55.826 13.138 25.955
2412 1 53.537 16.893 22.793
2413 1 32.221 26.617 21.223
2414 1 24.741 23.711 25.146
2415 1 35.382 25.186 21.012
2416 1 -12.189 47.634 -2.232
2417 1 -10.271 40.950 -0.624
2418 1 -17.919 50.290 4.671
2419 1 -5.879 40.439 19.655
2420 1 -10.116 41.377 21.405
2421 1 -9.232 47.857 20.880
2422 1 29.917 36.297 47.288
2423 1 24.782 38.759 47.972
2424 1 23.296 40.013 60.294
2425 1 14.477 98.479 -7.114
2426 1 10.966 96.015 -6.888
2427 1 15.145 94.703 -9.785
2428 1 -10.706 5.164 36.653
2429 1 -18.197 2.757 27.302
2430 1 -19.164 3.008 38.239
2431 1 4.461 -6.838 24.181
2432 1 1.021 -3.124 25.381
2433 1 -1.846 -11.928 34.883
2434 1 12.209 78.076 -5.140
2435 1 10.369 74.426 10.775
2436 1 8.869 73.559 7.734
2437 1 34.889 22.205 60.677
2438 1 26.539 23.436 65.617
2439 1 28.748 26.684 55.477
2440 1 52.768 42.363 43.384
2441 1 51.773 40.575 44.945
2442 1 55.209 43.266 40.618
2443 1 54.792 35.494 13.338
2444 1 54.149 36.406 10.775
2445 1 50.550 31.160 1.914
2446 1 49.740 21.176 17.590
2447 1 47.990 22.932 28.388
2448 1 45.517 20.899 28.186
2449 1 -5.549 -16.384 -14.694
2450 1 -0.400 -7.233 -12.301
2451 1 1.759 -9.973 -16.318
2452 1 25.090 52.994 33.739
2453 1 24.325 48.094 34.457
2454 1 26.238 59.688 34.597
2455 1 68.270 33.577 42.854
2456 1 73.071 34.338 49.462
2457 1 69.729 32.802 40.955
2458 1 41.638 14.146 67.019
2459 1 47.560 13.313 50.996
2460 1 40.287 14.030 62.581
2461 1 70.620 39.448 75.516
2462 1 68.429 38.119 70.022
2463 1 70.100 35.290 76.482
2464 1 -19.173 58.870 25.363
2465 1 -20.889 60.690 25.852
2466 1 -23.311 50.771 38.634
2467 1 -41.152 27.078 11.463
2468 1 -30.953 27.722 17.569
2469 1 -29.062 29.527 17.013
2470 1 -0.328 60.981 -22.732
2471 1 1.435 63.424 -11.332
2472 1 -1.324 69.345 -0.303
2473 1 38.179 29.708 20.018
2474 1 37.000 33.734 25.723
2475 1 40.329 33.481 23.409
2476 1 2.433 6.337 2.801
2477 1 4.256 11.563 4.254
2478 1 8.409 6.508 4.215
2479 1 2.140 27.311 12.385
2480 1 -2.192 34.961 17.215
2481 1 -1.165 30.002 18.881
2482 1 36.836 32.046 -10.955
2483 1 31.679 33.307 -10.909
2484 1 32.718 36.762 -17.306
2485 1 20.843 103.313 -16.310
2486 1 26.846 95.414 1.843
2487 1 25.866 103.308 -7.297
2488 1 0.420 45.886 -9.051
2489 1 6.506 52.660 -10.058
2490 1 2.358 55.207 -5.492
2491 1 17.302 50.192 -15.335
2492 1 16.942 48.834 -10.270
2493 1 18.249 51.593 -9.362
2494 1 39.972 69.674 31.482
2495 1 33.310 77.282 40.261
2496 1 36.253 83.744 38.030
2497 1 27.899 13.627 0.169
2498 1 28.784 24.393 13.616
2499 1 27.233 16.918 9.203
2500 1 -10.841 23.466 47.287
2501 1 -10.482 21.013 49.259
2502 1 -11.814 22.776 42.126
2503 1 -8.602 18.784 1.356
2504 1 -0.444 18.482 3.234
2505 1 -3.999 13.023 3.602
2506 1 27.933 58.496 32.676
2507 1 33.669 46.611 36.909
2508 1 29.331 59.749 32.316
2509 1 -10.579 68.254 3.291
2510 1 -15.329 72.190 -2.471
2511 1 -14.319 68.722 -6.944
2512 1 -10.165 72.108 27.884
2513 1 -13.024 69.739 32.217
2514 1 -12.196 71.483 31.917
2515 1 4.707 33.202 9.477
2516 1 2.406 34.202 2.305
2517 1 8.608 32.559 -2.085
2518 1 0.022 21.711 39.646
2519 1 8.507 14.181 36.476
2520 1 10.739 19.977 47.788
2521 1 2.062 81.959 54.931
2522 1 -2.488 83.660 61.283
2523 1 -3.988 80.962 53.876
2524 1 49.875 55.010 20.083
2525 1 52.351 47.502 22.187
2526 1 52.111 55.335 23.561
2527 1 15.958 70.251 21.316
2528 1 20.859 74.086 25.215
2529 1 17.768 70.028 25.663
2530 1 60.524 52.500 31.392
2531 1 62.817 54.950 44.279
2532 1 62.190 56.984 33.315
2533 1 29.041 27.077 -18.129
2534 1 35.235 20.835 -10.067
2535 1 26.851 32.797 -21.650
2536 1 52.671 100.055 20.799
2537 1 56.470 96.659 21.214
2538 1 57.205 102.140 16.656
2539 1 30.745 74.869 35.765
2540 1 27.308 71.263 34.993
2541 1 26.766 67.418 38.103
2542 1 15.822 -9.498 2.781
2543 1 17.876 -9.754 5.847
2544 1 21.999 -12.652 3.231
2545 1 12.276 8.346 2.828
2546 1 16.048 20.248 -4.890
2547 1 13.815 13.025 -3.005
2548 1 -17.596 -32.623 58.599
2549 1 -24.797 -28.660 68.917
2550 1 -24.667 -25.349 57.968
2551 1 15.590 -15.868 7.627
2552 1 9.246 -10.391 10.984
2553 1 12.837 -8.539 19.186
2554 1 34.071 -27.820 14.244
2555 1 36.942 -26.247 16.402
2556 1 28.257 -31.305 15.449
2557 1 -8.845 -19.746 27.146
2558 1 -9.981 -26.723 18.406
2559 1 -7.310 -23.087 20.343
2560 1 55.302 16.544 23.413
2561 1 56.265 19.993 32.764
2562 1 63.089 18.270 25.192
2563 1 52.694 -7.416 -19.290
2564 1 56.387 -1.059 -17.025
2565 1 51.002 1.267 -4.727
2566 1 35.345 16.950 37.590
2567 1 35.703 21.926 42.118
2568 1 32.755 9.982 44.012
2569 1 49.881 8.300 60.972
2570 1 43.031 10.045 65.403
2571 1 44.136 12.729 54.842
2572 1 61.722 29.765 14.225
2573 1 64.859 37.755 10.797
2574 1 73.709 31.544 15.517
2575 1 51.291 57.572 25.034
2576 1 54.790 57.653 31.007
2577 1 44.722 59.806 37.533
2578 1 57.813 -17.432 25.802
2579 1 55.465 -6.756 21.671
2580 1 55.046 -9.117 19.274
2581 1 34.644 35.914 48.480
2582 1 27.859 30.213 58.699
2583 1 34.454 24.287 48.489
2584 1 21.287 -16.181 -8.976
2585 1 22.695 -11.323 -15.328
2586 1 22.802 -11.169 -8.102
2587 1 -12.178 4.005 46.396
2588 1 -20.432 1.543 56.899
2589 1 -18.339 4.586 55.713
2590 1 23.163 13.792 17.137
2591 1 28.254 13.017 26.411
2592 1 28.077 14.557 22.681
2593 1 -36.808 16.207 -11.012
2594 1 -36.929 15.593 -12.270
2595 1 -36.420 16.184 -18.149
2596 1 30.874 1.432 39.472
2597 1 32.876 -6.759 41.501
2598 1 31.542 -2.659 36.358
2599 1 19.770 21.126 31.478
2600 1 15.793 30.589 29.101
2601 1 16.888 22.172 35.853
2602 1 -0.494 -4.772 -25.961
2603 1 5.547 -6.382 -17.301
2604 1 3.553 0.746 -17.515
2605 1 28.045 -11.813 45.608
2606 1 26.730 -10.666 43.963
2607 1 25.408 -11.945 41.266
2608 1 2.726 22.640 46.128
2609 1 5.511 15.247 54.221
2610 1 5.794 18.060 44.639
2611 1 6.484 11.109 -4.819
2612 1 21.887 4.967 2.841
2613 1 17.107 8.408 1.481
2614 1 26.832 28.639 12.693
2615 1 29.824 31.374 14.506
2616 1 29.683 33.278 20.686
2617 1 22.815 14.638 21.244
2618 1 27.537 13.878 18.425
2619 1 27.620 2.927 24.076
2620 1 -16.167 -13.896 37.789
2621 1 -23.640 -15.060 30.907
2622 1 -20.137 -2.634 34.596
2623 1 -11.594 1.431 33.794
2624 1 -15.704 -0.187 31.829
2625 1 -19.911 -0.368 36.183
2626 1 0.095 -37.895 7.290
2627 1 1.028 -34.253 6.182
2628 1 3.499 -33.118 9.393
2629 1 24.433 32.321 22.091
2630 1 15.830 31.936 29.583
2631 1 12.480 23.594 28.758
2632 1 62.931 24.946 15.387
2633 1 64.584 34.929 19.594
2634 1 63.411 34.017 25.571
2635 1 41.504 -12.857 20.532
2636 1 42.359 -4.232 16.606
2637 1 40.633 -4.903 12.851
2638 1 5.011 -24.913 71.486
2639 1 3.681 -14.923 60.160
2640 1 12.307 -14.921 74.484
2641 1 -1.750 31.160 41.205
2642 1 -2.045 29.140 31.685
2643 1 -0.737 32.316 38.480
2644 1 45.125 26.141 52.834
2645 1 45.624 31.824 55.259
2646 1 55.565 28.249 49.757
2647 1 22.286 43.322 40.743
2648 1 21.102 36.937 47.061
2649 1 20.330 38.550 46.813
2650 1 -24.176 22.789 17.899
2651 1 -22.730 23.117 20.528
2652 1 -19.250 27.657 18.960
2653 1 36.579 29.379 24.436
2654 1 35.151 25.418 34.765
2655 1 30.283 24.427 40.587
2656 1 32.855 14.516 41.857
2657 1 42.409 15.075 40.308
2658 1 39.291 12.607 44.555
2659 1 -15.203 -26.351 -9.002
2660 1 -9.607 -21.726 -6.288
2661 1 -11.837 -19.692 -9.091
2662 1 17.931 17.945 21.470
2663 1 20.188 14.310 9.970
2664 1 16.578 12.355 19.777
2665 1 -8.807 -42.948 24.287
2666 1 -9.702 -38.282 20.339
2667 1 -9.640 -38.271 21.333
2668 1 37.512 26.324 30.765
2669 1 32.689 33.159 19.628
2670 1 33.022 33.753 18.779
2671 1 9.070 -2.544 17.723
2672 1 14.764 -0.655 23.260
2673 1 17.035 1.444 20.137
2674 1 10.937 7.358 -6.521
2675 1 19.448 11.684 -6.875
2676 1 18.410 12.370 1.188
2677 1 48.524 34.744 14.638
2678 1 51.464 29.548 15.285
2679 1 47.541 30.733 22.112
2680 1 67.568 25.927 44.070
2681 1 68.123 22.428 47.336
2682 1 72.201 21.708 39.512
2683 1 38.489 4.685 45.171
2684 1 41.314 6.164 31.099
2685 1 44.658 10.393 31.130
2686 1 11.553 -28.428 37.743
2687 1 14.071 -20.552 48.669
2688 1 6.083 -21.453 41.976
2689 1 68.861 11.365 -6.163
2690 1 70.563 8.761 -5.730
2691 1 61.424 14.672 -5.900
2692 1 66.161 -11.784 26.936
2693 1 73.070 -18.966 27.635
2694 1 67.844 -14.919 22.758
2695 1 -15.904 -8.176 37.164
2696 1 -25.409 -7.818 34.972
2697 1 -20.343 0.997 38.344
2698 1 66.640 9.221 38.636
2699 1 68.160 21.233 31.925
2700 1 60.088 12.646 34.721
2701 1 21.518 54.433 40.284
2702 1 20.096 48.013 41.179
2703 1 24.860 57.459 28.797
2704 1 5.715 37.069 58.193
2705 1 2.668 37.967 54.800
2706 1 3.917 36.302 64.334
2707 1 -10.765 25.731 21.847
2708 1 -17.580 18.312 23.106
2709 1 -11.850 30.341 18.846
2710 1 32.432 4.558 58.929
2711 1 34.989 2.981 65.842
2712 1 31.924 8.648 69.232
2713 1 -42.205 -3.242 15.070
2714 1 -40.567 -3.715 14.322
2715 1 -49.337 -2.426 11.269
2716 1 -3.677 9.672 50.073
2717 1 -6.392 11.756 50.871
2718 1 -3.051 8.878 47.094
2719 1 -1.569 26.862 11.275
2720 1 -0.033 31.514 13.624
2721 1 -0.381 28.640 23.830
2722 1 -27.069 56.281 -25.867
2723 1 -28.263 55.532 -17.705
2724 1 -23.814 48.758 -26.101
2725 1 -5.982 71.197 15.115
2726 1 -5.173 75.925 29.664
2727 1 0.753 67.298 20.534
2728 1 -3.347 27.584 56.189
2729 1 -3.437 24.133 52.149
2730 1 -3.872 18.432 52.463
2731 1 12.701 68.632 14.931
2732 1 9.722 74.349 8.529
2733 1 9.570 73.020 1.579
2734 1 -16.549 54.092 -17.155
2735 1 -17.680 55.662 -19.985
2736 1 -20.392 49.987 -24.501
2737 1 28.852 38.629 28.108
2738 1 32.085 42.125 24.346
2739 1 31.286 47.249 40.328
2740 1 -44.485 -5.986 15.578
2741 1 -45.981 -2.662 22.270
2742 1 -44.824 -4.680 17.333
2743 1 18.136 0.077 -4.928
2744 1 19.027 -2.787 7.403
2745 1 23.518 0.136 0.218
2746 1 54.115 54.184 49.496
2747 1 64.387 56.169 46.193
2748 1 56.841 60.219 48.323
2749 1 -22.549 42.912 -3.048
2750 1 -21.575 43.054 4.973
2751 1 -18.267 38.067 -7.398
2752 1 13.259 51.299 23.919
2753 1 11.907 41.667 29.686
2754 1 11.681 51.592 26.048
2755 1 41.984 42.033 39.874
2756 1 42.256 40.788 40.663
2757 1 37.057 40.839 41.582
2758 1 -5.540 6.443 30.053
2759 1 -6.760 9.832 27.700
2760 1 -6.998 11.761 36.779
2761 1 17.287 10.931 35.128
2762 1 15.754 12.560 40.744
2763 1 13.346 16.977 41.538
2764 1 33.080 52.402 28.984
2765 1 36.302 51.187 28.928
2766 1 34.489 43.086 27.541
2767 1 3.570 69.574 -22.746
2768 1 10.210 59.592 -31.234
2769 1 6.806 67.146 -22.050
2770 1 21.773 17.922 5.195
2771 1 20.629 19.545 9.951
2772 1 19.127 16.035 8.808
2773 1 13.671 30.591 39.985
2774 1 11.492 37.911 32.416
2775 1 13.218 30.143 39.124
2776 1 3.082 20.859 28.963
2777 1 3.686 15.217 31.167
2778 1 2.942 18.078 34.516
2779 1 26.338 32.545 1.629
2780 1 21.338 33.991 13.873
2781 1 20.328 31.226 -5.909
2782 1 -24.982 47.869 36.361
2783 1 -18.420 51.298 45.725
2784 1 -20.220 51.771 38.300
2785 1 75.779 -8.307 50.056
2786 1 77.690 -4.578 59.987
2787 1 78.449 -8.773 63.762
2788 1 -0.305 54.824 8.208
2789 1 -6.518 53.869 4.472
2790 1 1.861 55.277 1.969
2791 1 -28.167 43.678 27.745
2792 1 -27.609 41.970 29.366
2793 1 -27.524 51.066 35.020
2794 1 -9.715 20.359 44.269
2795 1 -9.251 21.571 42.473
2796 1 -12.379 18.616 33.566
2797 1 30.179 11.223 21.994
2798 1 30.002 13.200 16.050
2799 1 26.941 13.767 18.279
2800 1 13.510 61.637 -15.937
2801 1 6.940 63.421 -17.314
2802 1 -2.381 63.159 -18.853
2803 1 4.835 45.688 18.408
2804 1 14.331 45.624 19.256
2805 1 6.979 41.501 17.450
2806 1 52.126 27.314 19.011
2807 1 48.330 29.877 21.945
2808 1 52.652 26.103 28.356
2809 1 80.496 27.846 16.954
2810 1 76.727 30.709 4.119
2811 1 73.750 27.633 11.459
2812 1 23.351 7.140 44.932
2813 1 17.412 11.899 43.482
2814 1 28.431 8.646 51.784
2815 1 36.767 55.598 43.333
2816 1 36.115 56.417 42.748
2817 1 36.480 49.312 43.115
2818 1 -1.113 33.905 48.388
2819 1 8.372 32.624 37.940
2820 1 3.681 39.439 42.192
2821 1 49.644 48.523 77.571
2822 1 46.792 52.871 70.893
2823 1 47.832 58.642 76.879
2824 1 44.730 24.915 12.206
2825 1 36.524 26.287 12.654
2826 1 37.096 33.420 6.203
2827 1 38.252 66.054 5.655
2828 1 30.164 68.520 10.276
2829 1 29.052 64.947 6.248
2830 1 27.223 46.202 52.182
2831 1 28.506 53.862 51.822
2832 1 27.098 51.546 59.300
2833 1 4.607 47.358 21.566
2834 1 0.835 48.512 23.668
2835 1 5.582 44.007 23.454
2836 1 28.130 22.197 59.981
2837 1 23.697 8.973 66.276
2838 1 20.038 18.661 65.675
2839 1 9.651 52.337 51.217
2840 1 17.933 62.454 57.507
2841 1 10.721 57.790 53.717
2842 1 -3.554 61.080 1.241
2843 1 -10.409 62.592 5.015
2844 1 -1.404 64.971 7.262
2845 1 41.048 53.342 -2.378
2846 1 45.247 48.613 -1.497
2847 1 43.740 57.647 -5.399
2848 1 12.054 50.842 -11.655
2849 1 20.120 50.427 -12.925
2850 1 16.523 56.376 -3.090
2851 1 13.130 32.332 37.945
2852 1 15.807 33.627 39.348
2853 1 16.543 39.751 31.252
2854 1 38.165 17.202 10.224
2855 1 35.250 8.799 3.835
2856 1 43.994 9.466 5.976
2857 1 25.397 56.934 10.307
2858 1 22.389 56.776 5.014
2859 1 25.701 64.951 3.937
2860 1 27.702 51.964 14.468
2861 1 35.134 41.419 8.739
2862 1 25.849 46.171 8.211
2863 1 67.308 29.936 63.946
2864 1 63.989 26.342 74.033
2865 1 68.355 35.849 66.978
2866 1 5.292 -36.286 8.986
2867 1 10.466 -25.427 3.916
2868 1 7.936 -26.653 8.479
2869 1 32.049 47.597 5.788
2870 1 30.499 40.156 2.630
2871 1 27.402 44.954 4.302
2872 1 50.361 -9.220 8.062
2873 1 52.466 -3.411 2.214
2874 1 51.541 -3.425 6.696
2875 1 -2.182 -0.032 46.596
2876 1 1.006 6.292 33.978
2877 1 6.736 6.678 29.353
2878 1 12.755 29.833 -18.127
2879 1 17.943 23.821 -10.586
2880 1 14.393 26.022 -21.749
2881 1 50.776 17.187 -14.753
2882 1 52.446 17.220 -12.073
2883 1 58.737 23.128 -15.618
2884 1 3.807 -53.094 19.973
2885 1 10.588 -46.819 15.681
2886 1 1.734 -45.913 14.845
2887 1 39.326 0.159 34.300
2888 1 37.571 0.607 30.770
2889 1 33.721 3.174 20.661
2890 1 50.343 -41.157 3.382
2891 1 58.315 -50.002 -3.252
2892 1 51.943 -46.207 -5.346
2893 1 49.586 -10.544 11.096
2894 1 51.868 -6.639 18.336
2895 1 45.511 -9.442 23.901
2896 1 65.903 3.121 11.473
2897 1 63.649 0.569 14.516
2898 1 60.588 2.796 13.061
2899 1 29.100 -38.649 38.396
2900 1 25.524 -39.012 35.623
2901 1 29.652 -36.018 32.805
2902 1 54.413 -17.717 20.136
2903 1 57.629 -19.451 23.676
2904 1 54.520 -12.845 24.417
2905 1 -15.990 -19.492 58.954
2906 1 -14.175 -15.770 66.223
2907 1 -14.936 -11.788 73.333
2908 1 16.107 6.359 44.721
2909 1 18.635 12.434 48.044
2910 1 19.663 8.350 46.223
2911 1 50.814 9.173 31.159
2912 1 53.893 4.523 31.649
2913 1 54.348 2.298 29.251
2914 1 -7.350 -21.506 -20.255
2915 1 -3.703 -29.860 -12.616
2916 1 -7.633 -33.770 -12.645
2917 1 15.613 40.530 9.714
2918 1 19.470 42.306 8.340
2919 1 16.918 44.214 12.692
2920 1 43.254 16.145 9.091
2921 1 35.608 18.398 9.131
2922 1 38.745 13.358 1.899
2923 1 20.286 -24.410 21.476
2924 1 20.941 -18.726 12.179
2925 1 21.388 -21.744 16.727
2926 1 33.478 9.570 25.394
2927 1 32.341 5.573 35.169
2928 1 32.291 9.340 31.740
2929 1 -2.176 -2.290 33.296
2930 1 4.325 -4.736 41.273
2931 1 -2.870 -3.927 37.359
2932 1 32.363 6.745 48.595
2933 1 34.608 4.631 50.138
2934 1 26.574 3.082 39.451
2935 1 53.175 -1.478 25.960
2936 1 54.967 8.266 26.636
2937 1 54.244 -1.522 27.894
2938 1 44.918 11.008 5.833
2939 1 46.362 16.384 -0.052
2940 1 45.849 24.270 10.009
2941 1 53.386 -26.327 40.084
2942 1 50.574 -20.133 37.560
2943 1 61.783 -23.269 39.077
2944 1 19.509 13.351 2.729
2945 1 24.328 5.250 1.812
2946 1 25.998 8.600 7.707
2947 1 6.832 29.295 -7.268
2948 1 3.587 34.809 -1.601
2949 1 1.157 28.266 -5.441
2950 1 23.117 61.332 -8.107
2951 1 28.003 65.028 -10.456
2952 1 33.916 64.514 -8.060
2953 1 -19.586 3.606 36.853
2954 1 -16.647 2.224 32.212
2955 1 -19.398 3.308 35.129
2956 1 44.844 15.012 15.727
2957 1 41.976 16.914 9.313
2958 1 43.168 14.387 14.350
2959 1 49.152 27.838 34.063
2960 1 50.125 16.920 32.935
2961 1 46.814 23.454 36.217
2962 1 27.277 63.643 20.999
2963 1 34.965 67.511 23.064
2964 1 28.376 67.702 24.682
2965 1 11.578 33.589 47.724
2966 1 13.544 38.069 47.976
2967 1 17.383 39.448 40.592
2968 1 -2.438 7.375 41.080
2969 1 -5.075 1.933 41.865
2970 1 -6.698 -1.181 40.783
2971 1 2.097 9.716 27.181
2972 1 1.506 1.697 33.919
2973 1 6.145 5.717 33.857
2974 1 17.218 -7.405 18.700
2975 1 17.874 -3.342 31.614
2976 1 16.009 -9.294 28.223
2977 1 50.043 -3.773 -15.838
2978 1 50.997 -14.723 -7.365
2979 1 51.356 -6.158 -4.241
2980 1 50.885 15.712 7.579
2981 1 51.418 18.988 11.181
2982 1 54.356 15.594 12.166
2983 1 23.343 -38.511 28.763
2984 1 26.717 -33.933 27.251
2985 1 23.800 -39.845 21.801
2986 1 -7.253 1.907 37.679
2987 1 -20.522 2.109 45.482
2988 1 -11.265 7.113 45.275
2989 1 22.453 24.657 44.135
2990 1 22.302 24.544 43.485
2991 1 24.528 23.293 48.062
2992 1 27.720 27.072 17.565
2993 1 30.195 30.270 12.771
2994 1 28.002 25.960 17.325
2995 1 26.906 37.896 18.864
2996 1 33.772 38.920 14.163
2997 1 32.709 39.225 17.190
2998 1 39.289 8.289 43.047
2999 1 34.346 12.487 39.696
3000 1 42.773 15.044 45.668
3001 1 16.225 27.050 37.683
3002 1 14.710 27.441 33.725
3003 1 13.999 27.932 32.408
3004 1 -17.578 14.775 18.504
3005 1 -16.349 19.810 30.354
3006 1 -20.075 15.358 29.029
3007 1 31.351 -31.597 35.989
3008 1 33.831 -17.573 36.546
3009 1 35.662 -23.884 40.870
3010 1 5.629 6.347 -16.983
3011 1 3.962 5.452 -16.938
3012 1 0.491 14.054 -16.135
3013 1 7.625 -9.370 65.189
3014 1 11.342 -4.857 64.941
3015 1 11.107 -10.759 68.608
3016 1 -14.369 36.457 -29.994
3017 1 -15.667 26.147 -28.825
3018 1 -18.499 32.965 -21.908
3019 1 54.550 -4.464 30.814
3020 1 51.356 -11.620 37.146
3021 1 57.335 -7.635 37.598
3022 1 -33.715 25.492 15.472
3023 1 -35.932 21.118 13.237
3024 1 -39.552 26.508 16.235
3025 1 19.873 43.882 38.090
3026 1 18.600 37.152 29.041
3027 1 21.768 39.446 39.322
3028 1 -18.023 10.290 46.842
3029 1 -13.216 16.417 39.104
3030 1 -23.314 16.941 32.709
3031 1 39.300 26.192 57.663
3032 1 36.353 22.408 52.747
3033 1 38.332 26.054 53.643
3034 1 -21.468 26.800 2.124
3035 1 -25.226 20.267 -0.835
3036 1 -22.036 22.978 -2.515
3037 1 -30.331 -2.188 54.781
3038 1 -28.952 -8.571 61.705
3039 1 -24.897 -6.995 62.170
3040 1 21.127 58.445 64.620
3041 1 20.680 55.590 61.388
3042 1 22.688 60.439 68.003
3043 1 12.682 19.975 54.690
3044 1 7.653 30.350 58.597
3045 1 10.759 26.302 60.636
3046 1 44.890 64.415 24.445
3047 1 47.675 66.681 21.535
3048 1 45.483 62.634 18.158
3049 1 40.340 2.297 30.365
3050 1 36.124 4.417 27.076
3051 1 38.455 -4.596 34.289
3052 1 -34.366 54.828 18.165
3053 1 -38.023 51.778 26.267
3054 1 -34.430 53.667 24.720
3055 1 -20.659 6.505 37.085
3056 1 -15.195 14.864 48.246
3057 1 -17.033 12.737 48.717
3058 1 33.148 58.661 27.699
3059 1 33.771 69.471 20.476
3060 1 25.821 67.528 21.521
3061 1 28.179 61.632 10.136
3062 1 22.083 60.114 21.488
3063 1 25.401 61.399 19.204
3064 1 23.280 25.873 2.576
3065 1 25.469 28.855 12.932
3066 1 25.826 23.443 15.696
3067 1 26.530 7.219 59.763
3068 1 23.502 7.937 61.297
3069 1 19.594 7.756 62.133
3070 1 34.366 36.192 -0.665
3071 1 31.577 31.676 -3.973
3072 1 35.444 30.380 4.529
3073 1 -10.977 57.509 16.943
3074 1 -10.922 54.204 18.067
3075 1 -10.395 56.283 24.505
3076 1 59.264 40.343 26.595
3077 1 59.167 35.392 29.814
3078 1 60.327 38.310 27.787
3079 1 38.722 51.683 57.442
3080 1 31.079 51.971 58.344
3081 1 36.572 45.555 72.617
3082 1 24.981 48.246 9.210
3083 1 25.006 44.708 9.420
3084 1 25.068 41.953 15.105
3085 1 43.250 -3.980 42.968
3086 1 39.415 -2.090 37.193
3087 1 41.229 1.969 34.512
3088 1 6.961 52.092 43.154
3089 1 19.440 58.382 52.178
3090 1 7.279 51.093 51.333
3091 1 -12.523 27.428 -21.209
3092 1 -17.535 36.297 -23.904
3093 1 -18.351 26.908 -25.193
3094 1 15.966 69.141 56.853
3095 1 16.536 67.628 47.098
3096 1 18.592 66.826 52.041
3097 1 -3.055 34.852 63.043
3098 1 -4.996 39.395 64.187
3099 1 -4.579 25.025 58.338
3100 1 31.136 56.505 -15.787
3101 1 24.180 55.962 -22.400
3102 1 26.712 48.766 -13.588
3103 1 5.616 39.978 39.436
3104 1 1.453 41.948 42.893
3105 1 4.407 42.588 41.998
3106 1 36.404 -21.654 13.560
3107 1 36.798 -17.593 10.015
3108 1 37.791 -19.081 16.705
3109 1 35.341 34.972 -22.233
3110 1 37.775 38.161 -16.746
3111 1 34.500 35.652 -14.915
3112 1 34.207 43.348 33.316
3113 1 24.165 43.758 30.743
3114 1 26.372 36.335 28.345
3115 1 2.901 3.010 55.170
3116 1 0.489 5.972 51.064
3117 1 -2.143 6.560 45.060
3118 1 36.145 0.870 29.030
3119 1 34.485 12.811 21.706
3120 1 40.963 1.618 25.463
3121 1 50.448 63.822 27.010
3122 1 57.490 79.446 31.189
3123 1 48.219 74.914 30.191
3124 1 59.277 71.324 7.673
3125 1 54.170 66.921 2.069
3126 1 59.620 65.754 1.606
3127 1 49.977 52.395 41.576
3128 1 56.145 55.193 39.197
3129 1 51.697 54.396 35.470
3130 1 -4.229 7.083 2.475
3131 1 2.420 23.060 0.210
3132 1 -0.121 21.231 0.195
3133 1 23.716 85.995 65.297
3134 1 23.774 84.186 56.684
3135 1 23.741 76.097 58.638
3136 1 12.070 49.478 35.419
3137 1 15.343 38.844 28.989
3138 1 14.222 39.690 34.810
3139 1 2.500 17.245 52.587
3140 1 6.293 21.307 59.361
3141 1 -2.385 10.243 58.555
3142 1 41.498 43.078 6.404
3143 1 46.156 45.211 13.493
3144 1 44.554 44.751 13.738
3145 1 53.655 64.886 1.325
3146 1 52.325 60.038 -4.305
3147 1 44.908 56.307 3.420
3148 1 31.119 41.956 56.461
3149 1 33.209 28.032 47.471
3150 1 41.351 39.391 49.236
3151 1 53.050 64.887 -1.422
3152 1 44.147 71.441 1.651
3153 1 47.951 72.191 -9.316
3154 1 -10.471 24.171 21.703
3155 1 -12.080 33.085 26.802
3156 1 -18.576 30.352 13.411
3157 1 16.859 18.820 47.620
3158 1 20.931 21.143 52.517
3159 1 18.833 16.796 44.605
3160 1 34.726 67.059 34.200
3161 1 34.845 64.325 26.605
3162 1 27.713 62.609 39.121
3163 1 14.610 73.960 13.715
3164 1 8.355 67.568 27.055
3165 1 10.658 64.015 17.855
3166 1 23.549 68.807 20.848
3167 1 15.081 59.847 22.118
3168 1 16.558 58.149 16.300
3169 1 26.250 -5.837 8.975
3170 1 24.704 -2.651 4.911
3171 1 20.443 -5.246 14.941
3172 1 -36.538 -25.962 25.343
3173 1 -36.675 -23.656 27.202
3174 1 -36.864 -22.433 32.893
3175 1 34.124 40.424 38.622
3176 1 33.226 41.181 32.379
3177 1 26.050 38.934 37.227
3178 1 23.009 2.137 42.571
3179 1 21.480 1.288 41.457
3180 1 22.001 7.365 38.873
3181 1 36.608 -34.359 31.459
3182 1 39.502 -32.914 36.655
3183 1 40.894 -30.146 36.461
3184 1 28.346 1.022 16.858
3185 1 24.355 -1.049 13.735
3186 1 25.900 1.787 17.736
3187 1 5.485 5.590 12.755
3188 1 0.259 3.004 26.999
3189 1 -0.816 3.737 15.507
3190 1 -15.412 6.867 13.293
3191 1 -14.742 -0.756 4.956
3192 1 -16.752 -0.665 13.653
3193 1 -0.937 14.906 35.303
3194 1 3.488 15.920 32.028
3195 1 0.364 8.871 34.378
3196 1 70.937 -3.655 47.007
3197 1 69.338 1.362 54.822
3198 1 72.847 -9.057 63.804
3199 1 92.555 21.176 62.800
3200 1 87.787 22.363 65.909
3201 1 89.386 21.251 64.310
3202 1 -0.342 1.974 61.254
3203 1 -0.419 0.379 69.146
3204 1 0.372 2.455 66.192
3205 1 0.712 8.566 69.591
3206 1 3.190 11.843 65.971
3207 1 -0.161 14.248 62.805
3208 1 -5.408 0.476 3.996
3209 1 -6.163 0.274 4.024
3210 1 -5.089 -0.716 2.587
3211 1 10.735 19.085 1.232
3212 1 10.543 17.313 2.634
3213 1 11.895 18.208 6.748
3214 1 29.217 -1.958 63.374
3215 1 25.004 -1.240 63.022
3216 1 22.952 -4.660 58.714
3217 1 -15.348 2.354 28.058
3218 1 -20.854 1.422 39.191
3219 1 -14.010 4.560 42.156
3220 1 12.583 20.729 31.323
3221 1 15.049 18.814 31.882
3222 1 7.838 15.893 29.637
3223 1 15.935 -9.116 -8.658
3224 1 11.498 -4.361 -9.430
3225 1 10.309 -9.856 -7.014
3226 1 42.919 35.650 -6.459
3227 1 43.482 32.321 -14.376
3228 1 44.294 27.005 -17.530
3229 1 26.522 21.555 4.321
3230 1 29.618 6.407 9.598
3231 1 25.120 16.232 8.586
3232 1 32.642 -26.188 59.755
3233 1 35.837 -24.099 48.341
3234 1 36.336 -22.080 49.780
3235 1 18.319 -38.496 15.521
3236 1 11.494 -33.682 23.304
3237 1 15.024 -41.589 20.441
3238 1 17.873 13.455 30.884
3239 1 17.316 12.253 24.912
3240 1 12.636 12.331 25.473
3241 1 52.184 32.916 -10.314
3242 1 59.392 41.004 -15.879
3243 1 50.149 45.032 -14.125
3244 1 38.157 -5.592 65.009
3245 1 36.305 -2.120 69.198
3246 1 31.776 -5.691 61.897
3247 1 -6.702 11.457 -3.662
3248 1 -12.459 6.317 -3.597
3249 1 -9.648 14.215 -6.216
3250 1 2.724 -10.691 -9.367
3251 1 3.260 -14.590 -6.295
3252 1 -0.941 -17.392 1.488
3253 1 23.020 11.818 57.539
3254 1 29.074 19.523 56.122
3255 1 28.659 13.331 58.496
3256 1 27.203 -2.715 27.160
3257 1 24.162 0.166 33.046
3258 1 24.619 -2.408 24.141
3259 1 40.327 -2.403 43.327
3260 1 44.654 9.684 48.191
3261 1 44.129 2.644 51.612
3262 1 38.936 2.270 30.595
3263 1 31.944 -1.431 33.460
3264 1 32.149 3.966 29.400
3265 1 33.607 10.690 37.290
3266 1 37.861 12.991 25.676
3267 1 41.778 22.797 37.838
3268 1 29.332 -13.655 33.450
3269 1 30.358 -8.483 34.208
3270 1 26.439 -15.288 29.718
3271 1 31.334 13.357 41.382
3272 1 34.748 18.513 47.286
3273 1 34.801 14.887 50.481
3274 1 52.426 -34.471 35.800
3275 1 48.077 -31.964 37.019
3276 1 50.770 -22.888 30.205
3277 1 50.003 -25.390 55.741
3278 1 51.052 -17.022 56.096
3279 1 46.733 -20.393 64.290
3280 1 51.979 -14.437 24.827
3281 1 50.741 -9.984 37.168
3282 1 48.357 -18.039 29.651
3283 1 46.004 28.867 18.961
3284 1 43.219 26.185 13.086
3285 1 42.412 24.395 15.045
3286 1 17.606 20.076 13.377
3287 1 14.259 16.153 11.255
3288 1 24.851 18.616 9.854
3289 1 -21.754 25.969 8.628
3290 1 -21.233 26.462 8.653
3291 1 -16.442 22.840 6.781
3292 1 33.990 -14.628 42.575
3293 1 30.464 -12.277 46.367
3294 1 35.422 -20.081 29.472
3295 1 -1.234 25.443 50.542
3296 1 3.257 18.450 60.153
3297 1 3.515 22.341 52.718
3298 1 40.377 -16.728 40.250
3299 1 44.132 -18.994 29.613
3300 1 45.940 -18.234 31.826
3301 1 1.188 35.708 -15.245
3302 1 2.205 39.965 -11.531
3303 1 -1.843 32.629 -12.629
3304 1 -12.320 29.741 33.780
3305 1 -9.543 17.714 24.784
3306 1 -7.303 31.244 27.966
3307 1 28.919 26.446 4.806
3308 1 29.176 24.265 6.043
3309 1 31.887 27.514 8.639
3310 1 34.747 28.890 24.597
3311 1 34.222 26.218 35.017
3312 1 32.426 24.868 28.209
3313 1 -10.845 2.017 11.253
3314 1 -6.003 -0.042 12.322
3315 1 -13.718 3.026 15.735
3316 1 43.427 19.180 32.544
3317 1 45.874 28.838 30.253
3318 1 52.863 22.304 23.765
3319 1 18.497 23.614 25.276
3320 1 19.156 20.726 18.390
3321 1 19.308 27.526 20.413
3322 1 61.256 32.651 31.035
3323 1 70.805 38.592 26.162
3324 1 67.744 29.568 31.182
3325 1 -1.266 34.907 11.678
3326 1 -7.952 24.584 9.213
3327 1 1.101 35.971 10.224
3328 1 63.354 54.881 46.969
3329 1 66.000 55.649 46.672
3330 1 61.048 53.868 40.391
3331 1 -21.651 28.047 13.158
3332 1 -28.084 32.211 7.746
3333 1 -24.079 22.362 9.081
3334 1 31.002 32.545 17.979
3335 1 22.345 29.319 9.457
3336 1 30.775 32.483 20.036
3337 1 6.317 54.367 -20.264
3338 1 3.475 53.715 -21.716
3339 1 6.763 58.932 -22.488
3340 1 11.330 22.834 24.482
3341 1 11.125 26.546 16.828
3342 1 12.366 30.778 12.065
3343 1 17.317 18.670 56.393
3344 1 18.385 21.033 63.929
3345 1 19.252 18.830 57.767
3346 1 20.247 8.772 -26.554
3347 1 18.612 11.557 -16.424
3348 1 23.665 15.543 -25.294
3349 1 15.652 31.233 35.943
3350 1 11.279 25.856 39.370
3351 1 13.938 26.130 37.946
3352 1 37.869 76.207 33.257
3353 1 35.208 74.241 35.080
3354 1 39.698 72.187 36.803
3355 1 8.741 39.925 52.829
3356 1 10.622 36.788 54.924
3357 1 6.987 35.934 54.759
3358 1 -30.795 32.717 -16.715
3359 1 -36.112 22.056 -15.558
3360 1 -31.946 30.782 -18.296
3361 1 2.102 -1.879 5.617
3362 1 7.327 -7.112 11.136
3363 1 0.851 -5.925 7.410
3364 1 10.474 34.458 47.406
3365 1 12.914 30.818 44.734
3366 1 13.290 32.086 52.186
3367 1 29.772 19.293 35.537
3368 1 32.386 16.677 46.538
3369 1 36.443 20.631 45.562
3370 1 33.335 31.232 20.917
3371 1 40.095 34.336 10.228
3372 1 27.923 35.220 15.982
3373 1 -2.271 53.458 3.359
3374 1 -8.915 45.491 -0.264
3375 1 -5.960 48.344 -3.203
3376 1 20.840 56.752 54.733
3377 1 16.945 49.657 54.919
3378 1 18.162 58.775 53.927
3379 1 -21.290 44.507 7.753
3380 1 -26.322 37.587 15.516
3381 1 -31.386 40.671 17.923
3382 1 2.100 55.229 -11.611
3383 1 -6.753 54.964 -22.516
3384 1 -4.736 54.531 -25.419
3385 1 12.631 25.046 24.549
3386 1 10.947 28.821 18.791
3387 1 12.537 25.522 31.962
3388 1 29.258 76.766 34.877
3389 1 36.875 73.291 36.160
3390 1 40.925 73.953 33.181
3391 1 19.725 51.464 23.969
3392 1 16.811 54.261 20.787
3393 1 18.097 47.399 20.147
3394 1 8.707 67.703 -2.658
3395 1 -0.319 68.979 3.463
3396 1 7.377 71.987 2.837
3397 1 -27.615 64.982 54.558
3398 1 -26.715 65.490 63.243
3399 1 -22.238 67.939 57.469
3400 1 43.661 63.923 42.468
3401 1 44.882 63.293 47.079
3402 1 38.863 68.933 43.974
3403 1 29.700 77.235 53.658
3404 1 31.426 80.306 58.044
3405 1 33.246 82.946 70.568
3406 1 55.625 59.475 27.322
3407 1 49.356 50.873 40.489
3408 1 58.167 60.522 29.348
3409 1 56.086 50.497 26.442
3410 1 50.658 53.870 30.592
3411 1 52.912 43.847 28.460
3412 1 -37.008 44.301 17.774
3413 1 -34.358 44.872 18.103
3414 1 -41.262 36.443 11.504
3415 1 44.113 -16.026 21.181
3416 1 40.446 -11.158 11.280
3417 1 44.741 -11.525 19.705
3418 1 -1.550 54.996 40.223
3419 1 -0.045 62.512 46.225
3420 1 -1.830 57.601 42.625
3421 1 15.103 66.686 45.174
3422 1 14.690 64.949 50.812
3423 1 16.680 72.322 47.212
3424 1 1.210 39.294 -14.506
3425 1 -1.891 41.289 -15.444
3426 1 1.251 43.443 -14.969
3427 1 -25.569 48.724 27.052
3428 1 -28.806 51.296 33.343
3429 1 -26.433 44.967 22.835
3430 1 49.833 67.477 48.766
3431 1 50.684 66.602 52.783
3432 1 56.007 69.289 50.242
3433 1 56.164 40.364 17.177
3434 1 65.088 37.091 25.164
3435 1 61.909 37.621 12.513
3436 1 21.184 15.337 52.469
3437 1 23.997 10.589 54.127
3438 1 24.033 5.551 50.273
3439 1 41.522 74.827 27.432
3440 1 41.213 85.120 35.701
3441 1 38.811 79.123 24.307
3442 1 13.453 1.066 38.429
3443 1 6.981 -10.604 33.952
3444 1 12.741 -10.603 34.338
3445 1 36.961 8.410 4.780
3446 1 36.240 -5.126 17.263
3447 1 22.630 4.097 14.413
3448 1 59.037 47.324 39.512
3449 1 49.778 41.897 50.089
3450 1 53.203 45.481 45.907
3451 1 8.733 0.240 46.195
3452 1 6.673 1.372 49.095
3453 1 3.694 -2.651 51.042
3454 1 11.771 36.375 18.232
3455 1 2.930 31.031 17.233
3456 1 2.160 28.717 16.637
3457 1 -29.551 29.052 27.339
3458 1 -24.796 30.995 21.447
3459 1 -29.372 26.722 12.704
3460 1 4.183 36.770 -8.701
3461 1 8.936 43.178 -12.800
3462 1 8.568 34.336 -11.118
3463 1 -23.088 -30.736 51.561
3464 1 -21.980 -28.452 41.753
3465 1 -24.256 -22.440 61.930
3466 1 45.703 59.498 -19.791
3467 1 48.017 59.651 -18.031
3468 1 43.619 57.246 -12.686
3469 1 31.855 76.086 36.171
3470 1 39.904 75.677 33.094
3471 1 36.505 79.944 21.997
3472 1 -19.445 17.100 31.119
3473 1 -14.133 14.902 38.434
3474 1 -10.414 17.561 33.169
3475 1 6.522 73.582 40.370
3476 1 6.261 73.061 36.563
3477 1 6.009 77.346 34.708
3478 1 0.355 65.067 39.571
3479 1 -0.164 53.438 38.091
3480 1 -3.450 67.398 36.390
3481 1 45.444 69.681 -3.509
3482 1 48.906 59.232 -9.887
3483 1 49.144 63.698 4.144
3484 1 16.341 80.131 20.372
3485 1 14.080 78.519 13.103
3486 1 15.048 82.057 10.591
3487 1 72.771 62.792 9.032
3488 1 73.532 59.725 6.920
3489 1 68.661 64.737 12.580
3490 1 39.767 -23.937 54.119
3491 1 39.494 -11.579 59.601
3492 1 49.135 -7.740 52.319
3493 1 35.179 -20.003 45.100
3494 1 35.370 -25.106 48.244
3495 1 36.089 -27.890 50.989
3496 1 9.900 27.711 18.647
3497 1 13.786 20.759 27.390
3498 1 7.517 26.540 23.108
3499 1 22.149 -10.792 24.829
3500 1 21.977 -19.743 21.079
3501 1 17.381 -19.495 25.236
3502 1 12.099 -1.328 41.918
3503 1 14.713 5.268 35.075
3504 1 11.753 5.703 44.442
3505 1 5.251 -17.592 15.865
3506 1 7.846 -12.410 16.282
3507 1 3.601 -11.309 19.102
3508 1 -6.048 33.895 31.732
3509 1 -9.795 37.826 32.900
3510 1 -6.439 35.630 38.208
3511 1 10.293 21.256 -8.276
3512 1 3.829 21.157 -8.509
3513 1 6.172 16.994 -14.481
3514 1 61.917 1.998 49.915
3515 1 58.728 -1.758 51.282
3516 1 52.094 -5.218 58.140
3517 1 47.089 -35.470 27.993
3518 1 45.142 -33.671 33.083
3519 1 49.583 -26.881 30.904
3520 1 59.482 11.728 41.662
3521 1 56.906 11.146 43.637
3522 1 59.068 15.277 48.533
3523 1 30.693 -39.454 42.014
3524 1 33.800 -43.482 39.454
3525 1 32.564 -50.229 42.036
3526 1 89.497 0.134 24.894
3527 1 94.957 2.476 20.645
3528 1 91.333 5.649 20.610
3529 1 37.551 -20.565 18.391
3530 1 35.032 -22.136 18.953
3531 1 38.050 -25.107 1.954
3532 1 -12.457 -45.897 59.045
3533 1 -9.034 -41.768 55.700
3534 1 -9.617 -50.343 54.787
3535 1 13.562 12.573 42.290
3536 1 -0.122 7.201 50.929
3537 1 4.054 3.419 42.565
3538 1 -2.159 -10.291 12.801
3539 1 3.983 -9.176 9.424
3540 1 5.689 -6.543 13.916
3541 1 45.087 12.150 42.100
3542 1 46.064 5.535 47.404
3543 1 38.815 17.961 47.691
3544 1 -17.743 17.614 60.352
3545 1 -17.800 21.398 64.022
3546 1 -19.772 23.769 63.481
3547 1 44.273 -6.615 51.386
3548 1 41.326 -18.544 45.706
3549 1 47.983 -20.437 51.087
3550 1 45.606 -1.184 69.001
3551 1 45.937 -4.579 76.583
3552 1 44.625 -1.879 73.280
3553 1 32.909 -17.302 41.054
3554 1 24.163 -21.958 44.744
3555 1 31.415 -21.919 49.713
3556 1 -1.314 33.169 -14.108
3557 1 8.536 39.932 -13.781
3558 1 6.919 47.672 -17.495
3559 1 18.851 -8.195 10.289
3560 1 15.063 -6.538 17.198
3561 1 23.800 -7.623 19.017
3562 1 20.494 -21.041 35.257
3563 1 26.414 -18.360 37.582
3564 1 21.413 -20.305 40.377
3565 1 49.465 -17.606 53.973
3566 1 47.937 -10.209 36.961
3567 1 52.124 -12.986 43.561
3568 1 -7.865 -8.051 19.805
3569 1 -3.732 -2.532 24.423
3570 1 -0.765 -3.836 34.422
3571 1 24.749 6.863 52.552
3572 1 19.497 3.505 43.709
3573 1 17.213 -2.026 43.039
3574 1 27.036 -0.633 13.773
3575 1 29.603 -3.571 21.040
3576 1 25.944 -1.053 22.589
3577 1 -8.878 -13.857 59.412
3578 1 -6.539 0.337 45.237
3579 1 -11.172 -7.205 57.638
3580 1 42.719 36.570 34.870
3581 1 40.679 48.517 28.757
3582 1 46.398 39.104 30.414
3583 1 43.224 41.063 24.482
3584 1 42.895 38.175 28.101
3585 1 38.348 39.054 20.459
3586 1 23.831 36.307 -4.734
3587 1 23.697 42.689 -3.923
3588 1 20.874 41.148 -4.563
3589 1 19.228 9.160 20.791
3590 1 24.879 10.338 21.624
3591 1 22.696 11.630 21.999
3592 1 33.865 -13.264 17.331
3593 1 30.991 -2.642 21.398
3594 1 35.641 -13.137 14.886
3595 1 0.920 12.697 37.253
3596 1 -2.771 13.843 32.427
3597 1 -1.114 13.228 26.826
3598 1 37.430 14.386 37.437
3599 1 36.308 12.853 37.846
3600 1 40.647 21.098 34.655
3601 1 3.871 23.275 47.042
3602 1 1.715 18.645 48.094
3603 1 4.623 24.013 50.249
3604 1 66.594 -17.977 69.563
3605 1 67.656 -19.797 69.920
3606 1 60.830 -17.273 73.180
3607 1 -43.890 -3.547 26.434
3608 1 -46.009 -12.560 30.676
3609 1 -45.169 -13.825 30.550
3610 1 14.206 51.104 8.877
3611 1 17.728 52.507 3.913
3612 1 19.169 57.913 -3.650
3613 1 -0.730 9.511 54.062
3614 1 -5.855 9.581 54.323
3615 1 -7.617 12.198 44.251
3616 1 29.065 -9.123 7.771
3617 1 28.912 -14.432 -1.962
3618 1 27.867 -7.875 -6.973
3619 1 20.885 -1.951 44.873
3620 1 15.881 -0.225 50.808
3621 1 9.734 -0.835 51.347
3622 1 -2.578 26.274 -3.809
3623 1 -0.020 28.205 -1.324
3624 1 -1.824 23.654 -5.426
3625 1 27.425 14.864 33.954
3626 1 33.453 11.040 30.294
3627 1 36.266 13.117 26.835
3628 1 34.124 73.246 6.641
3629 1 35.518 72.336 10.390
3630 1 34.596 72.629 19.527
3631 1 -8.249 31.024 50.219
3632 1 -1.635 31.320 51.117
3633 1 -9.284 27.058 45.162
3634 1 59.938 46.690 35.635
3635 1 61.953 48.237 32.568
3636 1 58.999 48.543 25.193
3637 1 20.059 17.255 3.139
3638 1 14.695 19.085 -9.104
3639 1 18.985 18.632 -11.168
3640 1 88.488 -10.744 60.964
3641 1 67.173 -17.975 76.190
3642 1 82.993 -13.667 66.050
3643 1 31.840 27.374 57.544
3644 1 31.435 28.488 67.404
3645 1 39.292 33.484 64.438
3646 1 -2.276 39.161 35.498
3647 1 -2.395 44.062 35.732
3648 1 1.003 41.319 40.773
3649 1 53.816 68.325 6.167
3650 1 54.688 67.476 8.628
3651 1 50.701 62.615 10.475
3652 1 46.954 -6.523 67.503
3653 1 48.833 -3.658 63.351
3654 1 50.213 0.049 68.100
3655 1 -3.238 -21.144 33.837
3656 1 -10.249 -27.184 32.089
3657 1 -11.376 -31.662 38.941
3658 1 29.547 41.289 16.525
3659 1 30.829 40.251 13.781
3660 1 31.188 33.779 20.690
3661 1 21.228 -19.956 24.737
3662 1 12.305 -17.045 21.317
3663 1 21.120 -17.978 24.961
3664 1 -25.120 -3.870 34.836
3665 1 -26.599 -11.493 29.316
3666 1 -18.046 -6.883 38.122
3667 1 68.888 51.758 24.500
3668 1 67.035 55.672 25.063
3669 1 62.760 57.802 22.470
3670 1 17.737 73.409 5.804
3671 1 20.279 66.901 -2.392
3672 1 22.018 72.425 -0.161
3673 1 48.850 -2.451 64.642
3674 1 43.849 -10.621 53.427
3675 1 44.023 -4.382 50.819
3676 1 -0.570 8.498 20.618
3677 1 4.047 13.156 16.099
3678 1 -0.848 8.659 16.440
3679 1 -23.987 74.741 34.047
3680 1 -26.875 75.281 43.318
3681 1 -28.356 74.833 36.208
3682 1 32.494 -34.890 33.105
3683 1 31.864 -41.144 26.827
3684 1 34.301 -36.172 30.149
3685 1 31.162 24.118 16.174
3686 1 30.738 22.511 16.821
3687 1 34.289 21.156 18.830
3688 1 -1.102 -17.723 13.417
3689 1 -2.224 -13.837 7.969
3690 1 0.713 -14.893 6.420
3691 1 -38.578 63.783 -7.374
3692 1 -38.597 71.941 -10.564
3693 1 -37.225 64.279 -5.919
3694 1 14.695 26.162 4.905
3695 1 14.654 31.010 7.277
3696 1 14.176 23.172 12.190
3697 1 2.736 -42.549 19.889
3698 1 5.267 -41.200 25.165
3699 1 4.088 -41.333 23.378
3700 1 23.137 58.683 39.670
3701 1 16.899 59.043 36.800
3702 1 24.966 63.589 37.811
3703 1 10.320 45.821 36.102
3704 1 8.530 31.945 29.268
3705 1 11.029 34.497 38.921
3706 1 34.206 8.271 23.235
3707 1 35.575 7.242 9.489
3708 1 34.455 11.476 16.109
3709 1 26.949 35.560 -32.888
3710 1 28.454 40.118 -33.376
3711 1 24.857 41.647 -44.160
3712 1 65.368 56.393 70.990
3713 1 64.903 60.163 62.802
3714 1 61.120 57.976 59.287
3715 1 18.904 25.321 35.197
3716 1 14.154 26.827 26.574
3717 1 15.806 25.277 28.956
3718 1 43.187 -3.134 38.994
3719 1 47.043 -5.454 31.114
3720 1 45.284 6.345 35.475
3721 1 24.800 37.945 52.979
3722 1 25.360 35.917 54.250
3723 1 25.958 27.357 60.946
3724 1 10.307 22.680 -4.918
3725 1 9.546 22.464 -5.970
3726 1 9.839 21.315 -7.208
3727 1 -1.729 72.654 40.741
3728 1 -0.390 72.029 49.960
3729 1 -2.578 79.282 36.394
3730 1 -15.273 72.247 28.516
3731 1 -19.141 64.542 27.042
3732 1 -20.740 65.201 33.467
3733 1 -4.654 1.307 33.410
3734 1 -11.332 -3.167 25.629
3735 1 -11.213 0.361 33.706
3736 1 -6.740 31.534 61.070
3737 1 -8.607 36.500 56.193
3738 1 -16.731 32.255 62.877
3739 1 10.807 68.300 25.451
3740 1 14.359 66.809 21.219
3741 1 14.660 72.304 21.353
3742 1 -36.540 11.090 0.483
3743 1 -36.492 13.672 3.281
3744 1 -29.847 7.055 4.067
3745 1 -0.510 62.921 25.287
3746 1 -0.396 71.848 17.156
3747 1 -4.683 66.890 31.404
3748 1 14.711 25.763 31.771
3749 1 13.121 36.340 29.425
3750 1 10.798 30.395 32.730
3751 1 30.759 24.584 -0.675
3752 1 27.423 27.287 3.331
3753 1 33.050 30.161 13.731
3754 1 15.747 37.666 -21.605
3755 1 22.700 29.522 -15.317
3756 1 22.764 37.864 -17.450
3757 1 4.526 11.165 88.617
3758 1 4.038 14.137 91.987
3759 1 9.215 8.436 91.965
3760 1 2.618 14.356 20.026
3761 1 -0.068 15.389 21.145
3762 1 7.787 17.044 12.833
3763 1 31.947 55.135 87.343
3764 1 31.726 53.945 85.607
3765 1 30.373 56.854 89.966
3766 1 7.082 28.387 38.184
3767 1 6.108 27.197 40.904
3768 1 5.530 19.841 37.589
3769 1 -5.340 45.686 -31.613
3770 1 -2.270 49.103 -8.428
3771 1 -6.569 46.789 -19.659
3772 1 -15.646 72.909 34.836
3773 1 -17.845 72.159 36.415
3774 1 -14.632 72.583 43.517
3775 1 20.586 42.616 38.896
3776 1 13.873 43.380 42.507
3777 1 18.907 42.227 35.035
3778 1 -2.558 91.597 18.213
3779 1 -3.754 90.801 16.325
3780 1 -5.706 92.351 22.520
3781 1 26.587 63.577 50.537
3782 1 26.742 70.525 48.388
3783 1 27.628 69.940 53.895
3784 1 -28.500 -0.239 25.630
3785 1 -31.590 1.473 21.159
3786 1 -26.362 3.286 16.930
3787 1 14.654 20.611 6.178
3788 1 19.802 14.357 13.602
3789 1 15.870 13.138 11.452
3790 1 17.267 36.060 52.414
3791 1 24.560 31.801 60.172
3792 1 14.796 31.756 56.112
3793 1 12.196 43.150 23.177
3794 1 12.969 45.431 12.798
3795 1 8.257 49.579 10.382
3796 1 44.880 16.195 26.357
3797 1 48.437 11.215 28.524
3798 1 50.632 6.899 24.128
3799 1 48.490 39.652 51.774
3800 1 51.262 34.450 57.114
3801 1 45.696 38.206 52.898
3802 1 -1.372 6.865 24.623
3803 1 0.374 11.176 21.622
3804 1 -7.481 11.147 19.426
3805 1 3.765 27.418 43.702
3806 1 -1.429 27.302 45.946
3807 1 3.530 28.116 48.828
3808 1 25.671 -13.157 44.709
3809 1 19.397 -12.535 42.005
3810 1 17.400 -15.888 43.774
3811 1 -30.856 -14.817 23.947
3812 1 -27.633 -16.451 23.032
3813 1 -34.570 -11.169 26.648
3814 1 40.252 42.391 4.549
3815 1 41.067 40.179 12.430
3816 1 37.071 41.464 14.432
3817 1 32.722 21.677 33.179
3818 1 35.262 22.350 34.118
3819 1 27.851 26.441 39.300
3820 1 30.380 33.822 50.464
3821 1 28.174 30.411 58.842
3822 1 28.790 33.134 44.068
3823 1 -11.839 12.016 31.045
3824 1 -8.155 20.323 23.625
3825 1 -7.396 14.851 34.084
3826 1 42.838 50.522 24.048
3827 1 44.361 56.334 24.479
3828 1 41.020 56.091 23.418
3829 1 25.139 6.241 25.811
3830 1 26.655 3.901 10.798
3831 1 26.421 10.473 7.347
3832 1 16.094 44.762 37.895
3833 1 16.130 49.875 27.269
3834 1 11.824 54.546 42.309
3835 1 47.638 32.951 51.162
3836 1 38.419 33.920 46.596
3837 1 41.867 26.439 42.723
3838 1 53.084 28.649 24.979
3839 1 53.549 22.128 17.112
3840 1 48.638 32.086 27.407
3841 1 11.950 2.981 80.784
3842 1 15.187 6.056 83.451
3843 1 7.216 1.210 86.285
3844 1 15.093 -14.204 62.744
3845 1 26.858 -9.548 67.702
3846 1 26.398 -7.547 66.857
3847 1 14.046 42.649 30.275
3848 1 14.451 38.733 38.312
3849 1 14.370 40.849 37.403
3850 1 -22.378 14.952 51.730
3851 1 -19.991 6.931 53.804
3852 1 -17.267 7.967 55.901
3853 1 -15.154 9.870 5.724
3854 1 -8.428 12.086 3.624
3855 1 -11.411 16.098 8.719
3856 1 7.554 -13.947 48.314
3857 1 1.030 -23.684 51.517
3858 1 6.659 -14.787 50.228
3859 1 35.137 25.184 58.450
3860 1 24.881 19.095 49.753
3861 1 34.305 32.971 53.853
3862 1 11.074 37.928 69.148
3863 1 14.149 34.079 73.777
3864 1 14.048 39.856 73.643
3865 1 35.121 -6.462 49.591
3866 1 35.477 -9.308 40.567
3867 1 33.708 -4.142 43.582
3868 1 16.740 -9.843 20.274
3869 1 17.599 -3.642 33.425
3870 1 19.513 -4.733 35.005
3871 1 50.269 1.819 66.384
3872 1 47.978 3.011 54.033
3873 1 46.819 5.766 58.566
3874 1 18.911 -1.020 54.401
3875 1 24.397 -7.831 52.485
3876 1 19.564 -7.479 50.791
3877 1 62.393 14.340 77.104
3878 1 69.659 10.079 77.199
3879 1 70.463 9.019 73.176
3880 1 -10.026 20.744 55.121
3881 1 -6.136 18.207 48.995
3882 1 -7.999 20.623 51.912
3883 1 -8.992 18.269 20.519
3884 1 -17.154 19.993 29.598
3885 1 -14.856 24.531 29.637
3886 1 3.175 10.525 6.158
3887 1 6.477 3.363 10.742
3888 1 -1.588 9.878 11.101
3889 1 -33.435 11.176 49.595
3890 1 -33.535 9.371 45.193
3891 1 -29.034 13.370 51.003
3892 1 -3.189 69.063 -3.146
3893 1 2.787 67.135 -1.715
3894 1 -2.464 65.007 4.100
3895 1 3.105 -8.199 31.846
3896 1 -1.082 -13.511 35.080
3897 1 -1.787 -10.460 29.788
3898 1 27.751 -2.495 45.196
3899 1 24.911 -10.020 30.343
3900 1 26.099 -2.808 41.238
3901 1 77.016 26.563 6.265
3902 1 74.385 32.231 -4.672
3903 1 72.706 34.856 -3.826
3904 1 3.563 -27.436 -22.234
3905 1 0.745 -22.705 -36.359
3906 1 3.824 -28.467 -20.098
3907 1 23.045 52.862 2.889
3908 1 28.337 48.203 5.010
3909 1 26.676 45.139 6.509
3910 1 42.088 31.265 34.721
3911 1 39.411 24.183 30.642
3912 1 33.219 31.651 31.747
3913 1 22.645 -18.544 6.666
3914 1 16.422 -23.807 14.002
3915 1 14.857 -25.093 6.568
3916 1 78.027 -0.570 17.722
3917 1 67.618 1.608 33.064
3918 1 74.014 -0.985 24.445
3919 1 -0.271 -49.791 38.331
3920 1 -3.437 -47.844 36.382
3921 1 5.626 -41.832 42.855
3922 1 -22.682 14.571 17.435
3923 1 -16.436 14.852 28.822
3924 1 -18.826 17.670 26.375
3925 1 33.457 58.338 6.983
3926 1 36.895 67.090 0.569
3927 1 36.706 62.236 3.487
3928 1 2.061 6.219 54.327
3929 1 0.075 -1.111 50.231
3930 1 -3.857 1.759 50.663
3931 1 42.908 41.206 46.806
3932 1 42.466 37.974 42.927
3933 1 34.766 36.924 45.548
3934 1 33.769 8.647 63.895
3935 1 40.654 10.212 62.177
3936 1 40.004 16.324 61.311
3937 1 -1.662 29.748 16.733
3938 1 1.723 30.937 16.133
3939 1 -1.012 29.075 17.352
3940 1 51.443 7.314 78.379
3941 1 49.938 1.281 79.205
3942 1 51.837 3.738 84.379
3943 1 55.585 -43.824 2.099
3944 1 52.929 -30.463 -4.037
3945 1 53.449 -34.480 1.239
3946 1 71.764 20.308 51.855
3947 1 65.123 17.891 52.320
3948 1 64.824 10.735 48.501
3949 1 49.477 39.430 55.830
3950 1 54.731 28.757 56.344
3951 1 51.662 35.774 66.331
3952 1 46.556 -59.818 -1.268
3953 1 53.234 -54.613 5.320
3954 1 47.202 -59.695 -1.188
3955 1 54.422 13.006 57.752
3956 1 55.455 23.149 55.441
3957 1 55.322 19.824 56.841
3958 1 46.115 8.518 -19.327
3959 1 46.412 5.413 -23.752
3960 1 38.932 -0.220 -16.758
3961 1 -32.125 29.571 48.223
3962 1 -38.597 24.912 39.417
3963 1 -39.381 29.351 52.004
3964 1 -11.144 24.141 28.477
3965 1 -16.217 30.632 31.202
3966 1 -13.606 30.708 26.533
3967 1 13.609 3.467 69.502
3968 1 14.910 13.461 73.517
3969 1 10.438 8.403 68.807
3970 1 41.349 29.604 44.843
3971 1 42.527 27.671 48.551
3972 1 33.834 18.538 38.563
3973 1 59.256 -22.174 26.758
3974 1 56.994 -19.929 24.397
3975 1 54.751 -20.106 20.511
3976 1 1.834 14.720 67.152
3977 1 7.366 10.570 69.219
3978 1 11.306 7.317 74.420
3979 1 31.330 -13.406 27.257
3980 1 30.068 -6.640 23.773
3981 1 38.838 -9.037 24.692
3982 1 23.703 -11.190 48.281
3983 1 24.630 -12.119 44.369
3984 1 24.718 -13.650 38.578
3985 1 39.592 59.149 -6.222
3986 1 37.411 50.548 -3.943
3987 1 42.279 52.315 -6.413
3988 1 34.905 51.513 33.746
3989 1 36.218 59.469 33.385
3990 1 30.775 52.156 34.845
3991 1 28.124 -3.833 51.977
3992 1 31.509 -10.332 39.751
3993 1 31.929 -11.840 43.409
3994 1 23.080 21.220 39.516
3995 1 20.791 25.841 37.506
3996 1 25.305 29.108 37.173
3997 1 29.198 96.358 -2.290
3998 1 33.500 83.872 7.127
3999 1 27.580 88.487 1.104
4000 1 11.776 26.840 50.109
4001 1 2.833 15.212 56.144
4002 1 6.241 28.043 41.872
4003 1 16.699 -0.331 43.970
4004 1 20.724 -7.464 46.922
4005 1 22.007 5.521 33.814
4006 1 61.617 -11.573 81.806
4007 1 58.801 -17.263 91.048
4008 1 60.595 -7.311 87.983
4009 1 56.051 45.216 17.234
4010 1 50.719 45.286 22.475
4011 1 51.407 42.958 19.391
4012 1 -4.377 3.387 31.965
4013 1 -4.567 7.404 41.540
4014 1 -5.695 6.104 39.926
4015 1 11.610 37.059 63.926
4016 1 4.873 48.540 62.699
4017 1 7.221 47.433 56.765
4018 1 49.430 50.215 39.066
4019 1 42.306 52.734 43.775
4020 1 47.670 53.142 39.654
4021 1 36.893 -10.711 59.152
4022 1 39.754 -17.308 58.195
4023 1 36.797 -18.328 68.496
4024 1 12.211 13.461 45.526
4025 1 11.881 5.811 41.786
4026 1 13.877 15.414 48.202
4027 1 60.645 -3.741 12.930
4028 1 58.432 -4.932 16.722
4029 1 62.977 -2.680 6.761
4030 1 -2.250 82.144 -20.024
4031 1 3.753 79.547 -14.233
4032 1 6.030 80.582 -23.587
4033 1 3.064 36.790 34.728
4034 1 -5.887 45.046 35.676
4035 1 -0.048 34.849 25.965
4036 1 10.527 21.680 20.886
4037 1 16.967 4.155 25.032
4038 1 14.890 14.013 23.785
4039 1 54.770 -18.457 28.444
4040 1 53.583 -15.077 36.560
4041 1 53.300 -17.791 36.660
4042 1 33.619 29.432 53.789
4043 1 37.419 21.026 49.504
4044 1 36.718 22.147 57.036
4045 1 -37.303 17.792 44.252
4046 1 -29.978 14.529 41.299
4047 1 -36.226 16.887 48.265
4048 1 34.106 59.937 56.437
4049 1 25.522 53.716 58.369
4050 1 33.608 63.160 51.847
4051 1 -6.548 15.587 12.636
4052 1 -7.141 16.979 -2.998
4053 1 -13.356 24.836 8.782
4054 1 12.392 14.660 74.014
4055 1 7.790 9.513 68.634
4056 1 14.912 14.159 66.914
4057 1 36.337 -23.306 50.909
4058 1 41.028 -28.472 59.203
4059 1 31.397 -29.157 48.997
4060 1 54.049 14.670 14.900
4061 1 66.231 -1.391 12.341
4062 1 60.734 4.751 8.614
4063 1 28.495 25.818 23.692
4064 1 33.394 27.570 23.764
4065 1 28.880 25.879 26.157
4066 1 61.624 2.932 31.359
4067 1 66.401 0.757 27.290
4068 1 63.173 0.252 22.832
4069 1 26.663 68.460 44.366
4070 1 27.175 57.333 35.979
4071 1 31.121 56.245 45.782
4072 1 2.261 13.771 -5.078
4073 1 3.847 21.146 3.311
4074 1 3.167 17.869 0.493
4075 1 52.141 32.743 12.076
4076 1 57.966 44.729 10.586
4077 1 52.870 37.416 18.803
4078 1 -1.680 17.984 22.759
4079 1 6.216 24.543 23.472
4080 1 1.490 26.129 22.741
4081 1 6.585 49.809 63.192
4082 1 7.750 33.901 51.410
4083 1 8.458 35.347 55.900
4084 1 0.417 32.862 40.301
4085 1 5.414 37.786 46.204
4086 1 7.899 45.715 38.717
4087 1 -11.065 41.923 3.752
4088 1 -13.336 46.629 10.666
4089 1 -6.897 45.986 12.071
4090 1 -26.359 45.239 52.169
4091 1 -28.380 53.207 59.397
4092 1 -32.588 48.212 58.082
4093 1 25.729 34.302 -7.310
4094 1 26.812 27.240 -9.691
4095 1 18.068 34.922 -5.072
4096 1 23.802 12.304 10.962
4097 1 16.430 14.985 7.381
4098 1 16.158 16.862 9.386
4099 1 19.488 50.604 41.566
4100 1 11.890 65.500 35.339
4101 1 7.664 55.621 38.305
4102 1 21.848 24.265 -3.753
4103 1 20.277 29.809 -3.604
4104 1 18.788 28.231 8.475
4105 1 28.170 -12.019 31.253
4106 1 25.348 -6.414 28.626
4107 1 29.972 -10.629 24.700
4108 1 32.311 38.704 70.790
4109 1 39.504 38.832 71.845
4110 1 36.896 42.397 82.075
4111 1 23.599 -13.715 17.694
4112 1 16.258 -12.847 25.204
4113 1 15.071 -19.487 21.505
4114 1 29.141 33.873 43.091
4115 1 25.707 42.213 47.815
4116 1 27.622 42.313 50.564
4117 1 -42.730 28.952 47.120
4118 1 -36.623 31.941 51.675
4119 1 -39.377 25.073 45.334
4120 1 7.350 69.241 57.850
4121 1 11.031 72.193 51.199
4122 1 5.774 67.376 50.706
4123 1 0.966 56.983 10.644
4124 1 -1.363 64.598 10.260
4125 1 0.381 67.828 18.896
4126 1 27.834 30.510 25.967
4127 1 29.339 34.194 22.761
4128 1 26.122 31.617 25.143
4129 1 12.556 3.675 50.708
4130 1 18.212 6.631 51.066
4131 1 11.913 6.120 45.793
4132 1 12.124 39.857 8.255
4133 1 7.209 46.640 12.108
4134 1 15.342 44.612 12.584
4135 1 11.289 28.524 53.075
4136 1 18.437 30.873 56.237
4137 1 15.826 25.729 54.449
4138 1 0.005 44.243 7.126
4139 1 -3.889 34.365 -5.365
4140 1 -8.986 36.617 5.169
4141 1 34.224 19.848 30.504
4142 1 37.500 24.482 36.034
4143 1 39.852 22.790 30.837
4144 1 -11.742 45.147 39.339
4145 1 -11.334 45.847 38.694
4146 1 -10.149 51.379 36.617
4147 1 30.147 57.149 19.166
4148 1 29.752 44.797 26.820
4149 1 28.240 53.747 16.390
4150 1 14.818 17.695 4.427
4151 1 13.160 16.826 -0.731
4152 1 14.760 15.865 1.227
4153 1 9.836 81.188 58.048
4154 1 5.252 70.801 72.149
4155 1 12.082 75.526 52.520
4156 1 -33.020 17.303 40.689
4157 1 -26.741 15.801 39.404
4158 1 -26.806 18.568 41.470
4159 1 15.769 10.303 20.798
4160 1 11.802 11.685 22.249
4161 1 15.986 12.605 23.955
4162 1 -22.317 20.465 31.208
4163 1 -11.896 29.286 27.972
4164 1 -14.145 25.684 25.424
4165 1 34.302 39.967 34.045
4166 1 38.160 44.922 36.501
4167 1 40.717 40.425 31.850
4168 1 9.279 71.150 -0.870
4169 1 9.313 69.235 -6.011
4170 1 9.914 69.865 -8.955
4171 1 31.715 42.393 64.320
4172 1 38.582 45.792 74.788
4173 1 38.312 48.498 64.701
4174 1 2.958 16.352 46.070
4175 1 3.625 16.120 45.084
4176 1 7.988 20.186 46.209
4177 1 13.637 35.305 31.795
4178 1 10.725 39.596 31.816
4179 1 8.768 36.167 33.741
4180 1 32.217 32.289 70.890
4181 1 32.750 33.142 72.551
4182 1 34.203 36.719 73.942
4183 1 -0.457 41.018 51.182
4184 1 3.756 40.277 48.994
4185 1 -0.312 34.092 47.274
4186 1 37.206 13.518 -1.716
4187 1 44.463 14.201 -1.237
4188 1 44.193 10.616 1.575
4189 1 5.823 13.045 45.505
4190 1 1.727 15.675 47.380
4191 1 0.325 11.314 48.905
4192 1 54.847 28.634 31.948
4193 1 58.763 29.755 27.661
4194 1 60.735 24.863 34.842
4195 1 9.180 60.346 27.170
4196 1 9.401 60.560 27.968
4197 1 11.497 64.146 31.263
4198 1 -38.656 3.288 26.680
4199 1 -27.876 8.180 34.387
4200 1 -28.520 -1.206 31.401
4201 1 -0.058 0.590 -3.520
4202 1 -3.291 -3.226 -0.616
4203 1 3.248 -0.512 -8.453
4204 1 -3.593 11.902 70.878
4205 1 -0.691 8.292 70.190
4206 1 -6.907 13.974 75.886
4207 1 34.259 75.643 49.827
4208 1 37.025 66.166 51.582
4209 1 33.582 70.340 52.836
4210 1 4.689 55.724 60.963
4211 1 9.697 54.342 51.955
4212 1 5.749 52.779 58.654
4213 1 53.782 44.043 49.684
4214 1 48.365 45.349 45.510
4215 1 51.507 35.470 36.571
4216 1 19.587 12.355 26.897
4217 1 21.909 19.115 18.797
4218 1 25.079 20.503 28.638
4219 1 41.139 43.789 22.310
4220 1 36.471 45.587 24.435
4221 1 39.322 43.109 26.191
4222 1 12.550 60.877 30.932
4223 1 8.415 59.065 26.200
4224 1 6.077 60.546 22.955
4225 1 -20.186 64.607 4.817
4226 1 -21.792 66.234 0.928
4227 1 -18.008 67.381 -0.243
4228 1 78.008 27.372 44.115
4229 1 72.605 36.169 39.657
4230 1 70.199 36.025 49.158
4231 1 36.219 0.990 17.517
4232 1 37.191 -0.012 8.864
4233 1 40.969 -0.979 15.499
4234 1 -29.472 -26.457 30.870
4235 1 -28.746 -31.613 30.573
4236 1 -24.243 -24.738 27.088
4237 1 31.610 -33.319 64.533
4238 1 30.877 -42.046 65.503
4239 1 29.556 -39.055 76.158
4240 1 -1.188 -7.107 56.353
4241 1 0.706 -3.336 49.862
4242 1 -1.285 -6.813 51.428
4243 1 43.027 34.744 -3.169
4244 1 40.282 29.474 1.164
4245 1 41.871 30.051 0.750
4246 1 -25.126 -21.763 14.989
4247 1 -27.474 -19.642 26.479
4248 1 -24.290 -31.227 15.808
4249 1 13.602 15.209 88.901
4250 1 10.822 13.612 86.301
4251 1 12.025 5.600 89.892
4252 1 37.702 -44.118 6.518
4253 1 37.867 -37.355 -0.744
4254 1 41.086 -43.354 4.442
4255 1 -3.395 -18.536 -6.827
4256 1 -6.990 -8.076 -3.397
4257 1 -5.753 -16.402 0.813
4258 1 56.559 -42.014 67.970
4259 1 53.315 -48.661 72.080
4260 1 58.377 -43.256 66.655
4261 1 7.500 15.908 51.444
4262 1 2.934 15.523 53.170
4263 1 1.863 15.767 56.455
4264 1 6.479 -7.678 62.682
4265 1 12.752 -16.393 67.711
4266 1 9.227 -15.425 60.855
4267 1 12.698 8.889 36.342
4268 1 7.215 10.859 24.187
4269 1 18.303 2.593 36.097
4270 1 23.739 5.643 55.231
4271 1 21.148 8.242 54.396
4272 1 17.707 14.886 52.051
4273 1 36.383 26.598 39.562
4274 1 33.564 28.301 44.803
4275 1 34.291 13.784 46.342
4276 1 10.816 66.340 51.552
4277 1 7.090 60.530 54.545
4278 1 6.485 57.750 60.528
4279 1 -22.309 -32.315 15.621
4280 1 -20.519 -33.925 24.034
4281 1 -19.558 -40.717 16.022
4282 1 -12.341 35.204 55.791
4283 1 -12.168 32.739 49.552
4284 1 -9.200 34.226 48.476
4285 1 7.576 49.528 33.640
4286 1 5.000 44.261 24.598
4287 1 5.711 41.434 32.434
4288 1 1.524 46.420 47.619
4289 1 3.824 54.174 50.621
4290 1 10.106 54.608 42.937
4291 1 42.007 9.833 35.192
4292 1 47.912 15.274 36.174
4293 1 42.354 14.281 34.836
4294 1 8.892 0.952 63.546
4295 1 14.224 -3.669 69.704
4296 1 5.134 2.018 74.445
4297 1 14.851 -17.745 65.963
4298 1 18.555 -16.264 63.202
4299 1 20.525 -23.859 69.844
4300 1 26.642 -10.464 42.486
4301 1 24.018 -7.821 43.197
4302 1 27.980 -6.775 46.585
4303 1 63.771 -12.667 30.683
4304 1 53.630 -12.291 38.717
4305 1 57.698 -9.425 39.342
4306 1 52.213 68.191 38.026
4307 1 48.833 78.522 37.529
4308 1 51.607 63.359 36.039
4309 1 67.547 -7.587 14.107
4310 1 69.073 -11.964 14.169
4311 1 70.255 -13.847 -0.192
4312 1 10.648 43.445 33.200
4313 1 7.412 45.663 41.223
4314 1 6.502 40.452 41.970
4315 1 9.573 22.727 15.073
4316 1 12.782 20.913 20.852
4317 1 11.988 17.803 23.019
4318 1 -33.383 2.008 56.430
4319 1 -27.433 -1.459 54.691
4320 1 -30.502 4.843 48.405
4321 1 -16.939 8.748 14.852
4322 1 -16.940 16.880 5.799
4323 1 -18.550 6.126 8.602
4324 1 24.027 35.227 47.376
4325 1 25.334 41.221 58.784
4326 1 22.978 41.169 65.361
4327 1 12.864 -20.931 41.584
4328 1 15.342 -18.234 38.821
4329 1 19.869 -18.386 27.945
4330 1 13.419 -19.922 45.443
4331 1 20.907 -18.494 50.230
4332 1 12.559 -22.355 36.291
4333 1 49.850 4.310 43.312
4334 1 50.894 -3.896 46.597
4335 1 47.234 4.727 49.583
4336 1 45.162 41.615 41.918
4337 1 37.511 34.825 40.844
4338 1 46.679 36.890 37.144
4339 1 30.173 -24.696 46.579
4340 1 29.174 -23.976 56.103
4341 1 31.060 -24.220 58.832
4342 1 65.773 42.113 31.563
4343 1 64.056 37.070 28.425
4344 1 71.343 41.699 24.781
4345 1 10.268 8.740 91.516
4346 1 8.017 3.988 81.436
4347 1 13.595 1.913 75.429
4348 1 31.783 31.926 5.731
4349 1 22.278 31.016 5.109
4350 1 32.625 36.823 0.770
4351 1 -17.976 24.560 -6.064
4352 1 -21.954 7.730 -8.357
4353 1 -19.123 12.863 -8.447
4354 1 7.379 -53.298 61.231
4355 1 10.939 -48.734 62.376
4356 1 6.455 -50.496 59.149
4357 1 -35.807 82.209 44.855
4358 1 -38.671 82.975 46.014
4359 1 -31.376 82.244 48.465
4360 1 30.742 -44.629 66.281
4361 1 40.177 -43.954 75.026
4362 1 36.309 -43.152 71.420
4363 1 -27.114 -13.461 58.532
4364 1 -32.493 -12.163 47.371
4365 1 -28.880 -13.585 50.979
4366 1 -5.201 19.344 8.771
4367 1 -4.286 22.878 6.234
4368 1 2.702 12.738 13.114
4369 1 8.476 47.973 -2.709
4370 1 12.575 45.675 -4.103
4371 1 10.197 48.939 -8.723
4372 1 60.150 -10.335 53.385
4373 1 54.882 -10.223 47.478
4374 1 57.349 -18.262 39.235
4375 1 9.584 2.775 68.027
4376 1 1.319 2.682 66.098
4377 1 9.768 -1.535 60.937
4378 1 21.197 9.169 45.173
4379 1 24.647 13.005 49.290
4380 1 19.471 11.005 58.496
4381 1 7.732 14.116 79.236
4382 1 13.909 19.454 81.329
4383 1 9.135 11.981 90.405
4384 1 31.203 -12.574 41.790
4385 1 29.691 -14.714 51.603
4386 1 25.913 -10.537 44.275
4387 1 -24.184 18.795 31.448
4388 1 -16.697 7.051 30.699
4389 1 -20.826 13.698 30.274
4390 1 44.593 60.182 -2.914
4391 1 36.258 61.710 1.110
4392 1 35.155 57.908 1.371
4393 1 -7.241 24.643 56.760
4394 1 -6.378 31.763 43.500
4395 1 -1.711 27.992 43.317
4396 1 53.415 19.970 22.963
4397 1 49.789 20.602 21.855
4398 1 49.652 15.110 26.760
4399 1 62.740 7.095 39.630
4400 1 64.443 7.208 39.151
4401 1 62.786 3.383 32.918
4402 1 52.841 -13.201 32.682
4403 1 50.829 -21.598 38.373
4404 1 53.318 -25.698 32.692
4405 1 75.986 -27.939 48.679
4406 1 76.733 -26.966 44.964
4407 1 73.402 -35.938 59.407
4408 1 -16.262 35.833 54.806
4409 1 -22.907 37.250 47.725
4410 1 -22.116 35.281 45.212
4411 1 -57.354 -8.447 41.368
4412 1 -51.364 -8.562 36.258
4413 1 -52.224 1.328 38.493
4414 1 -9.743 81.885 75.649
4415 1 -13.322 85.151 76.110
4416 1 -12.287 84.621 79.582
4417 1 -0.939 30.399 74.375
4418 1 -3.093 32.806 74.096
4419 1 -0.141 32.870 78.653
4420 1 60.950 56.980 57.693
4421 1 61.380 46.094 60.868
4422 1 66.232 47.752 53.015
4423 1 66.245 14.274 52.362
4424 1 73.148 15.371 57.971
4425 1 76.258 17.102 53.181
4426 1 -6.102 37.023 63.342
4427 1 -5.593 38.681 53.622
4428 1 -5.912 43.588 56.272
4429 1 -20.456 21.863 15.096
4430 1 -14.428 22.242 12.889
4431 1 -18.118 28.163 7.708
4432 1 16.363 24.488 27.059
4433 1 24.747 23.119 32.948
4434 1 18.767 30.508 34.541
4435 1 27.190 -15.112 41.948
4436 1 23.842 -20.501 47.839
4437 1 19.112 -13.226 40.957
4438 1 49.363 -2.728 57.289
4439 1 44.537 -14.388 69.858
4440 1 50.130 -8.051 61.685
4441 1 67.539 -18.812 38.129
4442 1 77.307 -18.450 43.748
4443 1 74.273 -14.767 46.125
4444 1 20.735 56.211 62.430
4445 1 21.985 58.532 62.840
4446 1 23.000 64.747 69.344
4447 1 43.411 18.975 -10.213
4448 1 52.915 26.206 -4.936
4449 1 46.474 25.251 -16.547
4450 1 -10.703 -1.788 27.646
4451 1 3.910 8.088 33.467
4452 1 -2.636 -2.608 32.738
4453 1 28.200 10.505 30.445
4454 1 31.438 13.162 34.018
4455 1 35.832 11.061 34.452
4456 1 28.987 -26.456 31.759
4457 1 36.498 -25.090 32.955
4458 1 33.094 -33.606 26.456
4459 1 22.886 27.066 42.360
4460 1 23.069 28.231 43.382
4461 1 23.638 19.842 40.173
4462 1 2.219 15.678 7.052
4463 1 -3.238 15.005 12.899
4464 1 -10.511 12.661 7.467
4465 1 49.444 39.568 29.541
4466 1 44.807 34.312 27.924
4467 1 48.483 38.244 30.210
4468 1 13.045 75.602 4.792
4469 1 15.502 81.669 -4.860
4470 1 15.888 82.573 5.665
4471 1 -13.487 -23.196 38.623
4472 1 -14.630 -21.631 42.265
4473 1 -15.687 -17.604 41.431
4474 1 44.361 19.015 15.420
4475 1 45.477 16.400 16.080
4476 1 42.673 22.930 10.159
4477 1 -23.574 29.336 40.453
4478 1 -25.223 33.633 39.387
4479 1 -28.308 41.859 42.853
4480 1 30.242 -13.865 73.431
4481 1 43.004 -8.315 72.158
4482 1 34.683 -15.877 62.864
4483 1 56.302 49.309 34.296
4484 1 52.474 52.100 32.301
4485 1 53.920 50.208 25.251
4486 1 25.404 -2.492 -9.257
4487 1 21.738 -4.092 -5.630
4488 1 23.046 -4.412 -1.415
4489 1 -25.641 48.017 1.111
4490 1 -28.528 47.556 9.656
4491 1 -22.254 47.957 -1.042
4492 1 35.431 -24.507 24.215
4493 1 33.183 -31.875 28.464
4494 1 33.698 -31.314 23.790
4495 1 -19.698 18.324 41.333
4496 1 -19.092 14.403 36.370
4497 1 -22.651 9.754 30.631
4498 1 22.462 -4.861 82.588
4499 1 28.896 -4.331 87.217
4500 1 27.660 -6.748 82.774
4501 1 10.084 -1.654 45.900
4502 1 11.061 -1.081 55.796
4503 1 14.801 -6.475 41.559
4504 1 17.417 28.207 32.301
4505 1 17.428 33.964 27.050
4506 1 14.291 31.916 39.449
4507 1 19.904 61.742 40.672
4508 1 17.736 72.998 42.954
4509 1 18.275 62.088 37.369
4510 1 29.985 65.426 61.446
4511 1 27.505 66.380 61.384
4512 1 33.092 51.138 62.032
4513 1 36.308 6.645 80.727
4514 1 35.278 -6.287 77.706
4515 1 30.441 -7.311 76.391
4516 1 2.109 56.148 57.570
4517 1 8.230 55.574 57.262
4518 1 4.557 54.348 54.454
4519 1 11.543 0.404 24.741
4520 1 9.817 -0.206 28.892
4521 1 14.081 8.910 22.288
4522 1 18.226 39.360 35.321
4523 1 22.412 44.780 41.106
4524 1 22.375 34.420 40.603
4525 1 9.959 59.546 20.775
4526 1 10.071 73.179 9.217
4527 1 5.009 70.720 7.474
4528 1 42.581 -27.560 35.983
4529 1 45.278 -15.129 33.934
4530 1 42.173 -29.344 37.109
4531 1 4.862 7.242 9.289
4532 1 1.047 2.866 13.931
4533 1 0.417 10.096 8.684
4534 1 3.592 5.213 49.272
4535 1 4.703 14.907 43.536
4536 1 0.654 14.209 47.262
4537 1 1.709 1.929 81.580
4538 1 4.535 2.128 76.914
4539 1 3.810 8.517 85.010
4540 1 22.785 46.742 11.584
4541 1 12.958 41.271 6.869
4542 1 20.845 45.192 7.251
4543 1 55.133 -5.590 73.732
4544 1 57.077 -1.054 62.390
4545 1 54.993 -1.055 52.250
4546 1 79.722 -1.282 67.077
4547 1 72.687 5.072 68.906
4548 1 81.552 -8.020 68.319
4549 1 2.617 58.522 78.230
4550 1 10.609 59.803 88.249
4551 1 13.766 55.372 80.665
4552 1 33.822 32.611 102.111
4553 1 29.198 35.915 96.764
4554 1 31.871 26.371 92.029
4555 1 7.326 52.536 48.154
4556 1 9.853 57.193 43.385
4557 1 8.970 59.704 34.320
4558 1 32.588 18.771 14.333
4559 1 32.137 10.334 18.056
4560 1 30.194 22.816 14.256
4561 1 -28.392 18.065 37.203
4562 1 -19.203 19.155 37.652
4563 1 -20.304 19.304 34.278
4564 1 56.006 53.003 22.359
4565 1 58.719 57.891 24.457
4566 1 58.728 54.191 30.115
4567 1 4.275 20.280 29.948
4568 1 -2.130 18.621 30.119
4569 1 -1.154 23.778 20.924
4570 1 -7.215 30.672 82.183
4571 1 -0.926 26.187 77.748
4572 1 -2.143 30.163 72.817
4573 1 31.374 59.835 25.763
4574 1 27.659 58.877 29.552
4575 1 32.844 49.999 33.801
4576 1 20.916 24.720 35.407
4577 1 24.655 25.211 29.122
4578 1 19.151 29.024 28.645
4579 1 -20.922 62.305 43.159
4580 1 -19.077 60.522 47.290
4581 1 -20.036 58.941 43.672
4582 1 4.096 26.563 28.149
4583 1 2.500 28.694 11.505
4584 1 7.248 29.553 18.903
4585 1 35.539 -5.555 25.602
4586 1 42.048 -10.925 33.611
4587 1 40.236 -11.826 25.792
4588 1 21.774 -8.833 38.629
4589 1 20.616 -12.807 39.070
4590 1 23.992 -6.659 44.028
4591 1 24.732 64.264 27.865
4592 1 27.496 60.669 27.059
4593 1 28.492 60.364 23.487
4594 1 13.733 45.886 34.123
4595 1 11.545 40.587 40.429
4596 1 14.792 49.327 30.385
4597 1 13.360 42.233 52.337
4598 1 12.664 41.415 62.633
4599 1 14.230 44.974 55.980
4600 1 -6.301 41.476 41.305
4601 1 -1.510 35.279 35.374
4602 1 -6.885 39.949 35.595
4603 1 -21.314 15.974 78.434
4604 1 -11.841 24.516 71.858
4605 1 -15.848 19.385 81.224
4606 1 -15.724 35.781 47.349
4607 1 -10.730 34.973 50.513
4608 1 -16.315 33.471 39.935
4609 1 -0.646 78.144 32.305
4610 1 0.871 79.737 27.677
4611 1 -8.527 78.652 31.296
4612 1 20.997 44.210 35.330
4613 1 28.093 44.318 23.194
4614 1 25.053 42.237 18.322
4615 1 36.156 60.230 30.277
4616 1 38.814 68.318 31.669
4617 1 38.577 69.302 31.001
4618 1 38.551 84.586 33.584
4619 1 37.651 90.882 28.978
4620 1 39.032 86.202 37.953
4621 1 35.807 19.380 71.193
4622 1 41.907 21.502 72.839
4623 1 38.480 26.923 80.349
4624 1 43.604 85.367 40.012
4625 1 44.441 88.508 51.608
4626 1 40.366 84.051 43.868
4627 1 -13.571 63.746 22.297
4628 1 -17.380 72.602 20.692
4629 1 -14.780 72.177 16.120
4630 1 82.694 -7.380 48.756
4631 1 78.903 -12.440 41.499
4632 1 73.657 -8.490 39.509
4633 1 3.129 4.438 42.750
4634 1 7.917 -0.263 40.982
4635 1 8.793 6.508 46.959
4636 1 21.132 -9.506 18.366
4637 1 21.251 -16.858 20.291
4638 1 22.196 -5.854 28.919
4639 1 4.810 59.984 62.411
4640 1 6.382 58.890 70.130
4641 1 7.280 58.029 59.127
4642 1 11.754 -5.421 27.927
4643 1 13.879 4.229 33.763
4644 1 11.514 0.007 34.859
4645 1 26.217 36.704 31.442
4646 1 31.001 32.899 30.235
4647 1 28.348 34.622 35.345
4648 1 20.242 -10.129 61.365
4649 1 9.970 -9.620 59.573
4650 1 18.181 -14.670 57.044
4651 1 -53.263 -17.196 44.703
4652 1 -49.002 -15.806 35.286
4653 1 -53.066 -11.159 48.032
4654 1 -2.102 -14.586 28.183
4655 1 -0.697 -17.206 17.920
4656 1 2.021 -23.974 18.939
4657 1 17.656 23.983 42.934
4658 1 21.618 23.215 55.405
4659 1 15.742 17.686 50.466
4660 1 20.465 8.303 49.396
4661 1 16.684 -0.489 48.902
4662 1 19.700 5.796 49.384
4663 1 31.426 -34.136 35.222
4664 1 36.282 -30.638 25.058
4665 1 31.422 -29.059 34.781
4666 1 39.887 11.809 41.335
4667 1 41.345 16.927 39.994
4668 1 39.468 18.280 39.920
4669 1 25.332 18.521 54.187
4670 1 30.963 17.545 56.897
4671 1 28.001 18.150 52.646
4672 1 -9.576 25.505 27.083
4673 1 -14.298 22.244 23.325
4674 1 -8.478 19.935 23.317
4675 1 -23.867 16.435 51.709
4676 1 -27.525 21.971 52.360
4677 1 -24.007 18.198 47.624
4678 1 37.268 4.719 37.508
4679 1 40.358 -0.286 39.264
4680 1 37.210 0.722 37.917
4681 1 37.014 22.446 19.952
4682 1 34.586 12.974 20.965
4683 1 34.682 17.526 17.133
4684 1 -28.173 27.238 85.101
4685 1 -20.777 26.959 97.764
4686 1 -27.372 30.055 91.729
4687 1 -25.029 -0.227 48.874
4688 1 -23.900 -6.260 50.123
4689 1 -21.268 -2.952 49.011
4690 1 42.809 11.698 54.805
4691 1 40.279 15.903 59.061
4692 1 45.999 11.675 54.678
4693 1 -10.879 -25.903 -4.239
4694 1 -7.625 -27.857 -6.076
4695 1 -6.146 -30.351 0.700
4696 1 35.084 17.706 24.710
4697 1 35.164 21.323 24.218
4698 1 35.289 11.688 18.950
4699 1 20.456 -23.401 0.718
4700 1 20.021 -20.314 -6.211
4701 1 23.075 -22.589 -8.005
4702 1 48.059 13.728 21.077
4703 1 45.142 12.239 15.196
4704 1 52.147 19.295 20.594
4705 1 53.169 -40.491 16.418
4706 1 52.366 -39.535 4.583
4707 1 53.185 -32.804 3.504
4708 1 57.724 -23.260 41.787
4709 1 59.848 -33.238 39.275
4710 1 58.304 -30.590 41.155
4711 1 -5.619 -5.713 46.541
4712 1 -7.897 0.704 49.809
4713 1 -9.719 1.637 51.844
4714 1 20.707 -27.101 39.291
4715 1 20.540 -25.737 44.268
4716 1 17.987 -19.397 31.658
4717 1 -16.840 1.482 89.869
4718 1 -20.693 -0.141 98.368
4719 1 -22.285 3.019 95.877
4720 1 25.146 38.729 53.798
4721 1 20.452 30.696 48.261
4722 1 23.599 29.883 45.992
4723 1 4.820 36.957 41.895
4724 1 9.167 40.857 41.938
4725 1 12.324 37.367 46.465
4726 1 42.331 6.524 21.569
4727 1 43.415 15.532 19.363
4728 1 37.383 14.912 24.535
4729 1 -21.202 67.967 43.590
4730 1 -15.743 58.037 48.440
4731 1 -22.970 62.967 50.514
4732 1 18.915 -5.838 8.621
4733 1 16.590 -4.670 8.281
4734 1 17.019 -2.454 19.570
4735 1 21.864 -16.013 19.720
4736 1 14.842 -13.066 21.069
4737 1 18.126 -12.440 23.823
4738 1 5.437 -0.165 27.880
4739 1 11.481 -4.489 31.404
4740 1 3.849 0.426 29.481
4741 1 37.889 -15.705 95.354
4742 1 35.255 -9.878 94.663
4743 1 31.084 -18.189 95.573
4744 1 47.546 1.299 43.352
4745 1 51.872 3.805 43.758
4746 1 52.952 3.603 57.275
4747 1 39.146 -11.349 56.402
4748 1 36.678 -16.836 59.963
4749 1 37.834 -14.220 57.373
4750 1 -49.111 11.269 45.503
4751 1 -39.955 5.611 43.153
4752 1 -43.079 11.440 43.894
4753 1 3.372 37.572 32.103
4754 1 -1.987 40.797 35.436
4755 1 -0.742 55.981 38.802
4756 1 2.954 21.114 29.872
4757 1 -0.037 20.140 27.415
4758 1 2.117 17.679 30.303
4759 1 37.267 43.611 -6.558
4760 1 35.804 36.255 -6.560
4761 1 35.158 37.939 -4.157
4762 1 47.631 -28.885 28.419
4763 1 37.727 -32.616 24.520
4764 1 42.440 -35.831 23.150
4765 1 21.832 -9.858 74.436
4766 1 21.283 -6.654 76.271
4767 1 26.364 -9.901 70.253
4768 1 51.712 13.353 -1.830
4769 1 46.385 10.607 -1.161
4770 1 51.337 12.567 5.987
4771 1 29.180 20.782 43.823
4772 1 35.429 37.723 50.635
4773 1 34.474 25.921 49.494
4774 1 41.745 -1.944 46.098
4775 1 44.714 -2.635 57.744
4776 1 45.974 -2.729 61.148
4777 1 35.713 -30.006 19.994
4778 1 35.499 -20.337 14.453
4779 1 41.824 -21.587 16.615
4780 1 18.025 21.263 21.126
4781 1 21.779 34.550 26.365
4782 1 20.114 32.546 21.338
4783 1 35.790 -25.364 17.083
4784 1 32.731 -19.882 12.901
4785 1 34.001 -22.900 9.533
4786 1 -2.356 22.648 21.254
4787 1 2.420 17.585 27.639
4788 1 5.393 19.854 20.513
4789 1 10.523 30.777 25.199
4790 1 10.378 31.529 24.855
4791 1 8.050 36.421 34.912
4792 1 -8.332 26.099 47.852
4793 1 -10.171 24.867 50.667
4794 1 -8.201 31.930 51.593
4795 1 -1.726 -8.669 33.995
4796 1 -4.204 -7.707 29.696
4797 1 -0.803 -15.068 36.162
4798 1 36.054 37.939 38.718
4799 1 31.546 38.599 34.860
4800 1 35.851 31.913 47.931
4801 1 21.051 -8.917 20.573
4802 1 20.225 -14.753 8.997
4803 1 16.764 -10.871 17.297
4804 1 22.898 8.612 33.140
4805 1 22.444 15.233 30.850
4806 1 23.596 15.629 31.187
4807 1 44.086 65.022 70.159
4808 1 42.104 55.246 68.078
4809 1 35.892 65.384 70.857
4810 1 88.959 7.684 22.698
4811 1 89.353 13.502 33.697
4812 1 93.588 4.638 19.720
4813 1 45.904 49.754 29.300
4814 1 45.019 46.389 32.397
4815 1 48.967 47.204 37.852
4816 1 -2.444 5.859 57.002
4817 1 -12.384 17.689 55.597
4818 1 -10.846 6.359 59.281
4819 1 3.812 70.098 34.404
4820 1 10.389 75.331 46.588
4821 1 12.718 75.111 41.753
4822 1 -29.458 -10.609 67.646
4823 1 -28.217 -7.438 74.345
4824 1 -21.948 -14.666 71.503
4825 1 28.696 45.539 70.636
4826 1 26.563 51.805 73.574
4827 1 29.430 45.394 72.218
4828 1 78.995 24.650 74.575
4829 1 72.035 31.727 64.588
4830 1 76.523 23.454 67.142
4831 1 14.800 -3.213 67.917
4832 1 17.946 -1.582 69.254
4833 1 19.195 -5.910 68.706
4834 1 1.429 -31.981 32.382
4835 1 4.503 -26.176 19.805
4836 1 1.026 -31.247 26.880
4837 1 79.895 2.478 45.222
4838 1 80.027 6.877 46.781
4839 1 73.878 8.121 44.031
4840 1 39.281 52.296 8.509
4841 1 31.909 52.454 2.743
4842 1 28.670 54.780 9.220
4843 1 -5.688 -6.400 51.424
4844 1 -9.636 -2.079 49.839
4845 1 -11.645 -3.648 51.716
4846 1 -8.190 77.091 37.497
4847 1 6.120 69.022 36.466
4848 1 -0.156 75.215 31.917
4849 1 32.644 23.145 47.986
4850 1 32.096 16.677 59.549
4851 1 35.862 16.635 52.580
4852 1 4.373 17.694 -2.411
4853 1 4.271 23.396 -2.588
4854 1 0.081 20.607 3.361
4855 1 -6.464 53.053 36.018
4856 1 -12.101 57.580 37.266
4857 1 -15.455 57.130 38.345
4858 1 72.829 -7.650 64.245
4859 1 76.747 0.841 67.172
4860 1 71.142 -2.380 69.170
4861 1 39.779 56.857 52.629
4862 1 39.181 55.501 49.820
4863 1 44.843 55.295 43.237
4864 1 -36.017 9.731 35.392
4865 1 -35.155 9.443 39.839
4866 1 -29.204 7.458 39.628
4867 1 -32.692 58.557 70.100
4868 1 -22.854 52.849 65.444
4869 1 -20.898 53.476 58.284
4870 1 0.406 20.846 -1.968
4871 1 -3.525 13.792 5.362
4872 1 -2.676 14.801 4.082
4873 1 -7.574 65.864 18.417
4874 1 -5.788 59.588 35.002
4875 1 -2.027 64.422 24.037
4876 1 54.470 18.140 53.285
4877 1 53.872 26.955 58.683
4878 1 51.860 28.641 56.588
4879 1 6.541 41.570 27.337
4880 1 3.254 42.319 28.276
4881 1 3.906 48.267 15.098
4882 1 37.005 30.508 62.961
4883 1 41.298 32.970 62.208
4884 1 43.035 28.969 51.376
4885 1 29.673 33.062 60.797
4886 1 26.918 38.631 49.699
4887 1 33.148 37.732 59.870
4888 1 -21.310 7.541 51.732
4889 1 -16.365 3.296 49.620
4890 1 -17.236 5.505 42.271
4891 1 14.802 61.860 61.934
4892 1 13.587 64.415 52.504
4893 1 21.332 59.397 49.384
4894 1 -10.979 28.390 -7.087
4895 1 -13.402 25.188 -7.714
4896 1 -13.816 27.785 -0.405
4897 1 3.762 24.534 7.602
4898 1 5.819 30.728 1.396
4899 1 6.598 22.907 -0.100
4900 1 -11.225 28.007 38.687
4901 1 -2.127 32.920 39.415
4902 1 -4.158 34.833 35.893
4903 1 -22.827 52.351 18.959
4904 1 -30.890 45.732 21.103
4905 1 -32.851 48.892 21.695
4906 1 36.736 53.270 57.215
4907 1 38.196 46.569 49.177
4908 1 34.264 49.870 63.025
4909 1 45.066 28.765 51.450
4910 1 52.513 27.572 48.953
4911 1 48.868 27.140 57.439
4912 1 -8.463 79.023 39.271
4913 1 -11.830 71.709 43.524
4914 1 -9.090 81.006 42.438
4915 1 41.434 -8.340 13.050
4916 1 40.130 -4.999 12.830
4917 1 46.835 -4.726 18.157
4918 1 -4.427 2.013 20.886
4919 1 -6.501 0.949 20.713
4920 1 -4.015 -1.762 27.046
4921 1 50.730 9.184 50.947
4922 1 55.155 12.621 44.159
4923 1 48.734 -0.282 43.295
4924 1 10.750 -6.889 18.180
4925 1 14.755 -9.024 9.963
4926 1 13.489 -13.378 10.363
4927 1 76.621 57.399 58.726
4928 1 71.825 62.587 55.333
4929 1 74.390 58.928 64.840
4930 1 20.901 39.778 48.068
4931 1 20.696 44.755 56.516
4932 1 21.675 40.867 55.512
4933 1 44.969 44.189 17.803
4934 1 38.619 44.289 16.040
4935 1 43.889 38.707 21.607
4936 1 20.992 14.401 8.461
4937 1 22.937 17.283 11.374
4938 1 24.429 11.573 15.526
4939 1 6.460 50.293 13.083
4940 1 14.178 46.568 29.870
4941 1 6.806 55.945 20.961
4942 1 28.425 55.278 7.873
4943 1 35.155 56.973 10.827
4944 1 31.845 55.657 7.149
4945 1 7.317 1.229 63.927
4946 1 3.838 5.628 68.069
4947 1 6.751 6.028 67.435
4948 1 15.221 6.292 -12.334
4949 1 22.223 6.299 -9.253
4950 1 17.740 5.164 -11.201
4951 1 30.507 38.569 42.993
4952 1 32.616 51.464 45.107
4953 1 26.661 41.858 34.794
4954 1 10.560 76.978 44.244
4955 1 9.427 75.485 39.822
4956 1 14.388 74.354 48.530
4957 1 -22.891 31.045 71.003
4958 1 -15.402 36.280 65.186
4959 1 -17.629 33.268 72.707
4960 1 14.728 51.857 66.386
4961 1 16.198 48.476 57.385
4962 1 19.465 47.190 63.119
4963 1 16.988 70.717 43.625
4964 1 10.626 61.374 45.672
4965 1 6.529 66.929 33.838
4966 1 6.718 31.533 14.962
4967 1 7.533 34.598 20.946
4968 1 -2.801 31.231 16.332
4969 1 -8.656 36.635 22.406
4970 1 -6.869 43.068 21.611
4971 1 -16.192 38.207 22.990
4972 1 0.641 22.378 24.000
4973 1 0.216 18.547 29.160
4974 1 5.937 15.054 26.110
4975 1 29.937 1.486 26.719
4976 1 28.865 6.565 28.908
4977 1 23.646 1.407 15.775
4978 1 50.193 0.341 57.738
4979 1 53.224 4.755 57.095
4980 1 47.720 6.927 62.896
4981 1 3.469 47.635 38.942
4982 1 11.472 39.731 34.384
4983 1 8.617 51.728 42.728
4984 1 26.336 -12.445 68.184
4985 1 22.648 -7.687 74.797
4986 1 21.284 -8.079 66.698
4987 1 9.011 18.798 41.379
4988 1 17.221 16.933 54.204
4989 1 11.532 16.627 36.354
4990 1 -8.442 26.112 19.163
4991 1 -13.500 29.392 26.606
4992 1 -14.078 23.911 29.396
4993 1 17.866 62.207 30.397
4994 1 18.631 64.488 29.646
4995 1 20.768 67.201 31.325
4996 1 45.462 77.203 14.413
4997 1 47.426 79.990 7.188
4998 1 45.395 79.861 19.354
4999 1 -19.278 43.617 50.151
5000 1 -14.136 54.118 48.185
5001 1 -16.833 55.484 51.566
5002 1 5.001 47.033 38.394
5003 1 -1.013 43.136 38.275
5004 1 4.701 39.681 36.865
5005 1 20.870 47.350 54.295
5006 1 20.158 49.156 55.723
5007 1 21.649 47.599 44.235
5008 1 3.155 49.760 46.740
5009 1 1.671 43.876 43.848
5010 1 2.376 44.781 42.884
5011 1 11.853 45.686 48.841
5012 1 9.627 37.412 60.940
5013 1 13.597 42.862 55.513
5014 1 -1.073 31.248 42.073
5015 1 -2.609 26.531 45.503
5016 1 -3.963 35.588 52.664
5017 1 44.901 17.654 31.539
5018 1 40.865 31.853 32.459
5019 1 40.168 21.858 33.624
5020 1 44.052 13.541 20.107
5021 1 44.510 18.738 15.060
5022 1 40.747 21.093 17.692
5023 1 21.447 59.128 44.203
5024 1 14.930 63.137 45.828
5025 1 15.606 55.799 45.009
5026 1 -2.813 55.560 55.265
5027 1 -3.388 56.709 59.186
5028 1 -2.975 58.845 52.948
5029 1 -5.109 23.989 1.754
5030 1 -2.515 17.274 -3.185
5031 1 -2.330 24.586 -3.742
5032 1 -29.922 30.542 30.917
5033 1 -21.274 32.658 23.441
5034 1 -26.676 36.967 32.510
5035 1 44.804 29.930 9.470
5036 1 51.612 27.233 14.544
5037 1 49.880 28.082 10.819
5038 1 -3.919 53.471 11.762
5039 1 -6.134 43.244 6.365
5040 1 -5.376 40.628 14.709
5041 1 -12.787 59.117 71.833
5042 1 -15.247 65.819 78.900
5043 1 -13.797 58.229 70.153
5044 1 12.252 15.568 84.215
5045 1 22.823 9.240 74.620
5046 1 11.885 19.629 73.095
5047 1 -11.719 -8.145 41.314
5048 1 -10.481 -5.193 28.852
5049 1 -9.191 -5.866 32.713
5050 1 22.925 12.668 21.767
5051 1 26.113 9.839 13.238
5052 1 23.983 6.958 13.738
5053 1 -28.316 49.487 16.062
5054 1 -26.157 51.014 22.160
5055 1 -32.136 51.222 21.027
5056 1 40.104 -14.547 43.149
5057 1 42.775 -11.260 49.428
5058 1 35.036 -13.866 52.359
5059 1 58.353 20.269 19.680
5060 1 63.427 27.894 14.392
5061 1 59.026 28.679 14.047
5062 1 45.828 29.133 35.252
5063 1 41.494 34.597 37.091
5064 1 47.760 29.110 40.305
5065 1 54.938 87.599 33.304
5066 1 50.762 88.719 33.850
5067 1 45.223 91.558 35.311
5068 1 -11.947 -3.472 38.590
5069 1 -12.784 -3.668 37.702
5070 1 -13.605 1.647 42.679
5071 1 1.743 -38.389 62.906
5072 1 6.096 -36.704 70.960
5073 1 1.740 -37.865 63.675
5074 1 -16.784 -33.245 31.070
5075 1 -13.882 -30.769 30.555
5076 1 -19.816 -23.829 21.276
5077 1 17.634 -51.281 62.183
5078 1 15.169 -46.459 58.348
5079 1 17.052 -47.490 65.794
5080 1 21.466 -4.855 29.209
5081 1 13.555 -4.862 24.460
5082 1 24.258 -7.565 26.162
5083 1 20.914 23.075 95.673
5084 1 20.110 14.163 101.541
5085 1 17.621 13.433 92.139
5086 1 25.059 -28.722 29.252
5087 1 27.178 -27.010 28.982
5088 1 28.574 -26.413 29.561
5089 1 18.799 -13.568 43.419
5090 1 18.985 -16.306 33.139
5091 1 15.318 -16.809 36.682
5092 1 20.815 4.341 54.098
5093 1 16.191 0.014 52.558
5094 1 22.567 1.169 51.859
5095 1 49.519 27.724 27.304
5096 1 44.822 29.122 23.299
5097 1 52.713 32.720 22.223
5098 1 14.770 -16.860 45.478
5099 1 10.160 -15.231 42.111
5100 1 13.725 -11.400 46.948
5101 1 50.306 21.787 33.643
5102 1 47.988 23.285 36.595
5103 1 54.897 23.114 32.140
5104 1 27.484 -33.327 57.176
5105 1 26.903 -37.441 49.547
5106 1 27.918 -37.912 47.029
5107 1 -57.057 43.401 97.624
5108 1 -61.342 42.867 98.856
5109 1 -57.938 42.919 88.915
5110 1 6.236 13.901 39.833
5111 1 -0.056 10.729 30.653
5112 1 3.089 14.679 30.401
5113 1 26.034 7.113 43.438
5114 1 22.003 7.090 35.292
5115 1 29.971 2.582 39.218
5116 1 45.863 18.346 40.295
5117 1 44.791 18.828 32.899
5118 1 42.478 22.133 35.881
5119 1 54.959 20.686 21.266
5120 1 54.318 23.948 20.903
5121 1 56.624 23.712 22.083
5122 1 -9.932 9.057 8.127
5123 1 -3.296 8.357 -0.800
5124 1 -8.581 8.207 0.350
5125 1 21.915 25.666 19.045
5126 1 23.796 30.441 18.033
5127 1 18.546 19.005 13.090
5128 1 -19.083 46.263 47.418
5129 1 -21.436 44.162 65.155
5130 1 -24.768 46.851 62.451
5131 1 73.056 36.458 31.799
5132 1 73.920 29.523 25.641
5133 1 69.892 31.202 26.413
5134 1 5.099 -15.938 -1.931
5135 1 -3.152 -13.858 0.137
5136 1 3.192 -14.334 0.879
5137 1 51.114 -54.318 66.007
5138 1 48.594 -49.571 66.565
5139 1 47.128 -46.708 63.099
5140 1 22.664 -48.868 52.272
5141 1 31.487 -39.845 50.950
5142 1 19.337 -41.814 45.792
5143 1 19.696 -63.645 42.738
5144 1 18.752 -63.304 44.478
5145 1 12.161 -63.195 42.576
5146 1 12.712 -7.932 37.886
5147 1 16.218 -7.794 23.145
5148 1 14.100 -3.607 14.735
5149 1 9.187 36.681 57.955
5150 1 4.956 34.668 52.098
5151 1 8.035 37.687 58.864
5152 1 -19.211 -4.255 44.512
5153 1 -14.847 -5.919 53.845
5154 1 -24.357 -1.206 45.263
5155 1 49.722 40.508 28.501
5156 1 58.489 40.171 28.461
5157 1 54.029 46.121 35.252
5158 1 -17.051 -4.055 33.474
5159 1 -9.530 -0.093 26.258
5160 1 -22.375 -3.455 28.404
5161 1 -15.761 31.238 65.431
5162 1 -20.293 30.224 44.123
5163 1 -17.392 32.827 51.584
5164 1 -24.252 -15.077 54.579
5165 1 -22.325 -16.711 52.703
5166 1 -22.506 -15.673 53.307
5167 1 30.353 48.309 32.913
5168 1 25.862 46.821 42.354
5169 1 24.541 51.587 36.548
5170 1 14.380 -0.144 28.457
5171 1 8.245 8.265 38.980
5172 1 14.755 12.023 22.177
5173 1 53.808 5.866 49.728
5174 1 51.468 10.446 57.737
5175 1 53.116 5.235 59.121
5176 1 46.584 54.520 37.080
5177 1 39.217 51.266 43.525
5178 1 42.047 53.545 41.938
5179 1 57.786 -25.148 49.819
5180 1 56.110 -20.642 50.556
5181 1 52.070 -19.789 43.384
5182 1 66.969 -40.899 52.833
5183 1 66.652 -39.884 57.232
5184 1 65.314 -34.806 51.073
5185 1 -28.024 40.081 63.603
5186 1 -22.920 41.281 63.867
5187 1 -18.505 40.717 67.372
5188 1 -4.887 70.153 78.766
5189 1 -3.057 77.764 76.249
5190 1 -11.467 74.138 69.587
5191 1 -0.504 24.018 16.983
5192 1 2.727 26.123 21.586
5193 1 4.653 23.921 14.823
5194 1 28.055 79.117 47.123
5195 1 28.390 68.396 50.135
5196 1 27.716 78.399 37.838
5197 1 10.410 5.395 30.371
5198 1 17.928 3.010 36.597
5199 1 17.667 -0.009 40.967
5200 1 19.235 62.700 38.480
5201 1 20.806 64.414 39.615
5202 1 21.450 62.582 46.491
5203 1 42.862 -11.872 23.151
5204 1 42.853 -5.330 21.393
5205 1 41.517 -12.765 25.745
5206 1 40.254 7.163 32.387
5207 1 46.037 12.056 29.291
5208 1 48.446 6.789 36.953
5209 1 -5.053 14.676 -10.638
5210 1 -4.998 22.082 -11.458
5211 1 -4.824 14.570 -8.253
5212 1 5.210 12.868 37.284
5213 1 1.946 9.142 30.415
5214 1 2.714 14.997 36.244
5215 1 15.063 7.373 80.849
5216 1 12.499 12.335 73.260
5217 1 14.980 5.218 73.971
5218 1 23.122 -27.807 45.184
5219 1 25.442 -31.597 40.550
5220 1 24.967 -38.119 34.565
5221 1 51.829 -21.817 52.759
5222 1 46.719 -18.949 42.018
5223 1 49.167 -11.649 45.013
5224 1 -9.930 -14.844 38.880
5225 1 -8.692 -19.370 33.671
5226 1 -8.837 -14.339 31.217
5227 1 21.924 47.865 82.635
5228 1 15.733 38.467 82.592
5229 1 21.289 36.457 71.858
5230 1 35.695 31.426 54.942
5231 1 35.298 36.169 61.619
5232 1 32.266 39.248 54.821
5233 1 22.318 9.525 41.325
5234 1 10.786 7.686 40.505
5235 1 11.478 7.167 33.676
5236 1 9.837 24.024 -11.028
5237 1 7.699 25.894 -4.836
5238 1 16.701 27.384 -6.148
5239 1 16.209 31.253 48.061
5240 1 18.138 29.529 50.221
5241 1 17.373 27.565 49.993
5242 1 -4.103 58.102 55.106
5243 1 -5.675 65.245 53.651
5244 1 -2.710 66.569 47.334
5245 1 48.982 -0.519 20.441
5246 1 41.215 6.838 21.755
5247 1 43.716 -1.125 23.778
5248 1 37.429 21.940 11.637
5249 1 35.206 21.024 13.260
5250 1 34.396 16.145 15.409
5251 1 -2.614 0.126 17.907
5252 1 -1.896 5.643 11.650
5253 1 -1.534 -1.534 6.820
5254 1 26.380 -7.512 65.651
5255 1 18.866 -5.560 73.930
5256 1 27.033 -4.482 74.063
5257 1 75.573 82.938 29.299
5258 1 78.801 81.003 23.705
5259 1 76.530 82.337 16.674
5260 1 34.597 38.727 63.928
5261 1 27.910 40.631 63.311
5262 1 29.402 38.836 55.105
5263 1 35.479 7.485 70.833
5264 1 32.697 13.559 67.418
5265 1 43.043 12.196 64.008
5266 1 13.168 6.379 41.004
5267 1 8.211 3.360 46.822
5268 1 10.338 -2.994 50.115
5269 1 -22.653 -2.649 78.912
5270 1 -17.064 -7.367 82.631
5271 1 -19.516 -7.637 83.486
5272 1 42.663 1.241 53.374
5273 1 43.543 13.901 52.141
5274 1 43.680 7.493 39.171
5275 1 13.786 52.829 73.308
5276 1 19.079 51.510 64.015
5277 1 17.375 48.870 66.850
5278 1 4.998 22.259 59.064
5279 1 12.119 18.390 58.994
5280 1 6.930 27.689 63.505
5281 1 32.386 -3.994 11.798
5282 1 37.356 -9.410 14.933
5283 1 34.403 -1.531 12.314
5284 1 22.280 31.179 28.116
5285 1 21.728 33.504 33.406
5286 1 20.850 30.277 37.888
5287 1 52.949 25.754 27.859
5288 1 51.035 26.521 31.285
5289 1 50.167 21.969 32.735
5290 1 17.836 -17.911 56.012
5291 1 13.026 -20.127 56.392
5292 1 14.343 -16.708 44.134
5293 1 26.535 14.324 38.282
5294 1 23.409 19.618 46.099
5295 1 20.165 19.891 34.799
5296 1 15.206 -6.694 52.477
5297 1 11.971 -3.159 54.931
5298 1 9.009 -1.988 44.558
5299 1 37.476 22.035 55.031
5300 1 33.823 20.839 68.621
5301 1 39.571 18.821 65.414
5302 1 0.924 22.259 -18.296
5303 1 -3.893 23.471 -14.067
5304 1 3.079 21.290 -15.864
5305 1 17.569 -8.601 20.545
5306 1 20.814 -7.598 12.730
5307 1 17.870 -9.132 15.601
5308 1 4.639 14.717 51.089
5309 1 5.963 5.545 54.194
5310 1 7.158 6.297 50.802
5311 1 41.541 97.621 15.809
5312 1 39.170 89.428 18.520
5313 1 38.098 98.524 24.644
5314 1 12.318 53.417 68.594
5315 1 9.629 54.820 58.178
5316 1 4.528 49.235 62.259
5317 1 7.482 -12.079 -10.127
5318 1 6.618 -17.977 -7.759
5319 1 6.520 -3.507 -9.475
5320 1 11.522 61.624 35.815
5321 1 10.482 56.310 24.337
5322 1 14.293 53.751 29.684
5323 1 -13.922 10.547 42.937
5324 1 -6.480 14.072 31.693
5325 1 -2.079 7.210 39.965
5326 1 26.027 27.407 24.161
5327 1 28.640 26.533 36.943
5328 1 26.435 31.916 37.534
5329 1 4.696 4.359 1.924
5330 1 6.691 8.427 8.618
5331 1 0.676 9.598 2.008
5332 1 21.133 45.069 73.299
5333 1 19.404 44.533 76.931
5334 1 18.385 49.203 85.540
5335 1 33.284 46.353 31.913
5336 1 41.225 45.283 35.004
5337 1 31.220 46.303 37.595
5338 1 24.151 8.019 42.283
5339 1 30.916 5.288 45.895
5340 1 19.178 2.440 44.231
5341 1 20.018 32.824 39.616
5342 1 15.751 35.520 33.631
5343 1 19.074 39.958 38.525
5344 1 32.378 -5.952 38.034
5345 1 31.714 -6.139 39.750
5346 1 33.467 -4.600 44.742
5347 1 -4.019 32.708 57.663
5348 1 -9.574 27.261 55.159
5349 1 -6.079 27.592 46.680
5350 1 -18.092 17.705 16.317
5351 1 -19.660 24.804 24.040
5352 1 -18.680 24.804 20.564
5353 1 3.334 6.682 36.035
5354 1 4.752 6.718 38.573
5355 1 1.223 7.233 40.448
5356 1 -3.983 23.291 31.724
5357 1 -3.734 29.668 22.564
5358 1 0.589 23.201 28.379
5359 1 34.066 46.385 76.275
5360 1 34.519 38.813 76.161
5361 1 35.634 48.048 74.417
5362 1 15.468 46.954 62.906
5363 1 9.802 48.145 64.856
5364 1 9.708 45.682 69.696
5365 1 -2.693 70.147 77.792
5366 1 -0.778 60.182 75.882
5367 1 -4.785 60.344 73.500
5368 1 14.185 10.595 69.766
5369 1 22.356 13.016 62.583
5370 1 14.862 6.841 83.743
5371 1 -10.965 31.266 21.944
5372 1 -14.018 36.022 16.782
5373 1 -8.158 31.142 21.666
5374 1 -0.180 83.991 53.049
5375 1 0.476 80.263 40.631
5376 1 -0.210 77.622 45.404
5377 1 2.164 -18.972 54.264
5378 1 0.902 -16.517 46.199
5379 1 -0.455 -18.423 54.087
5380 1 4.310 16.257 52.758
5381 1 4.074 21.556 51.524
5382 1 -4.551 10.021 56.178
5383 1 39.167 56.207 23.356
5384 1 33.950 58.492 20.067
5385 1 37.900 57.859 24.685
5386 1 -10.917 81.486 58.601
5387 1 -16.427 78.012 54.945
5388 1 -14.604 84.683 51.404
5389 1 42.813 0.655 51.235
5390 1 42.658 -1.405 41.688
5391 1 39.412 -3.734 43.080
5392 1 -22.241 72.796 5.862
5393 1 -18.210 69.704 9.228
5394 1 -22.733 69.448 1.766
5395 1 18.997 59.946 96.798
5396 1 12.929 64.179 96.755
5397 1 14.647 56.425 94.452
5398 1 2.828 -8.567 48.095
5399 1 4.157 -6.756 42.263
5400 1 3.432 -1.987 43.555
5401 1 64.629 38.976 56.764
5402 1 73.749 40.287 50.857
5403 1 67.251 36.807 52.609
5404 1 -16.070 -3.140 5.603
5405 1 -14.754 -2.931 14.886
5406 1 -13.364 0.126 11.039
5407 1 9.491 33.936 58.049
5408 1 6.609 38.241 56.289
5409 1 4.066 44.069 56.304
5410 1 -7.767 30.665 46.558
5411 1 -7.350 32.202 48.200
5412 1 -6.760 39.201 33.402
5413 1 17.164 64.618 42.598
5414 1 14.023 55.535 48.886
5415 1 16.190 65.183 43.651
5416 1 21.268 -11.837 53.716
5417 1 17.440 -13.028 56.821
5418 1 18.928 -23.077 59.004
5419 1 53.434 53.457 21.409
5420 1 51.928 53.072 19.152
5421 1 55.405 53.289 12.900
5422 1 8.225 44.865 32.145
5423 1 15.807 46.409 35.423
5424 1 18.071 51.910 41.250
5425 1 6.744 16.948 37.042
5426 1 10.004 13.147 34.773
5427 1 9.564 18.098 38.446
5428 1 20.134 27.186 51.580
5429 1 15.388 27.983 54.039
5430 1 18.944 37.143 48.699
5431 1 -18.672 17.959 31.643
5432 1 -27.063 13.276 30.209
5433 1 -26.528 12.933 28.361
5434 1 0.694 -33.537 14.198
5435 1 3.190 -32.213 2.184
5436 1 -3.607 -33.809 6.404
5437 1 25.553 69.757 9.742
5438 1 29.893 71.537 0.516
5439 1 29.322 71.720 3.121
5440 1 0.854 55.557 39.885
5441 1 -4.220 49.118 36.966
5442 1 -6.233 56.821 26.136
5443 1 -9.092 25.358 69.890
5444 1 -8.436 23.304 71.341
5445 1 -12.254 16.890 64.954
5446 1 43.901 79.214 53.782
5447 1 49.189 75.865 49.628
5448 1 51.670 79.315 52.846
5449 1 -48.474 43.693 21.426
5450 1 -41.575 45.842 17.213
5451 1 -47.838 49.619 16.489
5452 1 29.471 30.649 31.711
5453 1 26.658 26.852 27.759
5454 1 27.647 23.163 39.083
5455 1 -8.793 23.881 11.423
5456 1 -9.130 23.662 21.300
5457 1 -7.270 21.116 23.239
5458 1 6.779 20.943 79.569
5459 1 -1.320 23.224 84.434
5460 1 -4.639 27.838 94.489
5461 1 44.409 22.260 65.658
5462 1 50.186 24.684 65.363
5463 1 46.969 28.264 55.349
5464 1 13.025 44.959 29.458
5465 1 18.689 37.916 25.650
5466 1 16.262 45.829 20.085
5467 1 1.184 32.200 61.757
5468 1 3.024 23.403 49.779
5469 1 3.941 33.727 56.038
5470 1 -19.775 24.978 70.688
5471 1 -19.960 30.311 74.437
5472 1 -18.651 28.484 65.175
5473 1 -13.559 5.089 70.948
5474 1 -19.628 5.075 71.553
5475 1 -20.002 1.280 77.169
5476 1 21.212 35.934 46.913
5477 1 22.786 38.365 44.486
5478 1 24.757 37.739 37.075
5479 1 29.968 53.837 79.810
5480 1 30.296 53.561 79.761
5481 1 34.671 55.123 81.634
5482 1 20.864 20.302 27.845
5483 1 25.170 23.623 27.300
5484 1 21.076 18.158 28.552
5485 1 28.832 76.085 61.389
5486 1 27.170 72.342 60.109
5487 1 26.694 63.812 49.726
5488 1 39.346 62.039 55.243
5489 1 40.120 56.005 52.618
5490 1 42.279 53.548 44.543
5491 1 56.309 39.650 40.911
5492 1 55.522 37.612 35.073
5493 1 56.080 33.462 40.130
5494 1 24.614 48.672 27.608
5495 1 24.538 62.251 25.080
5496 1 23.059 56.158 24.537
5497 1 32.307 82.456 -20.877
5498 1 32.135 80.010 -26.515
5499 1 27.967 72.629 -26.549
5500 1 7.110 31.001 72.411
5501 1 6.462 31.837 67.904
5502 1 11.316 30.989 71.638
5503 1 -12.791 84.949 46.633
5504 1 -15.113 88.458 55.840
5505 1 -18.884 87.192 45.896
5506 1 28.974 30.279 35.180
5507 1 34.074 27.008 51.373
5508 1 26.918 27.077 34.497
5509 1 31.015 3.917 57.963
5510 1 25.109 -0.787 56.775
5511 1 28.464 -1.458 63.142
5512 1 7.162 61.088 63.306
5513 1 9.740 62.286 57.983
5514 1 11.584 53.627 60.571
5515 1 -12.171 36.591 103.181
5516 1 -15.656 44.500 92.565
5517 1 -15.081 42.400 92.965
5518 1 -13.718 53.122 50.015
5519 1 -15.955 66.186 52.931
5520 1 -8.242 64.264 53.530
5521 1 -9.535 114.759 30.477
5522 1 -7.474 118.575 28.924
5523 1 -9.220 121.499 26.543
5524 1 21.767 22.766 63.684
5525 1 20.355 24.381 61.074
5526 1 21.340 25.883 61.260
5527 1 32.582 84.419 10.674
5528 1 30.101 88.399 9.228
5529 1 28.044 85.050 17.675
5530 1 35.940 29.614 73.786
5531 1 34.655 25.959 70.663
5532 1 36.200 32.433 72.091
5533 1 34.840 53.973 54.647
5534 1 29.299 61.607 56.906
5535 1 35.424 55.223 58.185
5536 1 65.012 24.002 20.574
5537 1 52.817 28.436 9.842
5538 1 54.549 25.777 16.042
5539 1 67.450 48.442 66.856
5540 1 66.151 38.503 85.978
5541 1 62.826 45.380 82.832
