Generated by simple_tetrahedral_analysis.py

5541 atoms
3 atom types

-18.8171197488634 18.8171197488634 xlo xhi
-18.8171197488634 18.8171197488634 ylo yhi
-18.8171197488634 18.8171197488634 zlo zhi

Masses

1 12.011 # C
2 15.999 # O
3 1.008  # H

Atoms # atomic

1 1 41.1243 -324.678 -486.277
2 1 42.2145 -325.579 -486.257
3 1 39.816 -324.569 -485.697
4 1 41.394 -325.34 -487.372
5 1 42.2163 -325.186 -488.492
6 1 43.2871 -324.656 -486.07
7 1 43.394 -324.481 -487.453
8 1 43.3667 -324.452 -488.846
9 1 40.1496 -322.929 -484.693
10 1 41.2207 -323.232 -483.898
11 1 39.0532 -323.404 -485.506
12 1 41.3907 -324.103 -484.964
13 1 42.8169 -324.247 -484.844
14 1 42.2607 -322.381 -484.377
15 1 43.5888 -322.06 -484.814
16 1 43.4034 -323.194 -485.587
17 1 38.4466 -321.863 -485.923
18 1 39.1686 -320.738 -485.636
19 1 38.7736 -322.915 -486.81
20 1 40.0156 -321.825 -485.579
21 1 40.9878 -321.79 -484.544
22 1 39.2081 -319.753 -486.638
23 1 40.0359 -319.794 -485.489
24 1 41.1569 -320.379 -484.855
25 1 37.9234 -323.671 -488.488
26 1 38.016 -322.268 -488.475
27 1 38.1116 -324.134 -487.139
28 1 38.513 -321.559 -487.305
29 1 38.4997 -320.237 -487.805
30 1 38.6199 -321.554 -489.497
31 1 39.3801 -320.38 -489.286
32 1 39.6596 -319.547 -488.151
33 1 40.2438 -324.982 -488.12
34 1 40.0429 -324.462 -489.428
35 1 39.436 -324.612 -487.051
36 1 39.1339 -323.413 -489.215
37 1 39.2256 -322.575 -490.341
38 1 41.4562 -324.514 -489.458
39 1 41.1987 -323.243 -490.096
40 1 40.5522 -322.111 -490.629
41 1 41.4064 -319.467 -489.121
42 1 40.7621 -320.657 -489.478
43 1 41.732 -321.43 -490.161
44 1 42.5869 -320.129 -488.641
45 1 42.0847 -319.28 -486.537
46 1 40.6394 -319.039 -486.549
47 1 41.0672 -319.65 -487.764
48 1 42.6184 -320.394 -487.24
49 1 44.0901 -321.296 -485.908
50 1 43.0525 -320.775 -485.107
51 1 41.9698 -320.593 -486.016
52 1 43.6066 -321.405 -487.225
53 1 44.2548 -322.844 -489.049
54 1 44.1044 -323.291 -487.7
55 1 43.8508 -322.398 -486.664
56 1 43.6769 -321.613 -488.62
57 1 42.9283 -321.994 -490.661
58 1 42.591 -323.219 -490.051
59 1 43.895 -323.795 -490.004
60 1 43.0468 -320.926 -489.697
61 1 51.1542 -323.676 -487.495
62 1 51.5742 -322.353 -487.157
63 1 50.3173 -324.796 -487.242
64 1 50.5468 -322.326 -488.149
65 1 50.2462 -320.982 -487.713
66 1 52.9735 -322.123 -487.34
67 1 52.2586 -321.482 -486.253
68 1 51.1246 -320.657 -486.661
69 1 51.4708 -325.688 -485.082
70 1 52.2383 -324.68 -485.738
71 1 50.9718 -325.726 -486.398
72 1 52.4636 -324.007 -486.94
73 1 52.9536 -322.922 -486.171
74 1 52.1233 -324.694 -484.3
75 1 53.1552 -323.887 -483.77
76 1 53.4162 -322.956 -484.835
77 1 48.6747 -325.437 -485.046
78 1 49.6961 -325.594 -484.098
79 1 49.5844 -325.585 -486.11
80 1 51.0206 -325.998 -483.76
81 1 52.2877 -325.587 -483.237
82 1 49.4264 -325.737 -482.723
83 1 50.0168 -324.725 -481.931
84 1 51.3102 -325.146 -482.283
85 1 47.3656 -324.292 -486.407
86 1 47.1798 -324.786 -485.054
87 1 48.7361 -324.526 -486.409
88 1 47.6548 -325.83 -484.195
89 1 48.1646 -325.233 -483.02
90 1 47.4539 -323.396 -484.878
91 1 47.7209 -322.79 -483.647
92 1 47.3566 -324.057 -483.08
93 1 49.5831 -322.567 -487.15
94 1 48.2358 -322.128 -487.001
95 1 49.2537 -323.877 -487.557
96 1 47.2871 -322.866 -486.249
97 1 47.3871 -322.01 -485.134
98 1 49.0932 -321.018 -486.852
99 1 48.9953 -320.105 -485.771
100 1 48.2034 -320.843 -484.793
101 1 49.1304 -322.38 -481.866
102 1 47.8401 -322.119 -482.391
103 1 47.9669 -321.134 -483.396
104 1 49.8212 -321.159 -481.95
105 1 50.753 -323.465 -481.816
106 1 49.3216 -323.497 -481.726
107 1 47.9831 -323.229 -482.079
108 1 50.8476 -322.094 -481.497
109 1 52.4435 -321.786 -483.074
110 1 53.0459 -322.986 -482.597
111 1 52.0454 -323.908 -482.27
112 1 51.8139 -321.199 -482.02
113 1 51.7776 -320.704 -484.463
114 1 52.9684 -320.971 -485.113
115 1 53.4772 -321.809 -484.034
116 1 51.4837 -320.349 -483.103
117 1 48.7604 -319.907 -483.438
118 1 49.6459 -319.747 -484.554
119 1 50.7216 -320.31 -485.354
120 1 50.07 -320.405 -483.122
121 1 47.0424 -315.194 -493.791
122 1 46.8512 -316.599 -493.884
123 1 47.548 -314.894 -492.504
124 1 48.2565 -316.834 -494
125 1 48.7796 -317.818 -493.163
126 1 46.3093 -317.916 -493.81
127 1 46.5433 -319.007 -492.95
128 1 47.9453 -318.917 -492.895
129 1 46.0562 -314.596 -491.986
130 1 44.8975 -315.103 -492.598
131 1 46.9539 -313.615 -492.426
132 1 45.7309 -315.705 -493.561
133 1 45.6796 -316.952 -492.938
134 1 43.9674 -315.514 -491.596
135 1 43.8922 -316.933 -491.809
136 1 44.5642 -317.845 -492.765
137 1 47.3743 -314.88 -490.059
138 1 46.0987 -314.539 -489.626
139 1 47.5181 -314.097 -491.199
140 1 45.4807 -314.048 -490.829
141 1 44.2423 -314.675 -490.468
142 1 46.3169 -314.86 -488.228
143 1 44.9806 -315.314 -488.455
144 1 43.7774 -315.192 -489.22
145 1 49.1771 -315.491 -491.132
146 1 49.1059 -315.422 -489.727
147 1 48.7126 -314.366 -491.914
148 1 48.2512 -314.574 -488.964
149 1 47.6122 -315.341 -487.956
150 1 50.0048 -316.371 -489.235
151 1 49.2283 -316.736 -488.089
152 1 48.1238 -316.503 -487.237
153 1 49.5155 -316.401 -493.519
154 1 49.8096 -316.347 -492.135
155 1 48.8008 -315.32 -492.989
156 1 50.6025 -315.592 -491.235
157 1 50.6168 -316.757 -490.434
158 1 49.6352 -317.74 -492.08
159 1 49.9345 -318.915 -491.355
160 1 49.8307 -317.954 -490.284
161 1 47.2518 -317.632 -487.899
162 1 48.5776 -317.979 -488.339
163 1 49.1022 -318.772 -489.388
164 1 46.6199 -318.656 -488.697
165 1 44.4885 -317.112 -488.061
166 1 45.3396 -316.186 -487.412
167 1 46.7063 -316.427 -487.303
168 1 45.3429 -318.208 -488.324
169 1 44.3164 -318.1 -490.922
170 1 43.5131 -317.005 -490.476
171 1 43.7175 -316.599 -489.108
172 1 44.9568 -318.413 -489.698
173 1 46.21 -319.296 -491.137
174 1 45.7542 -319.988 -492.272
175 1 44.7476 -318.997 -491.954
176 1 46.0469 -319.254 -489.706
177 1 48.0059 -318.72 -490.29
178 1 48.7145 -319.61 -491.131
179 1 47.4626 -319.6 -491.734
180 1 46.7629 -318.095 -489.994
181 2 -3.8746 13.1699 23.1012
182 3 -4.45577 13.3533 22.3631
183 3 -3.23747 12.5449 22.7555
184 2 -2.55928 9.59691 24.8018
185 3 -2.14323 8.83967 25.2137
186 3 -2.39628 10.3196 25.4079
187 2 -14.7159 39.1271 -14.6114
188 3 -14.0784 38.9903 -13.9106
189 3 -15.4227 39.6237 -14.1992
190 2 -4.46425 14.5435 -0.173427
191 3 -3.92598 15.0397 -0.790073
192 3 -5.35656 14.8515 -0.331971
193 2 -28.5807 17.5415 32.4426
194 3 -28.8247 17.2675 31.5585
195 3 -28.6937 18.492 32.4391
196 2 7.1626 -43.9303 14.8288
197 3 8.07214 -44.1396 14.6163
198 3 6.99287 -44.3997 15.6456
199 2 -8.27886 47.7101 17.6787
200 3 -7.66955 48.1675 18.2581
201 3 -8.52254 46.9205 18.1617
202 2 21.8381 36.7868 0.598612
203 3 22.4669 36.3411 1.16613
204 3 21.3293 36.0796 0.202169
205 2 19.1506 -1.0383 -13.7478
206 3 19.5638 -1.01702 -14.611
207 3 19.1443 -0.124752 -13.4622
208 2 10.4429 14.0941 0.967069
209 3 9.81558 13.9584 1.67715
210 3 11.1368 14.6249 1.35813
211 2 14.4367 23.6275 8.53485
212 3 14.6122 24.568 8.56534
213 3 13.6044 23.5537 8.06805
214 2 32.9572 5.68506 51.2513
215 3 33.1001 5.28322 52.1082
216 3 32.6143 6.55653 51.449
217 2 42.9999 22.1358 35.7235
218 3 42.8608 21.5989 36.5036
219 3 43.2679 21.5127 35.0481
220 2 -39.1204 -9.87672 6.44748
221 3 -39.1468 -9.86124 7.40418
222 3 -39.7385 -10.565 6.20147
223 2 -19.3157 8.94227 15.3081
224 3 -20.1717 9.27487 15.5777
225 3 -19.4064 7.99002 15.3427
226 2 15.6797 9.00031 16.1952
227 3 15.6958 8.27848 15.5668
228 3 14.7756 9.02574 16.5084
229 2 -19.9756 6.36512 16.2407
230 3 -19.6236 5.94404 17.0249
231 3 -20.8727 6.03784 16.1746
232 2 14.2551 38.5245 12.9472
233 3 14.3682 37.5741 12.9562
234 3 15.0428 38.8559 12.5161
235 2 15.2976 -3.38467 1.87318
236 3 15.3954 -3.38703 2.82535
237 3 14.6263 -4.04446 1.69924
238 2 -15.2701 -21.5093 23.0324
239 3 -15.1475 -21.1288 22.1627
240 3 -14.6777 -21.013 23.5972
241 2 -8.75531 13.5118 -5.76872
242 3 -9.00688 14.3353 -5.35062
243 3 -7.80519 13.5732 -5.86735
244 2 -1.33347 -15.8367 -4.05182
245 3 -0.469292 -15.9698 -3.66235
246 3 -1.84957 -16.5851 -3.75228
247 2 3.86112 -7.94136 21.9113
248 3 3.37638 -7.12615 22.0405
249 3 3.75021 -8.41928 22.7332
250 2 20.8797 -24.1459 -18.2445
251 3 21.4698 -24.6174 -17.6566
252 3 20.7808 -24.7249 -19.0003
253 2 -8.82839 -29.9964 -18.3533
254 3 -8.17621 -30.5963 -18.7151
255 3 -8.37421 -29.5513 -17.6379
256 2 -20.0967 8.19534 18.6813
257 3 -19.6573 7.59196 19.2805
258 3 -19.7124 8.00591 17.8253
259 2 -18.8754 37.4047 1.98443
260 3 -19.2492 37.4665 1.10541
261 3 -17.9796 37.0984 1.84329
262 2 10.7919 28.1501 -6.90535
263 3 10.4241 27.2666 -6.88425
264 3 10.4847 28.5182 -7.7338
265 2 -7.95338 -43.1866 -22.3099
266 3 -8.141 -42.2485 -22.2798
267 3 -7.71883 -43.3553 -23.2224
268 2 -56.4354 4.61659 -15.7184
269 3 -57.1025 4.94243 -15.1142
270 3 -56.9038 4.00362 -16.2851
271 2 -7.85149 15.4126 17.0662
272 3 -8.77404 15.1739 17.1562
273 3 -7.40357 14.5825 16.9034
274 2 -4.26654 4.22812 10.744
275 3 -4.72597 4.04973 11.5646
276 3 -3.43503 4.61765 11.0143
277 2 24.4459 48.5275 -10.124
278 3 24.6828 49.4383 -10.2987
279 3 24.4246 48.1152 -10.9875
280 2 -19.875 24.2369 19.2698
281 3 -20.7908 24.14 19.5307
282 3 -19.8677 25.0064 18.7006
283 2 -9.98623 15.0454 -1.63687
284 3 -10.7735 14.7829 -1.15987
285 3 -10.0589 14.6024 -2.48223
286 2 -6.91898 16.4878 48.7681
287 3 -6.27124 16.323 49.4533
288 3 -6.67153 15.897 48.0568
289 2 -50.6539 31.7244 49.2968
290 3 -51.0734 30.8656 49.244
291 3 -50.4315 31.8263 50.2222
292 2 19.6067 -18.2751 44.1921
293 3 19.2163 -18.0705 43.3424
294 3 19.8046 -17.4214 44.5771
295 2 21.9017 -0.242493 -7.30688
296 3 21.6489 -0.307439 -8.22779
297 3 21.1415 0.148474 -6.87632
298 2 18.7023 2.39894 40.3045
299 3 18.7119 1.48393 40.0237
300 3 18.739 2.35708 41.2601
301 2 -7.27883 23.7719 9.7167
302 3 -7.90315 23.1839 9.29168
303 3 -7.55927 24.649 9.45553
304 2 -57.4117 40.7887 19.614
305 3 -57.6461 39.8886 19.388
306 3 -58.2509 41.2413 19.6985
307 2 -22.1182 21.1131 45.7036
308 3 -22.5481 21.966 45.7665
309 3 -22.5491 20.5775 46.3698
310 2 -14.3011 3.26597 25.2758
311 3 -14.5538 2.75477 26.0446
312 3 -15.0199 3.88603 25.1531
313 2 -43.0751 -29.99 5.74897
314 3 -43.8202 -30.0697 6.34446
315 3 -43.4592 -30.051 4.87437
316 2 -8.74171 -4.20962 26.4368
317 3 -9.58788 -4.20558 25.9894
318 3 -8.50009 -3.28569 26.5016
319 2 -8.08993 16.8858 40.1552
320 3 -8.03109 16.9202 41.11
321 3 -8.7286 17.5621 39.9296
322 2 -23.2813 2.47907 20.011
323 3 -23.266 1.77563 19.3621
324 3 -23.7149 2.09368 20.7724
325 2 -24.1599 4.62836 12.1945
326 3 -24.7348 3.86322 12.1805
327 3 -24.4101 5.10205 12.9877
328 2 -32.9544 18.6265 8.84937
329 3 -32.8155 18.45 9.77984
330 3 -33.2341 17.7868 8.48495
331 2 16.5517 11.8401 2.94568
332 3 16.642 12.6712 3.41189
333 3 16.8508 11.1803 3.57129
334 2 10.2952 30.7113 -0.306816
335 3 9.74645 30.0858 -0.77989
336 3 10.6475 31.2844 -0.987728
337 2 -49.1572 15.706 49.294
338 3 -48.559 15.5637 50.0277
339 3 -48.9092 16.562 48.9448
340 2 11.3072 18.3305 10.7721
341 3 10.6695 17.7428 10.3669
342 3 10.781 19.0451 11.1307
343 2 -29.335 13.417 40.2051
344 3 -29.107 12.7815 40.8836
345 3 -30.0927 13.8834 40.558
346 2 22.1119 7.21522 4.4591
347 3 21.213 6.9519 4.26173
348 3 22.587 6.39039 4.55959
349 2 -18.0915 -24.9507 41.0532
350 3 -18.5529 -24.1147 40.9872
351 3 -17.8091 -24.9976 41.9665
352 2 24.2025 21.3685 -3.57508
353 3 24.4429 20.4442 -3.63965
354 3 24.5897 21.6601 -2.74965
355 2 -31.6275 37.5311 51.1849
356 3 -32.5462 37.3204 51.3514
357 3 -31.5642 37.5922 50.2318
358 2 -21.2951 -25.3673 -3.23372
359 3 -22.0493 -25.7946 -2.82761
360 3 -21.2615 -25.7303 -4.1188
361 2 40.4602 32.1235 17.9912
362 3 41.0233 32.6367 17.4118
363 3 40.2504 32.7188 18.7108
364 2 -16.9368 20.8353 68.1256
365 3 -16.988 19.8795 68.1211
366 3 -16.5419 21.0505 68.9705
367 2 3.20367 2.33055 30.9561
368 3 3.58382 2.89888 31.626
369 3 3.0833 1.48882 31.3957
370 2 32.1375 -28.7048 -12.9199
371 3 32.0146 -28.3995 -13.8187
372 3 33.068 -28.5654 -12.7442
373 2 37.5757 41.0728 12.5331
374 3 37.4642 40.6327 13.3758
375 3 36.8969 41.7477 12.5232
376 2 -15.9491 21.6854 32.8056
377 3 -16.5616 22.1267 33.3941
378 3 -15.0968 21.781 33.2307
379 2 12.3513 13.8581 32.9278
380 3 12.8541 13.807 33.7407
381 3 11.884 14.6914 32.9866
382 2 -24.4111 33.2353 25.4073
383 3 -24.1198 32.6515 24.7068
384 3 -23.6216 33.407 25.9204
385 2 -2.98184 20.3282 38.2197
386 3 -3.40316 19.4755 38.1119
387 3 -3.54673 20.9369 37.7437
388 2 -3.86537 16.2136 26.1633
389 3 -3.3095 16.4561 25.4227
390 3 -3.28958 15.7138 26.742
391 2 1.50681 -4.74579 12.7677
392 3 1.74308 -4.81827 13.6924
393 3 2.24126 -4.27977 12.3682
394 2 -11.9879 4.64927 25.2736
395 3 -11.9437 5.0163 24.3907
396 3 -12.8485 4.23252 25.3175
397 2 20.598 18.51 14.1423
398 3 21.2394 19.197 14.3236
399 3 20.9733 17.7216 14.5345
400 2 8.83313 13.3686 24.078
401 3 8.66022 12.7246 24.7647
402 3 9.2739 12.8719 23.3887
403 2 -8.61781 34.7294 23.3569
404 3 -8.14305 35.5487 23.497
405 3 -9.08382 34.8603 22.5311
406 2 -17.994 6.77553 20.3118
407 3 -17.8802 6.29757 19.4904
408 3 -18.2835 6.11162 20.9376
409 2 43.3314 8.08432 27.3921
410 3 43.4278 9.01508 27.5936
411 3 43.1322 8.06079 26.4562
412 2 19.044 9.21645 -15.7088
413 3 19.4193 8.86762 -14.9003
414 3 18.727 8.44505 -16.1786
415 2 -59.7425 45.6087 46.5616
416 3 -59.0572 46.1265 46.9841
417 3 -59.5867 44.7135 46.8625
418 2 -53.4276 66.0794 23.603
419 3 -53.2677 67.0079 23.4339
420 3 -53.6307 66.0372 24.5375
421 2 -18.8798 27.9237 26.4488
422 3 -19.0934 27.1458 26.964
423 3 -19.4984 27.9053 25.7186
424 2 35.2682 7.98281 13.9413
425 3 35.6122 8.56917 14.6151
426 3 34.4387 8.38098 13.6774
427 2 -28.6098 43.6798 63.9421
428 3 -28.8322 43.9312 64.8385
429 3 -27.9049 44.2775 63.6931
430 2 -3.95822 29.6268 7.37643
431 3 -3.2381 29.3271 7.93121
432 3 -3.59503 29.6266 6.49082
433 2 -39.1051 7.56985 -11.359
434 3 -38.1927 7.70788 -11.6133
435 3 -39.1957 8.0357 -10.5277
436 2 -14.5893 55.9357 54.1999
437 3 -13.7669 55.6119 53.8323
438 3 -14.9083 55.2163 54.7447
439 2 -11.8518 24.3598 0.507791
440 3 -12.5553 24.2052 -0.122644
441 3 -11.3009 23.5793 0.448693
442 2 -23.6911 64.8959 5.98225
443 3 -23.7744 63.9425 5.96682
444 3 -24.0867 65.1579 6.81355
445 2 20.4588 26.3234 4.00001
446 3 20.6826 26.6428 4.87415
447 3 20.6481 25.3857 4.03133
448 2 34.1794 76.8976 27.5153
449 3 34.3066 77.1753 26.6082
450 3 34.8518 77.369 28.0071
451 2 43.7567 20.878 -7.70949
452 3 43.4259 20.1886 -7.13379
453 3 43.8428 21.6439 -7.14184
454 2 -28.2447 25.7602 -7.18948
455 3 -28.8378 25.1889 -7.67734
456 3 -27.4056 25.2998 -7.19966
457 2 -22.0898 35.7923 30.91
458 3 -21.9645 36.5447 31.4882
459 3 -22.44 35.1074 31.4797
460 2 -11.2277 17.8684 -22.7757
461 3 -11.4546 18.7407 -22.4535
462 3 -11.3664 17.2915 -22.0246
463 2 -20.066 27.0169 7.16689
464 3 -19.4305 27.7328 7.17056
465 3 -20.4146 27.01 6.27546
466 2 -24.6542 8.57994 9.44977
467 3 -23.7358 8.35669 9.29874
468 3 -25.0205 7.80906 9.88318
469 2 -0.92351 14.6373 35.2453
470 3 -0.131075 14.4828 35.7595
471 3 -1.54746 15.0056 35.8708
472 2 -10.3436 40.2625 24.4998
473 3 -10.1523 40.1205 25.4268
474 3 -11.2048 40.6803 24.4937
475 2 4.78503 48.1773 23.4545
476 3 4.31481 48.2181 22.6218
477 3 5.37163 48.9334 23.4362
478 2 -50.3977 73.2659 25.0101
479 3 -49.6951 72.6338 24.8586
480 3 -50.1123 74.0563 24.5519
481 2 8.09167 41.133 -4.7286
482 3 7.74449 41.1427 -5.62056
483 3 7.45975 41.6406 -4.21955
484 2 -16.8566 22.2686 -15.7548
485 3 -16.1935 22.7849 -15.2966
486 3 -17.6774 22.7331 -15.5915
487 2 9.54046 11.9905 -5.01372
488 3 9.20236 11.8206 -4.13448
489 3 9.8304 12.9023 -4.98737
490 2 30.1506 36.0492 7.1772
491 3 29.9918 35.1053 7.18614
492 3 30.9041 36.1603 6.59752
493 2 9.54482 46.3152 5.35677
494 3 10.1552 45.5883 5.48061
495 3 9.03679 46.3427 6.16754
496 2 -28.0038 20.0413 31.525
497 3 -27.426 20.3192 32.2358
498 3 -28.2364 20.8528 31.0737
499 2 -12.0722 25.9768 24.7704
500 3 -11.1445 25.8408 24.5777
501 3 -12.2524 25.3928 25.507
502 2 17.5625 11.5621 96.3353
503 3 16.9276 11.3755 95.6437
504 3 17.957 10.713 96.5344
505 2 13.4349 -6.44048 20.2586
506 3 13.5779 -7.38345 20.3396
507 3 13.2187 -6.30897 19.3355
508 2 1.99074 30.9564 31.5899
509 3 1.27657 30.3405 31.7539
510 3 2.60596 30.4698 31.0413
511 2 -10.2208 45.9974 45.5319
512 3 -10.01 45.5712 46.3626
513 3 -10.3234 46.9223 45.756
514 2 -18.2241 -2.15433 14.9127
515 3 -18.5761 -2.0403 15.7955
516 3 -18.0216 -1.26627 14.6185
517 2 49.2483 7.50679 29.8313
518 3 49.1194 6.85509 29.1422
519 3 49.4026 8.32606 29.361
520 2 7.05045 30.3193 24.0157
521 3 8.00745 30.3263 23.9982
522 3 6.8104 29.4595 23.6703
523 2 -5.26592 -3.05869 3.5828
524 3 -5.23843 -2.33221 4.20544
525 3 -4.73889 -2.75975 2.84181
526 2 21.2279 15.8502 52.3129
527 3 21.5742 15.0047 52.5983
528 3 20.3127 15.6736 52.0952
529 2 -15.4595 34.0722 44.9976
530 3 -15.2908 35.0133 44.9509
531 3 -14.7016 33.7152 45.4606
532 2 -3.44884 73.2104 8.91853
533 3 -4.33907 73.144 9.26391
534 3 -3.14816 74.0761 9.19501
535 2 12.9506 22.6775 -14.5095
536 3 13.4055 23.3935 -14.066
537 3 13.4084 21.8877 -14.2219
538 2 -20.2535 30.9834 8.64722
539 3 -20.7986 31.5285 9.21467
540 3 -19.7786 30.4104 9.24909
541 2 -30.6719 28.8974 27.0099
542 3 -29.8688 28.3982 26.8613
543 3 -30.4778 29.7709 26.67
544 2 -10.5708 49.6738 13.5925
545 3 -10.5955 50.0878 12.7298
546 3 -10.6398 50.4019 14.2101
547 2 -7.80681 -8.39371 0.0826099
548 3 -8.74576 -8.47094 0.251761
549 3 -7.48508 -7.81572 0.774431
550 2 -1.5723 35.065 5.38646
551 3 -1.20558 35.9489 5.4103
552 3 -0.878082 34.5076 5.73795
553 2 20.2264 -15.6583 7.35022
554 3 21.0112 -15.1178 7.25961
555 3 19.5048 -15.0303 7.38228
556 2 -2.91539 56.5364 31.9657
557 3 -2.95001 55.8689 31.2806
558 3 -2.01876 56.8697 31.9309
559 2 48.3631 61.8904 -18.5412
560 3 48.9523 61.1933 -18.2529
561 3 47.5232 61.4528 -18.6796
562 2 -15.6333 71.1956 13.7878
563 3 -15.4999 71.0573 12.8501
564 3 -16.5704 71.3708 13.8736
565 2 -23.3395 26.275 28.8826
566 3 -23.9881 26.2876 29.5865
567 3 -22.6105 26.7964 29.2188
568 2 39.3175 -23.548 36.2586
569 3 38.8782 -23.3513 37.086
570 3 40.2474 -23.4168 36.4436
571 2 -4.13793 59.7313 27.8342
572 3 -4.14478 60.5682 27.3697
573 3 -5.0204 59.3814 27.7114
574 2 -55.1032 29.0577 -8.78789
575 3 -54.4799 28.3315 -8.80819
576 3 -55.7067 28.8761 -9.50831
577 2 -30.9543 47.0435 -3.12587
578 3 -31.3285 46.3654 -3.68835
579 3 -30.0335 46.7985 -3.03478
580 2 -35.6886 22.1145 -18.1598
581 3 -36.388 21.4659 -18.2393
582 3 -35.971 22.6855 -17.4453
583 2 -22.5903 -16.0968 26.4521
584 3 -22.3306 -15.3186 26.9453
585 3 -21.7874 -16.6124 26.3772
586 2 -37.3219 12.1804 17.1035
587 3 -37.5219 13.1127 17.0202
588 3 -37.5192 11.9733 18.017
589 2 13.8455 22.8847 48.7467
590 3 13.9587 23.7725 49.0862
591 3 14.1514 22.9334 47.841
592 2 5.83923 21.1331 19.9014
593 3 5.47373 22.0117 19.7976
594 3 6.73245 21.28 20.2125
595 2 -9.56043 34.158 10.4363
596 3 -9.61802 33.2025 10.4447
597 3 -8.6568 34.3417 10.1796
598 2 7.82514 41.0466 5.18119
599 3 8.5135 40.5473 4.74181
600 3 7.636 40.547 5.97544
601 2 37.8127 38.3064 -22.9998
602 3 37.2332 39.0051 -22.6962
603 3 37.3999 37.5005 -22.6896
604 2 6.63541 57.3487 40.1726
605 3 5.94026 57.8124 39.7057
606 3 6.23853 56.5162 40.4286
607 2 45.7442 65.5891 58.4786
608 3 46.4818 64.9847 58.5621
609 3 45.2908 65.306 57.6846
610 2 -31.8177 24.9028 -27.0056
611 3 -31.8044 25.171 -27.9244
612 3 -31.2801 24.1113 -26.9789
613 2 25.4804 38.1209 23.9056
614 3 26.1338 38.7509 24.2095
615 3 25.7056 37.9653 22.9883
616 2 6.01692 41.6549 10.7778
617 3 5.80756 40.8752 10.2634
618 3 5.47431 42.3459 10.3979
619 2 -30.1015 54.5956 8.02313
620 3 -29.5477 55.2975 8.36494
621 3 -30.5569 54.2531 8.79223
622 2 -11.6784 28.7075 45.2214
623 3 -11.3796 29.6155 45.2695
624 3 -12.5901 28.7697 44.9363
625 2 -15.9748 84.1357 31.6622
626 3 -15.8309 83.9701 30.7305
627 3 -15.7962 83.296 32.0855
628 2 0.201754 38.4022 33.7014
629 3 0.655699 38.9927 34.3025
630 3 -0.0115813 38.9477 32.9444
631 2 11.2868 67.6268 17.7179
632 3 12.2063 67.6064 17.4527
633 3 11.0164 66.7086 17.7169
634 2 25.2729 46.1846 11.6092
635 3 24.6569 46.9081 11.4938
636 3 24.9699 45.7349 12.3979
637 2 -4.07293 41.3702 3.77631
638 3 -4.99405 41.2978 3.52634
639 3 -4.00661 40.877 4.59393
640 2 -8.39935 59.7684 -4.22702
641 3 -8.51904 59.8468 -5.17345
642 3 -9.02478 59.0944 -3.96109
643 2 -10.6356 15.4908 1.40862
644 3 -10.0532 16.0714 1.89839
645 3 -11.5167 15.7934 1.62845
646 2 20.3165 18.3523 26.1377
647 3 19.9762 17.5316 25.7815
648 3 19.9577 18.3962 27.0241
649 2 -70.0047 57.6863 13.8529
650 3 -69.9354 58.4033 13.2226
651 3 -70.3695 58.0924 14.6392
652 2 10.7017 69.4242 -11.7082
653 3 11.5383 69.8342 -11.4891
654 3 10.0636 69.867 -11.1488
655 2 9.18577 27.1837 38.7976
656 3 9.15727 28.0464 39.2114
657 3 8.27251 26.8979 38.7754
658 2 -20.6222 68.9621 35.679
659 3 -20.4027 68.209 35.1305
660 3 -21.2148 69.4866 35.1406
661 2 -29.3217 57.6428 18.1246
662 3 -30.078 57.1735 18.4765
663 3 -29.4701 57.6625 17.1792
664 2 -3.63377 54.1687 7.08403
665 3 -4.25603 54.5543 6.46734
666 3 -3.87619 53.2435 7.12263
667 2 16.5904 -3.25001 42.0784
668 3 15.9934 -3.40718 42.81
669 3 16.7128 -2.30074 42.0683
670 2 16.0117 60.7714 21.547
671 3 15.3885 60.4344 20.9034
672 3 16.3219 59.9937 22.0108
673 2 -23.8489 28.8085 -12.2793
674 3 -24.3239 29.1029 -13.0564
675 3 -23.9255 29.5355 -11.6614
676 2 6.99929 46.9536 0.868646
677 3 7.12464 47.0026 1.81633
678 3 7.3559 47.7775 0.536488
679 2 -18.1411 6.47466 41.3076
680 3 -17.7754 5.80178 40.7335
681 3 -18.8204 6.89607 40.7812
682 2 -7.07146 60.6437 -0.412566
683 3 -6.92975 61.3276 -1.06704
684 3 -6.29198 60.0911 -0.470247
685 2 29.59 36.1892 31.0964
686 3 29.8928 35.3098 31.3224
687 3 28.8605 36.3528 31.694
688 2 -4.80324 -19.3502 -32.6341
689 3 -4.90817 -18.4122 -32.7935
690 3 -5.66519 -19.723 -32.8192
691 2 -39.056 -13.691 58.9523
692 3 -39.2179 -12.9082 59.4787
693 3 -39.7437 -14.303 59.2144
694 2 29.0924 -9.87829 16.998
695 3 28.6064 -9.13191 16.6473
696 3 29.8446 -9.48742 17.4426
697 2 -37.2153 12.1016 30.9759
698 3 -37.6303 11.2397 31.0087
699 3 -36.6081 12.1038 31.7159
700 2 -37.1153 8.14126 12.499
701 3 -36.7711 7.25029 12.4367
702 3 -37.875 8.06521 13.0763
703 2 -1.27754 10.6194 36.4081
704 3 -2.0069 11.2345 36.3311
705 3 -0.666633 10.8843 35.7205
706 2 17.6527 -32.613 42.8293
707 3 18.0028 -31.8358 42.3939
708 3 18.3312 -33.2783 42.7149
709 2 -15.2119 19.1288 6.96056
710 3 -16.1372 19.172 6.71945
711 3 -14.978 18.2072 6.85023
712 2 31.1392 5.69013 -1.27604
713 3 31.2934 5.01851 -0.611681
714 3 31.5185 5.32738 -2.07652
715 2 -26.953 -10.3888 6.57759
716 3 -26.4401 -9.8979 7.21958
717 3 -26.7525 -11.3065 6.76132
718 2 16.4806 -14.2484 34.4048
719 3 16.2649 -14.5883 33.5363
720 3 16.7926 -13.358 34.2433
721 2 19.1942 -3.49932 40.6702
722 3 18.3353 -3.84322 40.9155
723 3 19.7845 -3.81909 41.3526
724 2 24.8961 -19.1814 19.5755
725 3 24.7502 -19.9774 20.0867
726 3 25.4873 -18.6554 20.114
727 2 -41.5777 2.42772 6.26897
728 3 -42.0693 2.2659 7.0742
729 3 -40.6599 2.34058 6.52646
730 2 -4.13882 0.533431 12.0225
731 3 -4.95741 0.044401 11.9391
732 3 -3.89819 0.443158 12.9445
733 2 -45.6227 -1.28959 35.6935
734 3 -44.8439 -1.84523 35.6632
735 3 -45.3668 -0.492206 35.23
736 2 -6.16824 0.391599 32.0713
737 3 -5.74648 -0.393736 32.42
738 3 -6.50172 0.12469 31.2147
739 2 -16.6994 3.68152 54.1199
740 3 -17.4635 3.12381 53.9737
741 3 -16.1236 3.15837 54.6776
742 2 -27.1278 -23.7195 59.0176
743 3 -26.663 -23.487 58.2138
744 3 -27.7739 -24.3696 58.7418
745 2 42.0078 35.6641 20.6181
746 3 42.0566 35.8307 19.6768
747 3 42.9111 35.4811 20.8765
748 2 16.6557 -10.1594 20.3551
749 3 17.3874 -10.1261 19.7389
750 3 16.9413 -9.62467 21.0958
751 2 29.7175 33.4958 41.088
752 3 29.0395 34.1322 40.861
753 3 30.5412 33.9434 40.895
754 2 13.2223 11.1032 40.9289
755 3 12.7081 11.1138 41.7362
756 3 13.7551 11.8971 40.9732
757 2 -38.2399 -16.595 19.9195
758 3 -38.6156 -17.4035 19.5713
759 3 -38.8778 -15.9177 19.6948
760 2 18.999 15.7451 48.6306
761 3 19.8741 15.6423 49.0045
762 3 19.1534 16.0759 47.7457
763 2 39.3608 15.67 22.6514
764 3 39.2154 16.6052 22.7944
765 3 38.5108 15.3361 22.3646
766 2 -20.4438 -6.01108 41.3622
767 3 -21.233 -6.39005 40.9751
768 3 -20.7459 -5.20668 41.784
769 2 -23.7046 -2.92393 28.7272
770 3 -24.0532 -3.75697 29.0446
771 3 -22.9423 -2.75609 29.2813
772 2 -39.9743 35.8899 16.7667
773 3 -40.0101 36.8444 16.8287
774 3 -40.8592 35.6016 16.9904
775 2 35.2691 5.20863 33.5968
776 3 34.5863 5.24897 34.2663
777 3 36.0717 5.02138 34.0836
778 2 -20.4845 20.0392 27.7666
779 3 -20.4545 19.0825 27.7657
780 3 -19.8628 20.2995 27.0869
781 2 5.13134 38.1076 5.66637
782 3 4.41514 38.6956 5.90627
783 3 4.94762 37.2985 6.14354
784 2 13.7651 -4.88211 9.81848
785 3 13.3397 -4.28807 9.20018
786 3 14.3518 -4.32089 10.3255
787 2 -35.5117 -2.2766 16.1987
788 3 -35.6585 -3.20807 16.0343
789 3 -36.2821 -1.84365 15.8308
790 2 25.1151 35.8464 43.728
791 3 25.3396 36.6468 43.2536
792 3 24.3709 36.0935 44.277
793 2 0.359372 -20.986 30.5755
794 3 0.173411 -21.3674 29.7175
795 3 0.0203489 -20.0926 30.5196
796 2 9.87973 12.0154 10.7857
797 3 9.91934 11.0591 10.7724
798 3 10.7808 12.2952 10.6244
799 2 34.7359 17.7597 9.35758
800 3 33.8515 17.9215 9.68594
801 3 34.6033 17.3606 8.49772
802 2 22.2152 30.6862 8.42771
803 3 22.7372 29.9919 8.02562
804 3 22.8604 31.3156 8.74972
805 2 -49.6282 -22.571 24.1475
806 3 -48.8536 -22.0171 24.2444
807 3 -50.2741 -22.1859 24.7398
808 2 -2.75484 63.5801 13.9912
809 3 -3.41033 63.1402 14.5325
810 3 -3.22408 63.8172 13.1913
811 2 -47.5619 22.7971 8.532
812 3 -47.0861 22.7545 7.70251
813 3 -48.4119 22.4003 8.34179
814 2 1.05904 -2.18491 47.8703
815 3 0.755286 -1.4568 48.4123
816 3 1.80821 -2.54257 48.3468
817 2 -47.6837 53.2561 19.0494
818 3 -48.3708 53.489 18.4251
819 3 -48.0428 52.5141 19.5358
820 2 -45.0084 54.3502 19.5502
821 3 -45.3093 54.0457 18.6941
822 3 -45.5324 53.8541 20.1791
823 2 -5.79054 10.8634 31.4345
824 3 -6.26437 10.4379 32.1491
825 3 -5.96553 10.3144 30.6702
826 2 20.5376 4.44785 2.18144
827 3 21.435 4.24727 2.44749
828 3 20.056 3.63386 2.32873
829 2 -24.2902 -6.91298 64.8774
830 3 -23.4973 -7.20078 65.3298
831 3 -24.7214 -6.32618 65.4987
832 2 -2.05029 20.9105 29.1666
833 3 -2.81727 21.2626 28.7149
834 3 -1.77851 21.6109 29.7597
835 2 2.55038 14.7661 33.8341
836 3 2.06624 14.4081 34.5782
837 3 3.34661 15.1318 34.2194
838 2 4.02247 69.852 2.51602
839 3 3.96674 69.9727 1.56811
840 3 4.67269 70.4937 2.80182
841 2 40.0676 43.6401 -12.2233
842 3 40.9096 44.0234 -12.4688
843 3 40.1261 43.5194 -11.2755
844 2 41.3703 3.90045 34.7669
845 3 41.2979 4.78973 35.1135
846 3 41.6686 4.01797 33.8649
847 2 -20.2701 71.4171 16.4775
848 3 -21.2163 71.5559 16.5174
849 3 -19.9566 71.648 17.3519
850 2 -12.9539 10.6535 17.6292
851 3 -13.0676 9.97378 18.2935
852 3 -13.1269 10.2093 16.7992
853 2 20.0642 29.2789 16.942
854 3 20.8004 29.5287 16.3836
855 3 19.357 29.871 16.686
856 2 -4.79964 28.7909 -16.5197
857 3 -5.65434 28.3791 -16.6465
858 3 -4.98729 29.7291 -16.4903
859 2 -5.42395 -0.80027 5.45191
860 3 -4.60283 -0.348781 5.64718
861 3 -5.89703 -0.199607 4.87606
862 2 -40.1168 21.9263 16.1891
863 3 -39.6287 21.1029 16.1771
864 3 -39.6294 22.5027 15.6006
865 2 10.5772 -2.64474 33.5151
866 3 10.7294 -2.19762 32.6826
867 3 10.8115 -1.9983 34.181
868 2 -21.1813 11.1539 13.7917
869 3 -22.0516 10.8475 13.5369
870 3 -20.5865 10.7269 13.1752
871 2 36.8061 42.7315 8.8658
872 3 37.5209 43.3578 8.97933
873 3 36.0813 43.2541 8.52279
874 2 -10.1082 29.1537 30.8406
875 3 -11.0629 29.0933 30.8088
876 3 -9.8377 29.1646 29.9225
877 2 17.4137 56.6695 8.17828
878 3 18.2016 56.6432 7.63541
879 3 16.9187 57.4186 7.84672
880 2 -14.9021 58.1813 9.28664
881 3 -14.9191 57.7483 8.43315
882 3 -14.4437 57.5659 9.85882
883 2 4.12151 1.43352 -16.7022
884 3 4.93297 1.74708 -17.1015
885 3 4.28162 0.505631 -16.5302
886 2 -20.8151 22.3247 12.8373
887 3 -21.1339 23.0615 13.3586
888 3 -20.3242 22.7308 12.1229
889 2 -35.9745 28.6459 20.0688
890 3 -35.2888 28.8589 20.7018
891 3 -36.7479 29.1116 20.387
892 2 2.23585 -3.96354 20.1438
893 3 2.26747 -4.50626 20.9316
894 3 2.94495 -3.33108 20.2595
895 2 -21.59 27.665 51.2668
896 3 -21.9468 26.8338 50.9537
897 3 -22.2062 28.3253 50.9496
898 2 33.8918 63.4492 1.14651
899 3 34.8096 63.7135 1.20971
900 3 33.4557 63.9255 1.85304
901 2 25.9736 49.864 24.2337
902 3 25.5588 49.873 25.0963
903 3 26.1453 50.7856 24.0403
904 2 18.5529 37.6647 11.6455
905 3 17.847 38.3079 11.7103
906 3 18.1316 36.8806 11.2934
907 2 29.0812 21.3539 -13.9273
908 3 29.9089 21.8302 -13.9937
909 3 28.4083 22.0252 -14.0407
910 2 -11.6393 21.1413 41.131
911 3 -10.7167 21.0654 41.3746
912 3 -12.0953 20.5513 41.7311
913 2 37.9578 11.4079 44.6254
914 3 37.03 11.6392 44.5829
915 3 38.0036 10.5289 44.2494
916 2 27.5748 57.7551 -3.15349
917 3 27.5907 57.9211 -2.21095
918 3 27.7787 56.8235 -3.23657
919 2 -5.38938 20.3874 31.7098
920 3 -4.51419 20 31.6966
921 3 -5.9126 19.8175 31.1461
922 2 0.409647 -9.69596 52.1443
923 3 1.338 -9.50568 52.279
924 3 0.195833 -9.27145 51.3134
925 2 1.68752 -2.08641 -10.3198
926 3 0.971058 -2.71946 -10.366
927 3 2.06428 -2.08568 -11.1997
928 2 1.57344 0.328083 23.7375
929 3 2.00364 1.18163 23.6866
930 3 1.08943 0.35207 24.5629
931 2 -34.6373 44.9805 -16.1138
932 3 -35.3976 45.2227 -15.5851
933 3 -34.2045 44.2912 -15.6101
934 2 -5.03273 24.2273 7.73598
935 3 -4.28607 23.666 7.9451
936 3 -5.73204 23.9214 8.31359
937 2 25.8207 20.7735 -7.89671
938 3 25.4379 20.0858 -8.44141
939 3 25.1208 21.4189 -7.79777
940 2 -3.45867 51.9378 56.1157
941 3 -3.46381 51.1605 56.6743
942 3 -3.93825 52.597 56.6174
943 2 -7.20417 77.903 10.2065
944 3 -6.33735 77.5841 9.95536
945 3 -7.03941 78.4895 10.9448
946 2 14.03 2.53918 5.90455
947 3 13.0777 2.4781 5.97829
948 3 14.2387 2.07084 5.09626
949 2 7.86236 11.8912 37.8438
950 3 7.26362 12.5907 37.5824
951 3 8.30779 12.2336 38.6188
952 2 13.7991 27.6316 -2.34995
953 3 14.4613 27.0786 -1.93538
954 3 13.4913 28.2048 -1.64785
955 2 15.2267 -13.6326 -10.3184
956 3 14.9015 -13.2455 -9.50562
957 3 14.6928 -13.2329 -11.005
958 2 9.2586 32.3053 -16.1989
959 3 9.03266 31.6665 -16.875
960 3 8.49865 32.8855 -16.1534
961 2 -30.2127 28.5371 7.69622
962 3 -29.9673 27.7369 7.23183
963 3 -29.7568 28.4768 8.53573
964 2 -19.7708 25.7134 71.6737
965 3 -19.8014 26.0239 72.5787
966 3 -19.2115 24.9373 71.7051
967 2 -28.7726 55.1369 14.0372
968 3 -29.2111 55.3458 13.2124
969 3 -27.8402 55.1386 13.8205
970 2 -45.7535 4.14327 16.5931
971 3 -46.4159 4.61366 16.087
972 3 -45.4141 4.79398 17.2076
973 2 17.2146 17.1811 -10.2416
974 3 16.2836 17.0314 -10.0774
975 3 17.361 16.8384 -11.1233
976 2 -43.072 60.4418 -7.28188
977 3 -43.0582 59.7623 -6.60791
978 3 -42.2092 60.3897 -7.69301
979 2 -33.4934 25.149 14.0355
980 3 -34.4281 25.101 14.2358
981 3 -33.1991 24.2382 14.044
982 2 -23.6649 35.7036 12.8597
983 3 -24.0595 35.1786 13.5559
984 3 -23.0238 35.1204 12.4533
985 2 -43.4907 47.8655 53.5178
986 3 -43.6031 47.0675 53.0013
987 3 -44.0777 47.7522 54.2653
988 2 -32.7362 17.5908 40.8803
989 3 -33.4379 17.6614 40.2331
990 3 -32.4078 16.6971 40.7818
991 2 18.3898 20.1773 13.1213
992 3 18.041 19.6256 12.4211
993 3 17.7829 20.9158 13.1698
994 2 -11.2741 41.0973 -7.82548
995 3 -10.6805 41.0298 -7.07766
996 3 -11.6543 40.2229 -7.9099
997 2 56.3312 15.846 44.988
998 3 56.8258 16.5147 45.4616
999 3 55.603 15.6287 45.5701
1000 2 -40.3551 36.1949 61.8538
1001 3 -39.783 35.5684 61.4106
1002 3 -39.9372 36.3431 62.7021
1003 2 -22.6895 41.0173 -14.0588
1004 3 -22.0921 41.7314 -13.8367
1005 3 -23.5375 41.4436 -14.1827
1006 2 -1.10886 -3.43331 8.41163
1007 3 -0.545937 -2.88571 8.95885
1008 3 -1.92271 -2.93592 8.33132
1009 2 -43.8349 44.2556 8.64576
1010 3 -44.4278 44.5904 7.97297
1011 3 -43.9199 43.3039 8.58846
1012 2 -56.2508 27.394 18.8519
1013 3 -55.8383 26.6543 18.4059
1014 3 -56.0575 28.1481 18.295
1015 2 2.05281 26.172 -18.6599
1016 3 1.44634 26.1688 -19.4004
1017 3 1.89877 27.0117 -18.2271
1018 2 -3.4931 40.0074 24.9448
1019 3 -3.99167 40.8113 24.7985
1020 3 -3.92155 39.3551 24.3906
1021 2 -14.3915 22.5469 42.3195
1022 3 -13.4373 22.5577 42.2442
1023 3 -14.5581 22.2681 43.2199
1024 2 -6.19318 50.6934 16.5907
1025 3 -5.56742 51.1671 16.0428
1026 3 -6.5209 49.9913 16.0287
1027 2 10.2983 -20.9449 40.3134
1028 3 10.3433 -21.7193 40.8741
1029 3 9.71251 -20.3465 40.7771
1030 2 24.9537 -5.31949 27.2554
1031 3 24.5474 -6.17333 27.404
1032 3 25.719 -5.31455 27.8303
1033 2 19.8701 57.7697 85.0242
1034 3 20.5602 58.3713 84.7449
1035 3 20.0752 57.5772 85.9391
1036 2 42.5365 61.4341 39.7618
1037 3 42.6547 61.8477 40.6168
1038 3 42.0176 62.0631 39.2605
1039 2 -34.7378 39.4677 7.13311
1040 3 -35.3992 40.1349 7.31679
1041 3 -35.1952 38.636 7.25659
1042 2 -28.3954 28.4587 -1.33637
1043 3 -28.4496 27.868 -0.585105
1044 3 -28.5203 27.8914 -2.09715
1045 2 -7.39856 3.95222 7.74563
1046 3 -6.514 3.73212 7.45357
1047 3 -7.45543 3.59266 8.63089
1048 2 33.3993 71.2608 43.8519
1049 3 34.1057 71.4101 43.2235
1050 3 33.435 72.0173 44.4373
1051 2 -35.6104 28.9887 1.92559
1052 3 -34.7317 28.6301 2.05023
1053 3 -35.8176 28.8032 1.00968
1054 2 -16.0041 51.206 61.2045
1055 3 -16.9134 51.2078 60.9055
1056 3 -15.6059 51.9581 60.7663
1057 2 -18.6341 31.0762 38.5018
1058 3 -19.0831 30.7028 39.2603
1059 3 -19.2151 31.7739 38.1986
1060 2 38.0879 46.1821 9.38542
1061 3 38.9729 46.5337 9.48175
1062 3 37.5132 46.9144 9.60856
1063 2 18.4929 18.2584 23.3957
1064 3 17.9901 18.0005 22.6232
1065 3 19.1309 18.8914 23.0665
1066 2 35.0403 43.8202 17.3199
1067 3 35.304 43.2045 18.0037
1068 3 35.4826 43.5066 16.531
1069 2 43.5935 42.0351 13.9501
1070 3 43.7981 42.1303 13.0199
1071 3 44.0721 41.2521 14.2222
1072 2 22.3577 28.962 14.353
1073 3 21.7131 29.6307 14.1217
1074 3 21.897 28.132 14.2305
1075 2 69.7953 28.0665 -24.2067
1076 3 69.7082 27.1975 -24.5984
1077 3 68.9403 28.476 -24.3386
1078 2 33.3212 -20.0093 16.9774
1079 3 32.7304 -19.9738 16.2251
1080 3 33.895 -19.2511 16.8679
1081 2 -23.39 59.8109 16.2385
1082 3 -23.2223 60.7242 16.0063
1083 3 -24.3215 59.6846 16.0582
1084 2 17.7391 33.5542 38.1944
1085 3 18.3289 33.9144 38.8566
1086 3 16.8987 33.4658 38.6441
1087 2 -40.415 69.5401 31.2522
1088 3 -39.6169 69.4288 30.7356
1089 3 -40.6335 70.4674 31.1595
1090 2 -20.378 17.9465 -0.101157
1091 3 -21.1523 17.4953 0.235009
1092 3 -20.3692 18.7848 0.36085
1093 2 0.746948 39.1161 -8.91249
1094 3 1.26791 38.5828 -8.31215
1095 3 0.981762 40.0187 -8.6971
1096 2 54.2469 -5.49383 -7.83357
1097 3 54.8013 -5.90777 -7.17218
1098 3 54.1777 -6.14583 -8.53093
1099 2 12.3921 28.9512 -0.229156
1100 3 11.5343 29.375 -0.254646
1101 3 12.3427 28.354 0.517297
1102 2 16.2752 30.2135 -9.82963
1103 3 16.4022 29.3071 -9.54937
1104 3 16.7777 30.2864 -10.6411
1105 2 -12.9073 34.0731 18.6771
1106 3 -13.7962 34.3584 18.4659
1107 3 -12.3456 34.5914 18.1009
1108 2 -8.6675 -17.4031 20.1847
1109 3 -8.29512 -16.5268 20.086
1110 3 -8.05487 -17.8607 20.7604
1111 2 27.7613 27.6364 43.0304
1112 3 27.7108 28.2963 42.3388
1113 3 27.3056 28.0322 43.7733
1114 2 19.6317 34.1333 21.4641
1115 3 19.3061 33.5794 20.7546
1116 3 19.2194 33.7806 22.2526
1117 2 -55.1536 46.4233 24.6722
1118 3 -54.6549 47.2076 24.9011
1119 3 -56.0045 46.5489 25.0921
1120 2 -43.9703 30.448 26.3379
1121 3 -44.8237 30.446 26.7713
1122 3 -43.4747 29.759 26.7806
1123 2 9.9616 20.4334 24.1937
1124 3 10.314 21.2226 24.605
1125 3 10.2176 20.5071 23.2743
1126 2 -12.116 41.6551 -2.33086
1127 3 -12.3062 42.1897 -3.10174
1128 3 -11.3964 42.1109 -1.89426
1129 2 25.9714 85.0572 31.4957
1130 3 26.4496 84.4027 32.0048
1131 3 25.4023 84.5454 30.921
1132 2 -1.2367 5.36632 3.52271
1133 3 -0.661242 5.97842 3.06402
1134 3 -1.56051 5.86004 4.2761
1135 2 15.9654 14.8668 42.5678
1136 3 16.3291 14.2067 43.1578
1137 3 15.4812 15.4607 43.1414
1138 2 -4.65763 37.0528 29.2993
1139 3 -4.09532 37.7757 29.021
1140 3 -4.10169 36.5223 29.87
1141 2 -6.8639 65.1312 -9.20821
1142 3 -7.05587 64.2676 -8.84257
1143 3 -6.68826 65.6813 -8.44489
1144 2 41.0528 44.6257 31.846
1145 3 41.1158 44.9771 30.9579
1146 3 41.7518 45.0667 32.3288
1147 2 37.8222 11.586 28.2269
1148 3 38.1009 11.8549 29.1023
1149 3 38.1805 10.7047 28.1212
1150 2 -9.98083 -10.4673 19.6316
1151 3 -9.47013 -10.2475 18.8524
1152 3 -10.4351 -9.65568 19.8576
1153 2 2.10389 10.8272 24.4694
1154 3 3.05881 10.8049 24.4074
1155 3 1.90603 11.6976 24.815
1156 2 -40.0045 25.6158 4.96731
1157 3 -40.6988 24.9998 4.73324
1158 3 -39.9544 26.2151 4.2227
1159 2 -63.5043 22.3035 30.2181
1160 3 -63.1302 21.7947 30.9374
1161 3 -63.1707 21.8812 29.4265
1162 2 -30.422 13.5809 -32.4952
1163 3 -30.8374 12.8275 -32.9148
1164 3 -30.8548 13.6505 -31.6442
1165 2 -43.7577 34.452 36.4567
1166 3 -44.3171 34.3136 37.221
1167 3 -43.7196 33.5965 36.0291
1168 2 -26.2018 -9.21149 12.028
1169 3 -26.5579 -8.49306 11.5053
1170 3 -26.71 -9.19318 12.8389
1171 2 -42.7785 56.3205 63.8615
1172 3 -42.1092 56.7323 63.315
1173 3 -42.5045 55.4058 63.9282
1174 2 -9.33329 75.9857 12.9563
1175 3 -8.92322 76.7108 13.4278
1176 3 -8.60119 75.51 12.564
1177 2 -1.74658 51.1882 30.5688
1178 3 -0.882561 50.7797 30.6215
1179 3 -1.74873 51.8367 31.2728
1180 2 11.9918 11.983 36.1964
1181 3 11.0904 11.9713 35.8747
1182 3 11.9239 11.7076 37.1107
1183 2 -8.47355 28.6321 12.9154
1184 3 -8.84052 27.8979 12.4231
1185 3 -9.22821 29.1834 13.1224
1186 2 55.0589 43.3203 37.0115
1187 3 54.5486 43.5456 37.7894
1188 3 54.9773 42.3694 36.9381
1189 2 16.5765 72.8705 23.834
1190 3 17.2608 73.524 23.6892
1191 3 16.232 73.0724 24.7039
1192 2 34.1041 49.429 54.216
1193 3 33.1896 49.1503 54.1704
1194 3 34.0622 50.3468 54.4845
1195 2 -15.1751 -3.07848 17.2501
1196 3 -15.7066 -3.32759 18.0061
1197 3 -15.1554 -3.86277 16.7017
1198 2 0.169831 19.2575 31.977
1199 3 0.357949 18.4924 32.5206
1200 3 0.644557 19.9739 32.3984
1201 2 -35.1741 49.6768 -4.81987
1202 3 -35.4997 49.0399 -4.18384
1203 3 -35.2129 50.5158 -4.36069
1204 2 -7.29274 -0.291913 -14.219
1205 3 -7.825 -0.032665 -14.9711
1206 3 -6.39335 -0.0985074 -14.4833
1207 2 -44.5711 -4.47873 -27.3891
1208 3 -44.7005 -4.9809 -26.5845
1209 3 -44.5386 -5.1389 -28.0814
1210 2 41.3247 33.3949 29.1332
1211 3 40.4932 33.2369 29.5803
1212 3 41.8866 32.6704 29.4082
1213 2 -22.1846 0.972019 45.3828
1214 3 -21.7028 1.67427 45.8198
1215 3 -22.6652 1.41125 44.6812
1216 2 22.37 -7.89541 36.3421
1217 3 22.3742 -7.62202 35.4247
1218 3 21.8532 -7.22548 36.7897
1219 2 8.93575 22.8978 -2.54841
1220 3 8.17327 23.2787 -2.11285
1221 3 8.87518 21.9608 -2.36238
1222 2 10.3032 29.2487 -9.51165
1223 3 10.8236 29.614 -10.2272
1224 3 9.75141 29.975 -9.22124
1225 2 -1.66 37.9572 -7.67035
1226 3 -1.9882 38.3088 -6.84277
1227 3 -0.833562 38.4177 -7.81579
1228 2 -5.13504 35.7636 14.632
1229 3 -4.53854 36.5122 14.6303
1230 3 -5.28158 35.5756 15.5591
1231 2 15.5065 -18.1831 19.1026
1232 3 15.8532 -18.1779 18.2104
1233 3 16.1832 -18.6192 19.6205
1234 2 -23.5412 15.5303 12.5928
1235 3 -23.3983 16.103 11.8392
1236 3 -22.7932 14.9332 12.5857
1237 2 -53.1899 -24.2673 52.949
1238 3 -52.5136 -24.2141 52.2737
1239 3 -52.7259 -24.0917 53.7676
1240 2 8.45006 -13.0656 22.9426
1241 3 8.46579 -13.221 23.8869
1242 3 8.36628 -13.9377 22.5572
1243 2 -2.32083 25.9886 22.9386
1244 3 -1.71403 25.6204 23.5809
1245 3 -2.01558 26.8862 22.8072
1246 2 -18.0579 15.7344 24.623
1247 3 -18.7392 16.3751 24.4191
1248 3 -17.3985 15.86 23.9406
1249 2 -20.7617 24.7655 24.3322
1250 3 -20.7796 25.6874 24.5891
1251 3 -20.1724 24.7379 23.5784
1252 2 39.5927 -9.67529 -11.0671
1253 3 39.8293 -10.5981 -10.9742
1254 3 40.3857 -9.25664 -11.4017
1255 2 -9.59198 -12.7436 40.6614
1256 3 -10.2927 -12.1165 40.8402
1257 3 -8.94519 -12.5831 41.3485
1258 2 -18.4788 -4.57448 51.75
1259 3 -19.4164 -4.67861 51.5874
1260 3 -18.4025 -3.72039 52.1753
1261 2 14.9558 49.1657 38.3445
1262 3 13.9989 49.1458 38.3561
1263 3 15.2011 49.4315 39.2307
1264 2 40.0663 43.4397 -24.3494
1265 3 40.3834 42.5725 -24.0972
1266 3 40.6048 44.0485 -23.844
1267 2 1.4253 55.9584 60.8383
1268 3 0.853752 56.1641 61.5781
1269 3 2.24112 56.4211 61.0295
1270 2 -4.11613 24.7072 26.4548
1271 3 -4.0616 24.8754 25.5141
1272 3 -4.18156 25.5763 26.8506
1273 2 -62.6216 6.15457 39.5422
1274 3 -62.5709 5.88188 40.4583
1275 3 -63.558 6.15568 39.3436
1276 2 -33.5701 36.4514 18.19
1277 3 -34.4836 36.4201 17.9058
1278 3 -33.1677 37.1165 17.6315
1279 2 -19.3327 9.97636 49.6949
1280 3 -19.7137 9.16282 50.0254
1281 3 -18.4672 10.0185 50.1014
1282 2 31.4554 17.939 -4.37901
1283 3 31.4778 18.8958 -4.39773
1284 3 31.3782 17.6828 -5.29802
1285 2 2.27665 21.6009 11.176
1286 3 2.64677 21.6937 10.2981
1287 3 1.63291 22.3063 11.2408
1288 2 21.466 -12.8114 35.5893
1289 3 21.5129 -11.8946 35.3183
1290 3 22.3723 -13.0512 35.7827
1291 2 -38.8222 -3.95817 12.9852
1292 3 -39.1545 -4.20826 12.1231
1293 3 -37.9216 -4.28208 12.9985
1294 2 -3.15369 48.4278 -4.95198
1295 3 -4.00807 48.1058 -5.23929
1296 3 -3.35524 49.0622 -4.26413
1297 2 -23.2229 1.61213 -11.9122
1298 3 -24.1765 1.58106 -11.835
1299 3 -23.0611 2.19564 -12.6536
1300 2 10.5485 29.6992 4.65631
1301 3 10.2034 29.1734 5.37789
1302 3 9.77785 29.9303 4.13776
1303 2 19.9283 22.8858 15.5402
1304 3 19.8976 21.9676 15.8089
1305 3 20.5129 22.8947 14.7824
1306 2 -8.89301 24.4467 13.4276
1307 3 -8.37693 24.7159 14.1875
1308 3 -9.79106 24.6945 13.6475
1309 2 -6.22313 28.5625 45.4188
1310 3 -6.42604 28.9232 46.2819
1311 3 -5.42678 29.0198 45.1488
1312 2 -70.7446 14.45 48.6876
1313 3 -70.4835 13.5357 48.5774
1314 3 -70.7724 14.579 49.6357
1315 2 8.02674 8.39246 12.0209
1316 3 8.54955 7.59072 12.031
1317 3 7.13554 8.10024 12.2122
1318 2 19.0299 -27.885 31.8579
1319 3 19.2742 -26.9617 31.7943
1320 3 19.86 -28.3448 31.9833
1321 2 15.9035 4.32256 32.6327
1322 3 15.6732 4.02153 33.5116
1323 3 16.7843 4.6854 32.7264
1324 2 -15.7186 6.58431 -13.5236
1325 3 -16.1801 7.42154 -13.4755
1326 3 -15.039 6.64595 -12.8524
1327 2 -42.9857 -6.8339 38.8125
1328 3 -42.4635 -6.4826 39.5337
1329 3 -43.5488 -6.10669 38.5476
1330 2 -6.64785 3.50423 2.97963
1331 3 -7.19093 4.28079 3.11463
1332 3 -6.52131 3.46169 2.03179
1333 2 4.56581 46.8037 36.801
1334 3 5.40765 46.6258 37.2203
1335 3 4.78128 46.9396 35.8783
1336 2 10.3507 51.7265 26.1654
1337 3 9.73295 51.396 25.5132
1338 3 11.0959 51.1279 26.1152
1339 2 11.4504 7.21638 26.2831
1340 3 12.3514 7.19566 25.9607
1341 3 11.4135 6.51856 26.9372
1342 2 24.2601 -3.75038 79.6282
1343 3 24.3509 -3.07676 80.3022
1344 3 24.4649 -4.56971 80.0787
1345 2 7.98571 54.484 -7.51408
1346 3 8.27508 55.0009 -8.26597
1347 3 7.99379 53.5795 -7.8272
1348 2 40.9836 40.899 51.6187
1349 3 41.8651 41.2586 51.5194
1350 3 40.7106 40.6829 50.727
1351 2 -38.2995 18.7777 28.1063
1352 3 -38.0378 18.8355 27.1874
1353 3 -38.7835 19.5872 28.2694
1354 2 -9.43049 31.6557 18.7207
1355 3 -9.57196 31.1632 17.9122
1356 3 -8.54555 31.4162 18.9958
1357 2 -29.79 19.8396 15.2072
1358 3 -29.4525 19.0307 14.8225
1359 3 -30.5925 20.0214 14.7182
1360 2 -4.56788 -9.42938 23.796
1361 3 -4.68009 -9.0929 22.9069
1362 3 -4.80786 -10.354 23.7347
1363 2 1.27353 2.84295 38.0969
1364 3 0.496277 3.38336 38.2385
1365 3 1.35146 2.77933 37.145
1366 2 -19.6748 35.2494 48.1824
1367 3 -19.7034 35.3164 47.2279
1368 3 -19.0158 34.5774 48.3562
1369 2 32.9141 77.4542 8.95802
1370 3 33.2215 78.2622 9.36901
1371 3 33.649 76.8469 9.04345
1372 2 -29.7195 28.8202 -6.33973
1373 3 -28.8612 28.4674 -6.57425
1374 3 -30.3344 28.1193 -6.55646
1375 2 6.44262 29.7797 37.1648
1376 3 6.19596 30.3671 36.4504
1377 3 7.34677 29.5325 36.9709
1378 2 32.6842 47.7335 40.9292
1379 3 32.0694 48.3688 41.296
1380 3 32.1946 46.9113 40.9064
1381 2 -2.91787 -1.87873 2.34553
1382 3 -3.08365 -1.62628 1.43724
1383 3 -2.19595 -1.31495 2.62337
1384 2 13.3073 10.3917 -14.2242
1385 3 13.1506 9.5775 -14.7026
1386 3 13.9943 10.1719 -13.595
1387 2 71.8012 -2.07343 -16.8396
1388 3 71.8369 -1.13052 -17.0004
1389 3 72.6108 -2.41279 -17.2211
1390 2 12.8484 15.4807 25.6542
1391 3 12.9355 15.9237 24.8102
1392 3 11.9298 15.2143 25.6917
1393 2 -21.7232 31.3152 55.9453
1394 3 -21.5483 31.3768 56.8843
1395 3 -22.1706 32.1336 55.7303
1396 2 -4.95363 16.3741 -24.5389
1397 3 -4.55377 17.1779 -24.871
1398 3 -5.57824 16.6722 -23.8777
1399 2 -27.4439 27.4106 16.7992
1400 3 -26.8488 26.6807 16.9705
1401 3 -28.2153 27.2219 17.3336
1402 2 5.81765 37.6267 23.2274
1403 3 6.61638 37.1022 23.2834
1404 3 6.12781 38.5295 23.157
1405 2 5.06239 12.3818 16.14
1406 3 5.76402 12.015 15.602
1407 3 5.51303 12.9374 16.7759
1408 2 -10.7042 4.15616 -28.5372
1409 3 -10.2544 4.88477 -28.1094
1410 3 -10.7979 3.49569 -27.8508
1411 2 -36.529 17.1765 0.0659967
1412 3 -37.3161 17.605 -0.270224
1413 3 -36.8053 16.7821 0.893256
1414 2 -32.8247 27.9055 -35.2027
1415 3 -32.2239 27.4463 -35.7896
1416 3 -32.4107 28.7553 -35.0523
1417 2 12.3142 16.5989 7.83209
1418 3 12.2539 16.6791 6.88018
1419 3 11.4278 16.3683 8.11013
1420 2 -38.4086 20.6204 40.2874
1421 3 -39.1114 20.7247 39.646
1422 3 -38.5997 21.273 40.9611
1423 2 29.49 25.0597 -8.70253
1424 3 29.224 24.5058 -9.43645
1425 3 29.8919 24.455 -8.07881
1426 2 8.35088 9.84189 -23.2565
1427 3 8.08712 10.7525 -23.1247
1428 3 7.99819 9.61193 -24.1161
1429 2 -20.9613 -0.00808535 37.5457
1430 3 -20.9051 0.946728 37.5086
1431 3 -21.8935 -0.197888 37.4404
1432 2 -6.81593 2.13807 15.015
1433 3 -7.23754 2.78932 15.5757
1434 3 -6.11477 1.77403 15.5554
1435 2 -29.7327 7.31825 20.111
1436 3 -29.0319 7.2515 19.4624
1437 3 -30.4227 7.81268 19.6687
1438 2 17.6663 33.5109 -10.1246
1439 3 17.242 33.0615 -9.3937
1440 3 18.407 33.9688 -9.72728
1441 2 -12.8498 7.57872 7.14149
1442 3 -11.9651 7.7825 7.44468
1443 3 -13.0634 8.28546 6.53233
1444 2 -4.68128 24.7997 -22.0126
1445 3 -4.86973 23.8613 -22.0076
1446 3 -5.52221 25.2123 -22.2096
1447 2 -15.9959 -0.858315 22.2067
1448 3 -15.8663 -1.6465 22.7342
1449 3 -15.3747 -0.224655 22.5655
1450 2 2.90774 47.2515 9.95022
1451 3 2.88017 47.2886 10.9063
1452 3 3.36954 46.4362 9.7549
1453 2 12.3193 41.7735 60.8629
1454 3 12.2347 41.8665 61.8117
1455 3 12.0649 42.6279 60.5144
1456 2 -50.881 -11.1075 -20.1243
1457 3 -51.6381 -11.6919 -20.1629
1458 3 -51.1296 -10.4344 -19.4908
1459 2 -15.458 18.9833 -4.63703
1460 3 -15.8064 19.8727 -4.57581
1461 3 -15.6737 18.7017 -5.52607
1462 2 -15.175 12.1122 20.9921
1463 3 -15.2322 11.1911 20.7379
1464 3 -15.4892 12.1316 21.8961
1465 2 64.7099 70.2911 29.6941
1466 3 64.31 70.5732 30.5167
1467 3 65.0003 71.1027 29.2778
1468 2 -37.4204 25.9451 16.9046
1469 3 -37.3602 26.4636 16.1023
1470 3 -37.2329 25.0489 16.6258
1471 2 31.5629 12.3139 48.2045
1472 3 31.9116 12.557 49.0622
1473 3 32.2837 11.8541 47.7741
1474 2 -19.7385 10.6506 35.8603
1475 3 -20.3391 10.1763 36.4352
1476 3 -20.3085 11.1758 35.2985
1477 2 -45.0853 68.9148 8.17447
1478 3 -44.7238 68.0638 7.92657
1479 3 -44.9293 69.4729 7.41269
1480 2 -30.287 50.2316 52.1562
1481 3 -30.3653 50.4967 51.2398
1482 3 -29.8703 50.9778 52.5871
1483 2 -9.09727 70.8056 33.6736
1484 3 -8.83455 69.9875 33.2519
1485 3 -8.28068 71.2934 33.7807
1486 2 29.3745 39.565 -16.9928
1487 3 29.2452 39.5077 -17.9395
1488 3 28.5635 39.9519 -16.6628
1489 2 -18.5784 8.02693 7.28876
1490 3 -18.7752 8.67673 7.96348
1491 3 -17.7389 7.65172 7.55448
1492 2 6.67791 14.2408 -0.486752
1493 3 6.91044 14.3042 -1.4131
1494 3 7.42595 14.6196 -0.0250688
1495 2 10.7813 14.4795 13.3321
1496 3 10.8859 15.3976 13.0824
1497 3 10.2716 14.5076 14.1419
1498 2 12.9598 6.28644 36.247
1499 3 13.2405 7.1083 36.6495
1500 3 13.5407 6.17728 35.4941
1501 2 24.1057 39.3074 8.09198
1502 3 23.4487 39.3869 7.40047
1503 3 24.9431 39.3042 7.62823
1504 2 30.6921 35.3056 19.413
1505 3 31.061 34.7206 20.0747
1506 3 29.8351 34.9299 19.2115
1507 2 -13.6909 18.2462 -0.339286
1508 3 -13.2652 18.9997 -0.748026
1509 3 -14.5578 18.2118 -0.743614
1510 2 -33.2674 60.9206 -20.8462
1511 3 -32.3613 61.2286 -20.8303
1512 3 -33.198 59.9676 -20.7896
1513 2 -24.2581 -3.55214 35.7982
1514 3 -23.5933 -4.03954 35.3117
1515 3 -25.0836 -3.97973 35.5707
1516 2 -54.6966 20.6351 36.7058
1517 3 -54.7211 19.93 37.3527
1518 3 -55.57 20.6318 36.3141
1519 2 8.56231 45.1041 30.9267
1520 3 8.4479 46.0453 30.7954
1521 3 9.50977 44.9842 30.991
1522 2 -16.9821 19.685 22.6264
1523 3 -16.7428 19.0286 21.9722
1524 3 -16.9132 20.5205 22.1645
1525 2 -15.7875 66.3288 26.3063
1526 3 -16.5047 66.9627 26.2993
1527 3 -15.975 65.7624 27.0547
1528 2 12.617 63.9983 10.7098
1529 3 12.1295 63.1947 10.5289
1530 3 12.049 64.4965 11.2975
1531 2 26.8224 60.5282 23.1489
1532 3 26.274 60.2726 23.8906
1533 3 26.2083 60.6375 22.4228
1534 2 -4.87842 26.3455 55.7853
1535 3 -3.97533 26.1211 56.0095
1536 3 -4.98024 26.0539 54.8793
1537 2 38.586 21.2965 35.0102
1538 3 38.251 20.5593 35.5205
1539 3 38.6867 22.0035 35.6476
1540 2 41.0289 18.5242 42.9963
1541 3 41.2076 19.438 42.7747
1542 3 41.3203 18.03 42.23
1543 2 45.8111 23.802 45.357
1544 3 45.057 23.2138 45.3972
1545 3 45.6682 24.4245 46.0698
1546 2 -11.3658 35.7885 54.6988
1547 3 -11.2755 36.2243 53.8514
1548 3 -11.5345 36.4991 55.3175
1549 2 17.3282 20.4697 -7.05585
1550 3 16.9709 20.2719 -7.92155
1551 3 18.0478 19.8482 -6.94545
1552 2 -14.6527 20.1106 56.0136
1553 3 -14.7388 19.5514 55.2415
1554 3 -14.0937 19.6123 56.6097
1555 2 -35.2986 -12.7639 8.58395
1556 3 -34.7637 -12.1648 9.10461
1557 3 -35.8335 -12.1917 8.03384
1558 2 15.5518 5.81398 39.228
1559 3 14.5963 5.80921 39.1725
1560 3 15.7793 4.93295 39.5251
1561 2 12.7952 24.986 39.2858
1562 3 12.9327 24.1074 39.64
1563 3 12.5783 24.8422 38.3647
1564 2 48.4456 32.4011 53.7086
1565 3 48.5166 31.6697 54.322
1566 3 47.5471 32.7145 53.8117
1567 2 26.299 20.8536 11.4653
1568 3 26.2238 21.7304 11.0887
1569 3 26.2427 20.9927 12.4106
1570 2 2.46859 37.1793 67.0785
1571 3 2.20339 36.8038 66.239
1572 3 3.29765 37.6203 66.893
1573 2 5.23933 3.98822 27.5753
1574 3 5.84161 3.90938 26.8355
1575 3 5.32445 3.15777 28.0436
1576 2 -22.8677 30.7779 14.6441
1577 3 -23.1682 30.3862 15.4641
1578 3 -23.1341 30.1544 13.9685
1579 2 31.4801 26.0726 40.8063
1580 3 31.0233 26.1083 39.9659
1581 3 31.5654 26.9881 41.0722
1582 2 46.3166 20.3522 72.7208
1583 3 46.2072 19.6496 73.3615
1584 3 45.6163 20.208 72.0845
1585 2 -52.2942 44.3239 48.126
1586 3 -51.4352 44.745 48.1578
1587 3 -52.1007 43.3884 48.0648
1588 2 -22.2002 56.0723 -2.20448
1589 3 -22.0263 55.1448 -2.36514
1590 3 -21.8279 56.2398 -1.33874
1591 2 6.27016 60.4954 4.76646
1592 3 5.87408 60.3634 3.90513
1593 3 7.02095 61.0655 4.60051
1594 2 -48.7227 63.0896 52.0277
1595 3 -49.0499 62.6577 52.8167
1596 3 -49.4827 63.5518 51.6743
1597 2 24.9409 16.1658 21.1997
1598 3 24.8647 16.3147 22.1421
1599 3 24.7595 15.2325 21.0887
1600 2 -19.2591 17.561 29.9406
1601 3 -20.0023 17.3577 30.5084
1602 3 -19.4964 17.1877 29.0917
1603 2 -20.1226 77.5464 46.5899
1604 3 -19.8828 78.4611 46.4412
1605 3 -19.2869 77.096 46.7118
1606 2 -27.7443 7.14472 18.0883
1607 3 -27.5958 7.29487 17.1547
1608 3 -26.9721 6.65973 18.3792
1609 2 -4.53638 9.92661 12.6575
1610 3 -4.84835 9.80119 11.7614
1611 3 -4.71329 10.8481 12.8465
1612 2 19.3731 27.9906 33.1764
1613 3 18.9475 27.1532 33.3605
1614 3 20.1771 27.9704 33.6954
1615 2 -27.8288 42.7566 14.9141
1616 3 -28.3688 42.702 15.7025
1617 3 -27.3511 41.9275 14.8925
1618 2 10.2357 1.74457 19.8625
1619 3 9.4922 1.16753 20.0367
1620 3 10.0735 2.08618 18.9832
1621 2 23.1322 24.6886 29.8707
1622 3 22.3952 24.4934 30.4494
1623 3 23.7606 23.986 30.037
1624 2 5.43211 23.2438 7.3481
1625 3 5.45485 22.924 6.4462
1626 3 5.33375 24.1922 7.26404
1627 2 -49.5373 -8.83771 20.9047
1628 3 -48.9404 -8.10455 21.0544
1629 3 -49.9665 -8.97402 21.7494
1630 2 -60.3102 88.8441 25.3691
1631 3 -60.1279 88.927 26.305
1632 3 -61.0732 89.4034 25.2228
1633 2 -63.7785 -5.83215 2.49535
1634 3 -63.0278 -5.54208 1.97707
1635 3 -63.7354 -6.78791 2.46603
1636 2 3.50998 62.103 42.9586
1637 3 2.68115 62.4744 42.6564
1638 3 4.12599 62.835 42.9288
1639 2 -62.0806 17.4504 19.5759
1640 3 -62.8897 17.9603 19.5357
1641 3 -61.5744 17.8586 20.2783
1642 2 4.89642 49.2149 10.2887
1643 3 5.61767 48.7274 9.8908
1644 3 4.10641 48.7925 9.95158
1645 2 43.6064 41.8346 24.796
1646 3 43.1903 42.2935 24.0663
1647 3 44.1576 41.172 24.3797
1648 2 7.53327 39.7306 14.9958
1649 3 6.89069 39.0526 14.787
1650 3 8.36406 39.3813 14.6733
1651 2 20.7724 21.5601 -25.2236
1652 3 19.9404 21.2059 -24.9099
1653 3 21.4309 20.941 -24.9085
1654 2 24.4397 46.3274 29.3029
1655 3 24.4613 47.1251 28.7742
1656 3 25.3523 46.0413 29.3428
1657 2 24.0266 13.3145 17.6294
1658 3 24.1238 12.3624 17.645
1659 3 24.3632 13.604 18.4774
1660 2 29.2035 76.9246 17.7311
1661 3 29.3945 77.392 16.9179
1662 3 29.5643 76.0486 17.5949
1663 2 -18.3861 42.7281 55.731
1664 3 -18.8081 42.0198 56.2173
1665 3 -17.6838 42.2985 55.2426
1666 2 -16.0345 66.2829 9.95613
1667 3 -15.859 67.1625 9.62179
1668 3 -16.9045 66.0677 9.6201
1669 2 -16.6862 24.3149 -6.01169
1670 3 -17.1175 23.9223 -5.25273
1671 3 -17.2467 24.0837 -6.75243
1672 2 17.1451 36.9271 41.6805
1673 3 17.8654 37.0401 41.0603
1674 3 16.3555 37.0818 41.162
1675 2 -2.04588 10.8117 12.7922
1676 3 -2.94712 10.5275 12.6399
1677 3 -1.87019 10.5746 13.7028
1678 2 -9.61148 31.187 10.7509
1679 3 -10.227 30.5484 11.1108
1680 3 -9.69764 31.0951 9.80207
1681 2 -4.22693 31.9773 8.82918
1682 3 -4.48205 31.1716 8.37981
1683 3 -3.90904 32.5507 8.13177
1684 2 -13.0151 13.6017 58.0428
1685 3 -12.1769 13.2176 58.2999
1686 3 -13.6538 12.904 58.1892
1687 2 -24.9169 26.9138 -15.3575
1688 3 -24.3329 26.1727 -15.5183
1689 3 -25.7852 26.5924 -15.6003
1690 2 24.7712 28.4515 23.5631
1691 3 23.8388 28.4265 23.7781
1692 3 25.1348 27.6708 23.9809
1693 2 9.47592 65.9581 14.2541
1694 3 9.65228 66.8822 14.4309
1695 3 9.61732 65.5218 15.0942
1696 2 6.53666 42.6121 -3.1659
1697 3 7.13104 42.7831 -2.43537
1698 3 5.66212 42.6579 -2.7795
1699 2 54.9136 115.714 36.8641
1700 3 54.4871 115.703 36.0073
1701 3 55.733 115.238 36.7302
1702 2 -11.0438 10.7177 8.87098
1703 3 -10.3067 11.2182 9.22087
1704 3 -11.7439 11.3621 8.76739
1705 2 -5.71259 -24.1242 -16.4739
1706 3 -5.31716 -23.3835 -16.9334
1707 3 -6.16945 -23.7295 -15.7311
1708 2 -8.04899 -20.213 23.7892
1709 3 -8.60561 -20.1897 23.0108
1710 3 -7.30296 -20.7559 23.5345
1711 2 -24.2642 -29.2924 21.5509
1712 3 -24.0327 -29.4562 20.6367
1713 3 -23.5674 -29.7135 22.0541
1714 2 23.6376 31.4779 39.2589
1715 3 23.6078 30.8552 39.9852
1716 3 24.5543 31.7495 39.2131
1717 2 -10.8578 16.7266 27.8971
1718 3 -10.5703 16.7497 26.9844
1719 3 -10.9164 15.7945 28.1067
1720 2 -20.9105 27.6782 29.4123
1721 3 -20.5051 26.8826 29.0674
1722 3 -20.9601 27.5321 30.357
1723 2 26.2029 -3.51966 0.138328
1724 3 26.6106 -4.28294 0.547493
1725 3 26.6842 -3.40053 -0.680424
1726 2 27.6381 12.7591 -3.40111
1727 3 26.7765 12.47 -3.70157
1728 3 28.0695 13.0877 -4.18987
1729 2 -10.5682 17.5421 4.26636
1730 3 -11.2803 18.161 4.42775
1731 3 -10.9289 16.6911 4.51492
1732 2 -0.114547 28.7508 11.8708
1733 3 0.704012 28.3716 11.5508
1734 3 -0.0770121 29.6676 11.5982
1735 2 22.8168 3.92672 14.6297
1736 3 22.0707 3.88196 15.2276
1737 3 23.5308 4.27674 15.1626
1738 2 16.7939 -16.6609 22.8863
1739 3 17.2021 -17.3765 22.3989
1740 3 17.2442 -16.6583 23.7309
1741 2 17.5838 -12.2725 -9.40589
1742 3 18.0165 -12.4239 -8.56564
1743 3 16.7864 -12.8004 -9.36368
1744 2 -0.402088 -7.73781 3.15674
1745 3 -0.954693 -7.28699 2.51831
1746 3 0.408482 -7.9245 2.68311
1747 2 -16.62 4.56729 83.2121
1748 3 -16.4523 4.28023 82.3145
1749 3 -16.3729 5.49202 83.2184
1750 2 -11.275 40.6214 20.2032
1751 3 -12.2219 40.7097 20.3122
1752 3 -11.1028 40.9538 19.3223
1753 2 -14.4283 1.2325 -2.81627
1754 3 -13.7521 1.27057 -3.4927
1755 3 -13.9436 1.25167 -1.9911
1756 2 15.2375 44.9835 23.6034
1757 3 14.6877 44.5966 24.2847
1758 3 15.6051 45.7689 24.0088
1759 2 15.9534 -13.1854 14.4259
1760 3 16.1243 -12.5536 15.1243
1761 3 15.2355 -12.7997 13.9238
1762 2 -29.4831 0.981743 26.6454
1763 3 -30.3969 0.757552 26.4694
1764 3 -29.4717 1.93848 26.6724
1765 2 -16.1452 -10.1861 35.1815
1766 3 -15.8474 -9.43073 35.6884
1767 3 -15.5944 -10.1819 34.3987
1768 2 3.54347 20.1584 24.0873
1769 3 4.23741 20.715 24.4405
1770 3 3.44103 20.4486 23.1809
1771 2 9.75586 36.2323 10.945
1772 3 9.45358 37.1404 10.9578
1773 3 10.7108 36.2973 10.9381
1774 2 -6.13239 -24.1558 -5.69655
1775 3 -5.38063 -24.034 -5.11669
1776 3 -6.07149 -25.0681 -5.98001
1777 2 46.2584 36.6678 -17.822
1778 3 46.0645 36.6108 -18.7576
1779 3 47.0973 36.2176 -17.723
1780 2 7.8025 30.305 43.1789
1781 3 7.71572 29.7122 43.9254
1782 3 7.06663 30.0822 42.6087
1783 2 -42.1252 29.6357 15.3854
1784 3 -42.4553 29.0967 14.6666
1785 3 -41.281 29.2445 15.6105
1786 2 -24.7674 -9.56303 46.1227
1787 3 -24.4717 -8.78676 46.5983
1788 3 -24.8911 -10.2272 46.8008
1789 2 -62.7249 5.38262 54.4491
1790 3 -62.8382 4.5042 54.0862
1791 3 -61.7788 5.47608 54.5604
1792 2 -14.9423 6.61996 35.6825
1793 3 -15.0097 5.71806 35.996
1794 3 -15.5855 7.10304 36.2012
1795 2 4.05906 15.3799 37.1256
1796 3 4.92357 15.0144 37.3134
1797 3 4.18452 16.3278 37.1695
1798 2 4.14106 50.8512 25.4817
1799 3 4.09032 51.662 25.9878
1800 3 4.91548 50.9608 24.9299
1801 2 11.327 14.5009 3.98262
1802 3 10.9315 13.8218 4.52911
1803 3 12.1124 14.0905 3.62083
1804 2 9.31717 -10.068 24.7864
1805 3 8.523 -10.0961 24.2528
1806 3 9.82396 -9.34119 24.4242
1807 2 -14.707 48.8451 31.3842
1808 3 -15.1765 48.026 31.5416
1809 3 -14.338 49.0778 32.2362
1810 2 -1.48533 -8.09866 46.5109
1811 3 -0.697003 -7.55764 46.5562
1812 3 -1.79636 -8.14577 47.4149
1813 2 -36.0052 8.74081 0.383028
1814 3 -35.0629 8.89764 0.322503
1815 3 -36.389 9.61384 0.4649
1816 2 4.1821 36.02 7.21272
1817 3 4.67285 35.8556 8.01792
1818 3 3.86114 35.1582 6.94716
1819 2 -30.5573 -2.77921 51.5253
1820 3 -31.2453 -3.41901 51.7085
1821 3 -31.0195 -1.94425 51.4517
1822 2 -4.75617 31.3813 11.4987
1823 3 -4.43678 32.1411 11.9854
1824 3 -4.96769 31.7241 10.6304
1825 2 -8.58247 2.05173 30.9985
1826 3 -7.95979 2.62661 30.5535
1827 3 -8.69128 1.30967 30.4037
1828 2 24.5301 -29.2339 19.4328
1829 3 24.3195 -29.1199 20.3596
1830 3 23.8224 -29.7806 19.0914
1831 2 -19.5322 14.5101 38.952
1832 3 -19.2407 13.607 38.8264
1833 3 -18.7568 14.9699 39.2738
1834 2 -8.17266 22.2895 30.5821
1835 3 -7.24269 22.4653 30.4391
1836 3 -8.45801 21.8434 29.7848
1837 2 -25.8606 23.8597 -0.90063
1838 3 -26.4807 23.729 -1.618
1839 3 -24.9999 23.8221 -1.31763
1840 2 0.363926 -28.9653 33.6911
1841 3 0.439558 -29.8694 33.3861
1842 3 -0.38246 -28.9758 34.2902
1843 2 -5.44763 4.33676 34.2407
1844 3 -5.23474 3.70784 33.5513
1845 3 -5.31079 5.19292 33.8352
1846 2 10.8265 -4.95596 35.15
1847 3 11.0075 -4.58523 34.2863
1848 3 9.93627 -4.66857 35.3527
1849 2 -10.9139 7.29083 29.4846
1850 3 -10.5818 6.50453 29.9178
1851 3 -10.3226 7.4247 28.7439
1852 2 45.9158 13.6633 12.0187
1853 3 46.4436 14.1976 12.6121
1854 3 46.4884 12.935 11.7781
1855 2 -6.90654 5.93316 18.1952
1856 3 -6.18608 6.4689 17.8633
1857 3 -6.5369 5.4747 18.9498
1858 2 -8.00096 5.08885 33.7847
1859 3 -8.54221 5.08095 34.5742
1860 3 -7.19299 4.6455 34.0433
1861 2 -33.5046 23.6657 19.4109
1862 3 -34.3027 23.1502 19.5277
1863 3 -33.3 23.5834 18.4794
1864 2 11.613 17.0115 13.1582
1865 3 12.4752 16.612 13.2729
1866 3 11.6834 17.504 12.3405
1867 2 -40.0158 45.1981 37.8116
1868 3 -40.3991 44.6178 38.4693
1869 3 -40.1804 46.0802 38.1447
1870 2 -1.48946 14.5469 43.1537
1871 3 -1.30734 15.3475 43.6458
1872 3 -0.640414 14.2862 42.7969
1873 2 5.52339 11.6297 33.3934
1874 3 4.59654 11.4396 33.5383
1875 3 5.98718 10.9549 33.8891
1876 2 0.154704 -5.3507 5.25059
1877 3 0.0165918 -5.53139 6.18037
1878 3 -0.174012 -6.13043 4.80317
1879 2 -25.3214 17.9161 38.9287
1880 3 -24.6799 17.2092 38.8584
1881 3 -25.9752 17.5864 39.5452
1882 2 3.66864 -19.6108 19.5344
1883 3 2.88401 -19.3173 19.9974
1884 3 3.4418 -19.5374 18.6074
1885 2 6.44794 -23.4064 -3.62425
1886 3 5.89966 -24.1884 -3.68739
1887 3 6.04099 -22.7791 -4.22186
1888 2 26.4373 -3.54915 7.86037
1889 3 26.9941 -3.47259 8.6352
1890 3 26.3094 -2.64715 7.56672
1891 2 -27.9004 43.6457 12.3068
1892 3 -26.9856 43.6645 12.0257
1893 3 -27.8708 43.2941 13.1966
1894 2 28.4841 -11.2913 -26.2632
1895 3 28.6692 -11.9728 -25.617
1896 3 27.546 -11.1235 -26.173
1897 2 -46.2421 14.5797 7.93189
1898 3 -46.4852 14.4306 7.01815
1899 3 -46.7664 15.3345 8.19962
1900 2 -22.9425 -3.53065 -20.8542
1901 3 -23.6354 -3.07834 -20.3731
1902 3 -23.3035 -3.65863 -21.7314
1903 2 -50.3255 23.0384 -6.19808
1904 3 -49.4775 23.3721 -6.49081
1905 3 -50.1084 22.3331 -5.5885
1912 2 -15.3157 11.1803 5.09393
1913 3 -15.0825 10.5297 4.43175
1914 3 -16.2047 10.9447 5.35927
1915 2 -15.9094 15.4625 -8.79942
1916 3 -15.8088 15.3743 -9.7472
1917 3 -15.2548 14.8685 -8.43225
1918 2 -8.59769 45.0302 -0.205846
1919 3 -7.761 44.7207 -0.552824
1920 3 -8.53963 45.9843 -0.254792
1927 2 -38.6074 34.879 36.5121
1928 3 -38.6807 35.7311 36.0823
1929 3 -38.2493 34.3006 35.8387
1930 2 -8.59843 44.4897 61.0836
1931 3 -8.0195 44.4313 61.8437
1932 3 -8.77846 43.5795 60.8486
1933 2 43.8629 16.1559 52.3801
1934 3 44.1702 15.4716 52.9747
1935 3 44.6552 16.633 52.1334
1936 2 -7.39214 31.6502 12.5519
1937 3 -8.1933 31.2988 12.1634
1938 3 -6.68458 31.1926 12.0977
1939 2 -43.9414 45.1923 40.6604
1940 3 -44.6995 44.6134 40.5803
1941 3 -43.2157 44.6902 40.2898
1951 2 -29.411 -1.59884 17.0137
1952 3 -30.265 -1.2379 16.7758
1953 3 -29.444 -2.5085 16.7177
1954 2 -34.4527 28.8217 29.2971
1955 3 -34.9073 28.8237 28.4548
1956 3 -33.8328 28.0951 29.2335
1957 2 -24.4379 35.2454 5.87827
1958 3 -25.0578 34.556 6.11613
1959 3 -24.727 35.5406 5.01485
1966 2 -20.8094 -7.52146 5.8378
1967 3 -20.801 -7.03318 5.01456
1968 3 -19.9628 -7.32791 6.2403
1969 2 17.5271 18.4136 10.8475
1970 3 17.603 18.8185 9.9835
1971 3 18.2878 17.8358 10.9094
1972 2 1.30974 23.6139 61.9256
1973 3 1.31977 22.7808 62.3967
1974 3 2.04642 23.5545 61.3173
1975 2 -31.9867 15.8529 -14.7745
1976 3 -32.8942 16.0878 -14.5805
1977 3 -31.8802 16.0544 -15.7041
1978 2 -21.6587 -60.6704 55.4005
1979 3 -21.364 -61.5747 55.2923
1980 3 -22.0849 -60.456 54.5707
1981 2 -17.3258 -7.85414 31.4262
1982 3 -17.763 -8.55067 31.916
1983 3 -17.4646 -8.08338 30.5073
1984 2 33.5127 43.7086 39.5761
1985 3 33.0878 43.2569 38.847
1986 3 33.7955 43.0061 40.1616
1990 2 6.02085 9.04997 55.9916
1991 3 5.91038 8.99052 55.0427
1992 3 5.28141 8.55942 56.3505
1993 2 -7.81661 30.2606 35.0149
1994 3 -8.33972 29.5681 34.6112
1995 3 -7.80964 30.0436 35.9471
1996 2 -13.6989 43.3731 28.7648
1997 3 -13.7704 43.6605 27.8546
1998 3 -12.9991 43.9126 29.1326
2005 2 -9.70872 23.9607 26.8345
2006 3 -10.5592 24.2892 27.1261
2007 3 -9.6717 23.0634 27.1656
2008 2 5.49371 39.4862 9.10997
2009 3 4.71595 39.5299 8.55375
2010 3 6.2288 39.5254 8.49816
2011 2 8.40013 35.3065 46.3185
2012 3 8.95035 35.5148 47.0736
2013 3 8.42725 34.3516 46.258
2014 2 10.5862 10.4122 24.2994
2015 3 11.5008 10.4501 24.0198
2016 3 10.2182 9.67184 23.817
2017 2 -5.61614 3.6997 38.0798
2018 3 -5.85861 2.82621 37.7725
2019 3 -4.75571 3.86015 37.6923
2020 2 19.7157 39.2637 30.3307
2021 3 19.4142 38.66 29.6518
2022 3 18.9934 39.8823 30.4396
2023 2 -50.7021 75.6061 17.9476
2024 3 -51.2909 75.1711 17.331
2025 3 -50.8431 75.1494 18.7769
2026 2 -21.1923 53.1729 46.6272
2027 3 -21.5148 53.9636 47.0597
2028 3 -21.9041 52.54 46.7224
2029 2 -2.74013 38.27 9.58265
2030 3 -2.97972 38.0481 10.4824
2031 3 -2.01036 38.8828 9.67278
2032 2 3.70255 53.7767 7.65147
2033 3 3.0318 54.415 7.40883
2034 3 3.3893 53.4003 8.4739
2035 2 28.4478 56.4741 17.8441
2036 3 28.8545 56.9463 18.5707
2037 3 28.5402 55.5502 18.0766
2038 2 9.57836 32.1352 11.5401
2039 3 10.2559 32.8107 11.5689
2040 3 8.75443 32.6222 11.5259
2041 2 7.35619 39.9377 -0.207064
2042 3 7.67423 40.7006 -0.689839
2043 3 6.98424 40.3004 0.596867
2044 2 -10.2582 68.5854 45.4475
2045 3 -10.4015 69.3364 44.8716
2046 3 -9.31898 68.4114 45.3858
2047 2 4.73713 6.71526 41.7846
2048 3 5.22671 6.84045 40.9717
2049 3 4.34419 5.84688 41.6968
2050 2 26.0573 71.0665 32.0367
2051 3 26.1575 72.0091 31.9036
2052 3 26.8022 70.8211 32.5855
2053 2 -12.8327 37.7765 37.3894
2054 3 -11.9802 37.3619 37.2567
2055 3 -13.4657 37.1269 37.0835
2056 2 9.93731 17.651 25.1519
2057 3 10.2886 18.5252 24.9831
2058 3 10.0449 17.185 24.3228
2059 2 -51.0934 52.3153 50.9441
2060 3 -50.8958 51.4391 50.6133
2061 3 -50.4676 52.8867 50.4991
2062 2 -10.1103 54.5201 46.319
2063 3 -10.402 55.1494 45.6594
2064 3 -10.1234 55.0104 47.1409
2065 2 -3.59606 73.9129 37.0713
2066 3 -4.06937 73.1758 36.6855
2067 3 -3.19677 74.359 36.3244
2068 2 -12.9231 47.7289 5.94057
2069 3 -12.5599 47.9658 6.79391
2070 3 -13.7761 48.1624 5.91406
2071 2 -37.8161 56.8113 25.4869
2072 3 -38.6517 57.2761 25.442
2073 3 -37.1683 57.4974 25.6478
2074 2 -25.0167 44.0599 14.4821
2075 3 -24.0965 44.3064 14.5752
2076 3 -25.2704 43.7475 15.3506
2077 2 -7.77216 25.2691 5.22811
2078 3 -7.32085 25.4785 4.41039
2079 3 -8.37058 26.0032 5.36674
2080 2 40.4267 39.3664 53.8451
2081 3 39.6959 38.779 53.6527
2082 3 40.5219 39.8978 53.0547
2083 2 -1.41968 37.6498 35.4436
2084 3 -0.732063 37.9868 34.8693
2085 3 -0.984631 37.5153 36.2855
2086 2 -8.31447 14.9773 -24.2662
2087 3 -8.26324 15.3096 -25.1624
2088 3 -7.82059 15.6116 -23.7465
2089 2 3.52091 58.4042 21.321
2090 3 3.04645 58.4573 20.4914
2091 3 4.44205 58.3461 21.0673
2092 2 -33.2392 27.9835 24.0159
2093 3 -33.0338 28.4905 24.8013
2094 3 -32.3916 27.6601 23.7105
2095 2 0.717763 42.6779 19.4875
2096 3 1.45149 42.1037 19.2679
2097 3 0.871452 42.9257 20.3992
2098 2 -16.6516 7.63886 12.1881
2099 3 -16.5649 6.77333 12.5875
2100 3 -16.2534 7.54478 11.3227
2101 2 -17.3566 34.9943 37.2778
2102 3 -17.0729 34.1264 37.5653
2103 3 -18.046 34.8212 36.6368
2104 2 -28.3808 -7.8812 39.597
2105 3 -29.2389 -7.49718 39.7767
2106 3 -28.0102 -7.32916 38.9084
2107 2 -15.4748 51.9068 1.61696
2108 3 -16.0212 52.6429 1.89248
2109 3 -16.0529 51.3676 1.07732
2110 2 6.24264 48.2063 45.7512
2111 3 7.06111 47.7403 45.5804
2112 3 5.73256 48.0975 44.9486
2113 2 -44.4506 41.8797 12.9259
2114 3 -44.3987 41.1365 13.5268
2115 3 -43.6519 42.38 13.0934
2116 2 39.9575 52.2691 9.41071
2117 3 40.7339 52.1805 9.96348
2118 3 39.4065 52.9025 9.8706
2119 2 -16.9928 4.90399 25.9814
2120 3 -16.632 5.52635 25.35
2121 3 -17.0794 5.40683 26.7913
2122 2 -7.1551 54.6303 5.14459
2123 3 -6.97478 53.6919 5.20008
2124 3 -7.21012 54.9184 6.05574
2125 2 -15.873 2.02852 0.594125
2126 3 -15.2958 2.33551 1.29322
2127 3 -15.6814 1.09383 0.517742
2128 2 16.8667 42.3571 -8.94341
2129 3 16.8319 41.5377 -8.44985
2130 3 17.4487 42.9201 -8.43308
2131 2 -13.8408 44.2904 63.7483
2132 3 -13.5598 45.1868 63.5645
2133 3 -13.159 43.7411 63.3615
2134 2 -4.7738 9.20071 -1.37898
2135 3 -4.82316 8.28062 -1.11973
2136 3 -4.95959 9.68672 -0.575559
2137 2 8.85886 49.2337 58.9515
2138 3 7.95911 49.0527 58.6797
2139 3 9.38581 48.5857 58.4839
2140 2 -6.63841 30.8697 -7.9181
2141 3 -7.36726 31.0373 -7.32067
2142 3 -6.34744 31.7397 -8.19154
2143 2 -1.0946 42.7967 15.1062
2144 3 -0.34882 43.2547 15.4939
2145 3 -1.25362 43.2535 14.2802
2146 2 -22.2058 59.5662 5.1414
2147 3 -21.5583 59.1406 4.57949
2148 3 -22.2004 59.05 5.94746
2149 2 -19.0476 61.0601 30.2864
2150 3 -19.0647 60.1388 30.5453
2151 3 -19.8766 61.415 30.6074
2152 2 -1.44748 77.5068 7.10189
2153 3 -0.68498 77.8746 6.65519
2154 3 -1.23057 77.5628 8.03249
2155 2 6.90792 22.3666 10.6732
2156 3 6.82983 22.0496 9.7734
2157 3 7.5854 21.8148 11.0641
2158 2 9.60347 55.1888 6.10946
2159 3 9.07506 55.3212 6.8965
2160 3 8.97074 54.9453 5.43376
2161 2 -12.1417 63.9474 40.1579
2162 3 -12.1087 64.869 39.9014
2163 3 -12.1088 63.4668 39.3308
2164 2 -6.67109 28.9093 48.211
2165 3 -5.75577 28.993 48.4782
2166 3 -7.16547 28.9597 49.029
2167 2 24.39 46.79 25.4629
2168 3 25.2299 46.3983 25.2236
2169 3 24.1435 47.3138 24.7006
2170 2 -40.7009 -7.91944 42.3312
2171 3 -40.7453 -7.09589 41.8454
2172 3 -39.7642 -8.09188 42.4261
2173 2 -34.4122 22.0965 8.66018
2174 3 -34.7848 22.978 8.64197
2175 3 -33.5214 22.2056 8.32744
2176 2 -14.6194 78.2987 27.9984
2177 3 -15.4647 78.4602 28.4174
2178 3 -14.0892 79.0627 28.2252
2179 2 -1.65469 63.7077 35.0598
2180 3 -1.93935 63.7808 34.1488
2181 3 -1.52466 62.7693 35.1961
2182 2 22.5509 33.9352 11.1333
2183 3 22.3642 34.6305 10.5024
2184 3 23.2711 33.4419 10.7406
2185 2 17.9203 28.779 22.7273
2186 3 18.3813 27.9514 22.5905
2187 3 18.5243 29.4467 22.4022
2188 2 -27.5644 10.9784 -9.50753
2189 3 -26.6803 10.6228 -9.41795
2190 3 -28.005 10.734 -8.69366
2191 2 35.9822 40.0488 32.0449
2192 3 35.4181 39.9169 32.8069
2193 3 35.5397 40.726 31.5332
2194 2 19.7344 75.597 51.7491
2195 3 20.6384 75.8225 51.5296
2196 3 19.3188 75.4225 50.9047
2197 2 17.5935 39.8001 33.8728
2198 3 17.8622 38.8819 33.8395
2199 3 18.3624 40.286 33.5747
2200 2 -25.3775 13.6353 16.5873
2201 3 -24.6726 14.0991 16.1353
2202 3 -24.9345 12.9387 17.0717
2203 2 -1.67807 13.5088 51.2347
2204 3 -0.73333 13.3995 51.1264
2205 3 -2.03558 12.6275 51.1262
2206 2 1.5051 58.9453 25.8792
2207 3 2.30015 58.5783 25.4926
2208 3 1.73679 59.1106 26.7931
2209 2 -5.16978 -6.22176 -15.4039
2210 3 -5.95585 -6.30653 -14.8644
2211 3 -5.2141 -5.33218 -15.7545
2212 2 -4.33468 32.5658 26.9138
2213 3 -4.94758 31.8479 26.7552
2214 3 -4.56387 33.226 26.2597
2215 2 -60.7567 38.4167 53.4178
2216 3 -61.1113 38.1525 52.5689
2217 3 -60.0372 39.0103 53.2031
2218 2 -48.609 1.08239 16.3328
2219 3 -47.8605 1.39923 16.8383
2220 3 -49.3172 1.00966 16.9726
2221 2 0.9348 -24.3288 50.6286
2222 3 1.56186 -24.9212 51.0434
2223 3 1.1474 -23.4663 50.9852
2224 2 14.9402 17.1913 38.8886
2225 3 15.4298 17.4522 39.6687
2226 3 15.1277 16.258 38.7887
2227 2 6.13607 -7.40193 40.0082
2228 3 6.36517 -7.50149 39.0842
2229 3 5.45948 -6.7249 40.0161
2230 2 46.2631 -4.50581 27.0525
2231 3 45.4796 -4.87834 26.648
2232 3 46.4474 -3.71933 26.5389
2233 2 9.2331 13.3547 45.9552
2234 3 9.37123 12.8285 46.7428
2235 3 8.28484 13.3474 45.825
2236 2 -51.2889 6.06011 16.2791
2237 3 -51.503 6.71625 15.6158
2238 3 -51.7428 6.35858 17.0672
2239 2 -6.43291 1.29105 37.6115
2240 3 -7.36885 1.39107 37.4376
2241 3 -6.38986 0.689304 38.3546
2242 2 -23.4839 -12.0273 50.3515
2243 3 -23.8375 -11.6571 49.5427
2244 3 -24.2455 -12.1275 50.9226
2245 2 46.8371 11.7045 35.3019
2246 3 47.0975 10.8186 35.05
2247 3 46.2955 11.5829 36.0817
2248 2 -74.0998 -11.3907 44.0734
2249 3 -74.4977 -12.0118 43.4634
2250 3 -74.6336 -10.6002 43.9931
2251 2 -6.2263 33.4541 28.9367
2252 3 -6.78457 34.2065 28.7407
2253 3 -5.62491 33.4015 28.1939
2254 2 -48.0243 -25.729 17.8031
2255 3 -48.8208 -26.2595 17.7859
2256 3 -47.3121 -26.3624 17.7142
2257 2 -6.67794 41.3092 29.6868
2258 3 -6.40131 40.9187 28.8578
2259 3 -6.88233 42.2182 29.4674
2260 2 -31.3655 -2.41165 -2.48868
2261 3 -32.0684 -3.04794 -2.62036
2262 3 -31.8111 -1.56505 -2.45709
2263 2 45.5911 22.1523 39.1573
2264 3 46.3984 22.0717 38.6494
2265 3 45.368 21.2531 39.3976
2266 2 -4.27169 14.4243 52.3816
2267 3 -4.50147 15.0435 51.6888
2268 3 -3.38638 14.135 52.161
2269 2 -50.3239 18.56 32.5964
2270 3 -50.0587 18.0956 33.3903
2271 3 -51.2026 18.8857 32.7911
2272 2 15.1476 3.48482 35.2588
2273 3 14.8762 2.61233 34.9737
2274 3 14.4753 3.75243 35.8854
2275 2 -2.57301 22.6799 18.8692
2276 3 -2.35356 23.6067 18.7742
2277 3 -2.51557 22.3274 17.9811
2278 2 15.4395 1.66878 28.8022
2279 3 15.7971 1.35458 27.9718
2280 3 14.7579 1.03485 29.0252
2281 2 31.8818 5.8534 60.1545
2282 3 32.0167 5.34252 60.9527
2283 3 31.1834 6.46848 60.3785
2284 2 11.3537 -33.341 -11.8087
2285 3 10.434 -33.0807 -11.8601
2286 3 11.3274 -34.2815 -11.6331
2287 2 3.41299 5.48122 -20.4125
2288 3 2.58142 5.83579 -20.7271
2289 3 3.20121 4.59391 -20.1226
2290 2 2.28281 40.5027 48.7738
2291 3 1.59953 41.0306 49.187
2292 3 2.51008 40.9844 47.9785
2293 2 -44.7165 -4.23864 44.147
2294 3 -45.1934 -4.53452 43.3716
2295 3 -43.7982 -4.2349 43.8769
2296 2 -21.5076 13.7929 12.5974
2297 3 -21.3201 12.9517 13.014
2298 3 -21.1559 13.7056 11.7115
2299 2 47.1901 16.4328 60.4691
2300 3 46.6762 16.5422 59.669
2301 3 47.1384 15.4965 60.6613
2302 2 -14.079 10.8669 -2.15584
2303 3 -14.4576 11.5612 -1.61649
2304 3 -14.7585 10.1937 -2.19217
2305 2 -1.13086 -3.95183 2.93382
2306 3 -1.88842 -3.37214 2.85461
2307 3 -0.841891 -3.84659 3.84026
2308 2 -13.4015 11.7305 13.5699
2309 3 -12.4757 11.7077 13.8117
2310 3 -13.4232 11.4005 12.6716
2311 2 12.0198 -0.941815 27.7313
2312 3 12.4821 -1.74036 27.9857
2313 3 11.1486 -1.03585 28.1164
2314 2 -6.96656 -55.3903 49.5982
2315 3 -7.35145 -55.8142 50.3653
2316 3 -7.26068 -54.4811 49.6536
2317 2 -13.1762 -29.1001 22.1197
2318 3 -13.8725 -28.4926 22.3695
2319 3 -12.384 -28.5632 22.1022
2320 2 -17.1568 64.3152 14.3151
2321 3 -17.8422 64.983 14.3338
2322 3 -17.4544 63.6841 13.6598
2323 2 31.9257 14.942 -8.08497
2324 3 31.8412 14.3874 -7.30939
2325 3 31.0678 14.8968 -8.50699
2326 2 -33.0236 39.4421 -1.09612
2327 3 -32.193 39.7169 -0.707764
2328 3 -33.4119 40.2509 -1.42962
2329 2 -9.4702 -3.22273 18.6384
2330 3 -9.98855 -2.85143 17.9245
2331 3 -9.39637 -4.15245 18.423
2332 2 -10.9793 6.98403 0.918427
2333 3 -11.0528 7.8084 1.39929
2334 3 -10.2991 7.14715 0.26504
2335 2 -8.45076 -15.1745 43.6422
2336 3 -7.79816 -15.6595 44.1472
2337 3 -8.00678 -14.3643 43.3917
2338 2 -3.89542 -24.596 28.8309
2339 3 -4.33513 -23.7707 29.0353
2340 3 -3.27526 -24.7218 29.5491
2341 2 -27.683 35.5204 38.0019
2342 3 -28.3871 36.0734 37.6633
2343 3 -28.087 34.66 38.1149
2344 2 -26.8178 41.8752 33.2596
2345 3 -26.1553 41.5687 32.6403
2346 3 -27.6527 41.6788 32.8346
2347 2 26.9494 7.99787 -12.7479
2348 3 27.2893 7.3391 -13.3534
2349 3 27.5299 7.94807 -11.9885
2350 2 32.7163 -36.7745 54.399
2351 3 32.8162 -36.0766 55.0464
2352 3 32.1226 -37.4016 54.8118
2353 2 6.89343 24.1655 -20.3616
2354 3 7.4052 23.6125 -19.7713
2355 3 7.35556 24.1154 -21.1984
2356 2 -0.918298 18.1163 18.9319
2357 3 -1.21777 17.4723 18.2902
2358 3 -1.25004 17.7928 19.7694
2359 2 5.7463 26.4711 31.675
2360 3 6.17239 25.8916 32.3065
2361 3 5.21662 27.0617 32.2106
2362 2 0.396254 36.6931 18.7956
2363 3 0.667463 37.332 19.4547
2364 3 0.364197 35.8608 19.2671
2365 2 -36.2144 55.6832 7.10302
2366 3 -35.7806 55.8857 6.2741
2367 3 -37.0557 55.3051 6.84754
2368 2 -17.0284 8.85641 17.9446
2369 3 -17.7449 9.02359 17.3323
2370 3 -17.3947 9.06244 18.8046
2383 2 -10.2493 -13.4605 30.9293
2384 3 -10.1431 -12.9259 30.1424
2385 3 -9.64069 -14.1893 30.8082
2398 2 13.4009 19.3538 3.91245
2399 3 13.0798 18.5013 4.20614
2400 3 12.6792 19.7188 3.40047
2401 2 52.1792 30.0442 47.5147
2402 3 53.0705 29.9722 47.8564
2403 3 51.859 30.8801 47.8537
2404 2 -23.394 0.894499 -2.93322
2405 3 -24.2397 1.34267 -2.94207
2406 3 -23.4967 0.200986 -2.28154
2422 2 1.21645 23.5714 -1.13797
2423 3 1.18387 24.3814 -1.64704
2424 3 0.645021 23.7362 -0.38796
2440 2 -20.4335 7.78803 2.53877
2441 3 -20.973 7.08879 2.16969
2442 3 -21.0281 8.27336 3.11075
2443 2 -14.4821 52.9921 32.0307
2444 3 -15.4104 53.1805 32.1684
2445 3 -14.1677 52.6976 32.8855
2479 2 -0.844452 31.7311 38.7268
2480 3 -0.684559 32.3421 39.4461
2481 3 -1.55948 32.1279 38.2293
2482 2 -52.1139 4.10583 37.1218
2483 3 -52.6982 3.38815 37.3662
2484 3 -51.5398 3.73104 36.4539
2485 2 -36.7242 31.6226 45.7352
2486 3 -36.08 30.9939 46.0608
2487 3 -37.2713 31.8209 46.4952
2500 2 1.57707 60.9502 16.7896
2501 3 2.50648 60.9443 16.5608
2502 3 1.56214 60.8097 17.7363
2518 2 8.43112 39.8422 17.8223
2519 3 8.31933 39.4185 16.9713
2520 3 8.26854 40.7699 17.6517
2521 2 -55.656 -6.26691 44.8844
2522 3 -56.4258 -5.97404 45.372
2523 3 -54.9741 -6.36555 45.5489
2524 2 -34.6367 48.2268 28.0501
2525 3 -33.968 48.5824 27.4648
2526 3 -34.4099 48.5742 28.9127
2539 2 63.0732 0.190144 41.8671
2540 3 63.7357 -0.270763 41.3525
2541 3 63.3664 1.10129 41.8749
2554 2 1.13948 51.8569 4.44879
2555 3 1.93512 52.3052 4.73538
2556 3 1.45016 51.0326 4.07433
2557 2 -23.6675 14.5359 -16.3794
2558 3 -23.2362 13.8492 -15.8708
2559 3 -23.6958 14.1915 -17.272
2560 2 -62.4582 12.8283 66.0838
2561 3 -63.3826 13.0691 66.1438
2562 3 -62.228 12.5383 66.9665
2563 2 -51.9806 35.9016 36.0041
2564 3 -52.6349 36.2851 36.5881
2565 3 -52.2945 36.1078 35.1237
2566 2 -15.1263 61.0495 85.4292
2567 3 -14.3383 61.2445 85.9363
2568 3 -15.1963 60.0952 85.4519
2569 2 -11.8677 34.8069 11.9273
2570 3 -11.1654 34.9727 11.2984
2571 3 -12.0195 33.8634 11.8744
2572 2 3.41443 46.1416 15.6875
2573 3 3.24196 46.3426 16.6073
2574 3 4.34304 46.3408 15.5683
2575 2 -46.8538 7.96951 -10.2875
2576 3 -46.4937 8.68322 -9.76102
2577 3 -46.0895 7.45876 -10.5542
2578 2 6.41404 81.5612 39.5144
2579 3 6.6248 82.4359 39.1878
2580 3 7.13787 81.3435 40.1017
2581 2 4.4662 11.1233 39.3342
2582 3 3.59702 11.51 39.44
2583 3 4.44534 10.72 38.4664
2584 2 83.8259 -4.4346 42.5628
2585 3 84.7579 -4.22083 42.6059
2586 3 83.7517 -5.27621 43.0127
2587 2 -2.05901 28.6803 21.8218
2588 3 -3.00123 28.8421 21.7743
2589 3 -1.84766 28.2486 20.994
2590 2 0.170606 15.9865 2.47467
2591 3 0.59816 15.4809 3.16587
2592 3 -0.418884 16.5795 2.94069
2593 2 33.2492 44.6791 30.7114
2594 3 33.8251 43.9917 30.3767
2595 3 33.2028 44.5156 31.6534
2596 2 42.7551 54.0611 32.8541
2597 3 43.1567 54.8204 32.4319
2598 3 42.0849 53.7694 32.2362
2599 2 -41.5018 58.1827 8.7286
2600 3 -41.4331 57.2416 8.88931
2601 3 -40.6977 58.4055 8.25969
2602 2 -91.2945 27.0577 81.6279
2603 3 -92.0169 27.6547 81.8228
2604 3 -91.3316 26.4009 82.3232
2605 2 -42.4025 40.4468 18.8476
2606 3 -42.9456 40.9899 19.4188
2607 3 -41.5187 40.7999 18.9501
2608 2 15.772 58.4523 0.597469
2609 3 16.1045 59.2326 0.15383
2610 3 16.3475 58.343 1.35444
2611 2 6.10236 75.2016 48.5609
2612 3 5.89436 74.3615 48.152
2613 3 5.82083 75.8559 47.9215
2614 2 12.2803 16.2549 29.7143
2615 3 11.9668 17.1592 29.6996
2616 3 12.3759 16.0491 30.6442
2617 2 10.374 31.4387 -30.4827
2618 3 9.60514 31.8206 -30.0594
2619 3 10.0486 31.1117 -31.3214
2620 2 -2.09769 36.8399 64.4934
2621 3 -2.60234 37.6345 64.6668
2622 3 -1.18692 37.1336 64.4731
2623 2 42.9861 52.4217 40.6714
2624 3 42.4917 51.9428 40.0062
2625 3 42.5349 52.2262 41.4927
2626 2 29.0051 30.9695 27.6063
2627 3 29.0535 31.803 27.1383
2628 3 29.5174 31.1112 28.4024
2629 2 63.3075 74.3687 34.4025
2630 3 62.3763 74.1781 34.2889
2631 3 63.6843 73.5464 34.7155
2632 2 -11.5849 61.1334 42.8836
2633 3 -11.549 62.0898 42.8741
2634 3 -11.1266 60.868 42.0863
2635 2 44.5898 43.6606 43.6143
2636 3 44.8566 42.7681 43.3939
2637 3 43.7986 43.8092 43.0965
2638 2 -16.836 88.9958 34.6791
2639 3 -17.7322 88.9951 35.0151
2640 3 -16.832 89.6779 34.0076
2641 2 -12.6562 18.6775 27.8808
2642 3 -13.4416 18.4273 28.3674
2643 3 -12.1053 17.8949 27.8955
2644 2 -4.72493 25.15 61.446
2645 3 -5.10552 24.4542 60.91
2646 3 -3.83606 25.2552 61.1068
2647 2 -36.1996 56.2224 20.568
2648 3 -36.3951 56.4079 21.4865
2649 3 -37.0184 55.8759 20.2136
2650 2 24.0698 18.9284 11.0957
2651 3 24.9225 19.3185 10.9036
2652 3 23.9303 19.1029 12.0265
2653 2 -6.89458 68.5643 19.1581
2654 3 -6.85039 67.6536 18.8667
2655 3 -6.23087 69.0156 18.6366
2656 2 4.48761 10.723 5.77853
2657 3 3.95567 11.3146 6.31079
2658 3 3.99313 9.90357 5.76352
2659 2 -21.5689 62.0929 -7.00696
2660 3 -21.546 62.7496 -6.31099
2661 3 -21.872 61.2948 -6.57401
2662 2 29.7971 49.9343 38.4698
2663 3 29.01 50.2235 38.9314
2664 3 30.1763 50.7383 38.115
2665 2 -4.13252 8.91533 17.4482
2666 3 -3.82217 8.03058 17.2556
2667 3 -4.59796 9.18416 16.6562
2668 2 -8.0455 24.964 21.9105
2669 3 -7.72594 25.7929 21.5542
2670 3 -8.67356 25.2194 22.5862
2671 2 -1.34511 40.0636 53.3148
2672 3 -1.51743 40.9919 53.4721
2673 3 -1.48168 39.6467 54.1656
2674 2 -54.5732 24.4632 49.7228
2675 3 -54.1504 23.8137 49.161
2676 3 -55.3936 24.05 49.992
2677 2 3.14024 70.7805 44.5057
2678 3 2.89979 70.7514 43.5796
2679 3 2.35868 70.4753 44.9663
2680 2 -5.57854 18.7192 19.112
2681 3 -6.42212 18.3253 19.3343
2682 3 -5.31835 18.2862 18.299
2683 2 -24.5333 58.03 37.8444
2684 3 -24.8273 57.2371 38.2928
2685 3 -23.5887 58.0559 37.9972
2686 2 -2.38795 46.025 34.4651
2687 3 -2.64689 46.7545 33.9021
2688 3 -2.13602 46.4373 35.2914
2689 2 -11.1056 38.0974 -45.4518
2690 3 -10.7437 37.9188 -46.3198
2691 3 -12.0324 38.2764 -45.6104
2692 2 -30.6063 27.0945 60.9607
2693 3 -30.4429 26.1517 60.9339
2694 3 -30.5077 27.381 60.0528
2695 2 -28.6272 56.695 46.7068
2696 3 -29.3634 57.305 46.7525
2697 3 -27.9152 57.2065 46.3225
2698 2 16.2327 40.6207 52.7969
2699 3 17.0943 40.238 52.9626
2700 3 16.2482 40.8539 51.8687
2701 2 -2.66575 81.9672 5.46609
2702 3 -3.61571 82.0644 5.53177
2703 3 -2.33533 82.8643 5.41959
2704 2 39.4527 64.6628 32.7876
2705 3 40.26 65.1707 32.8689
2706 3 39.7471 63.775 32.5846
2707 2 12.0989 49.2073 20.9206
2708 3 11.7294 50.0522 21.1772
2709 3 12.5248 48.8809 21.7132
2710 2 15.0651 54.8761 48.0389
2711 3 15.8492 55.3507 48.3146
2712 3 14.5393 55.5291 47.577
2713 2 21.9911 50.2802 36.872
2714 3 21.2309 49.7981 37.1974
2715 3 21.6607 50.769 36.1183
2716 2 -51.1718 -15.8489 39.259
2717 3 -51.499 -14.9499 39.2289
2718 3 -50.3871 -15.8006 39.805
2719 2 -50.0677 15.4879 7.65667
2720 3 -49.8476 15.4519 6.72583
2721 3 -49.2421 15.7039 8.09031
2722 2 -21.068 -29.9025 44.0486
2723 3 -21.5896 -30.0296 44.8411
2724 3 -20.1742 -29.7765 44.3673
2725 2 -52.7108 30.1419 19.233
2726 3 -53.012 30.6831 18.5032
2727 3 -51.9106 30.5711 19.5358
2728 2 10.6443 24.5107 6.78592
2729 3 9.74048 24.2973 7.01781
2730 3 10.8812 23.8629 6.12231
2731 2 -33.6349 -8.97357 36.1986
2732 3 -33.9981 -8.09061 36.2669
2733 3 -32.8197 -8.93711 36.6989
2734 2 5.96209 -22.853 54.8704
2735 3 6.53566 -23.0982 55.5964
2736 3 5.16713 -22.5269 55.2922
2737 2 -33.9021 -5.28662 26.5871
2738 3 -33.8425 -4.85293 27.4383
2739 3 -34.7446 -5.00327 26.2319
2740 2 -8.35647 8.85942 21.5848
2741 3 -9.15701 9.37818 21.6638
2742 3 -8.53907 8.05971 22.0781
2743 2 -33.7872 -23.2084 43.0488
2744 3 -33.6057 -22.523 43.6918
2745 3 -33.9606 -23.9899 43.5735
2746 2 -5.76409 -5.60908 35.1151
2747 3 -4.98071 -6.04364 35.4522
2748 3 -6.43036 -6.29606 35.0964
2749 2 -7.16213 12.2552 3.85092
2750 3 -7.75029 11.912 4.52359
2751 3 -7.72487 12.3969 3.0897
2752 2 1.24402 -16.8055 44.8687
2753 3 1.91286 -16.3493 45.3793
2754 3 1.40497 -17.7338 45.0373
2755 2 -42.4277 16.032 20.5569
2756 3 -43.0732 16.542 20.0676
2757 3 -41.8629 16.6883 20.965
2758 2 -16.4267 -32.8987 50.2269
2759 3 -15.7854 -33.3197 50.7993
2760 3 -16.2437 -33.2559 49.3579
2761 2 -54.6432 -14.4753 37.7129
2762 3 -54.5026 -15.3943 37.4853
2763 3 -54.6024 -14.0119 36.8764
2764 2 -24.0891 -5.12669 38.2891
2765 3 -23.553 -5.81202 37.8902
2766 3 -24.3181 -4.54753 37.5623
2767 2 -14.8004 0.712064 41.8883
2768 3 -13.8871 0.461472 41.7497
2769 3 -15.2912 -0.10337 41.7861
2770 2 -40.0206 23.4987 39.4965
2771 3 -40.0585 23.2817 40.428
2772 3 -40.6332 24.2271 39.3946
2773 2 -67.2232 16.4672 38.6481
2774 3 -67.8032 16.4654 39.4095
2775 3 -66.3433 16.5448 39.0169
2776 2 22.1943 -17.9205 39.6711
2777 3 22.6661 -17.0919 39.5875
2778 3 22.7514 -18.4582 40.234
2779 2 1.18507 -6.34565 74.689
2780 3 0.498843 -6.11582 75.3155
2781 3 1.11134 -7.29482 74.5898
2782 2 -12.3088 24.1768 64.7123
2783 3 -13.1606 23.7421 64.7524
2784 3 -12.3711 24.8863 65.3518
2785 2 -12.8048 4.79046 44.6741
2786 3 -12.4298 4.46978 45.4943
2787 3 -12.8333 5.74147 44.7789
2788 2 31.6158 45.8575 51.8711
2789 3 31.9112 46.4936 51.2197
2790 3 30.6615 45.8649 51.7983
2791 2 7.28479 -19.6046 24.2263
2792 3 8.16065 -19.7023 24.5998
2793 3 7.09691 -20.4552 23.8294
2794 2 -46.4727 38.4265 28.121
2795 3 -45.7292 38.2149 27.5566
2796 3 -46.7023 39.3262 27.8883
2797 2 -25.0636 2.92746 15.7941
2798 3 -25.2346 2.91936 14.8524
2799 3 -24.4411 2.21334 15.9311
2800 2 -44.9733 -38.3457 54.7289
2801 3 -45.2167 -39.0003 54.0743
2802 3 -44.8321 -38.8491 55.5307
2803 2 -23.7353 27.1232 -19.9289
2804 3 -24.5656 26.7216 -20.185
2805 3 -23.8658 27.3833 -19.017
2806 2 -23.4941 62.059 42.9669
2807 3 -24.333 61.629 42.8011
2808 3 -22.8628 61.3414 43.0193
2809 2 4.29309 20.6237 54.2196
2810 3 3.55553 20.2913 53.708
2811 3 4.75902 19.8385 54.5071
2812 2 -34.1625 40.0431 39.5868
2813 3 -33.9136 39.1247 39.4829
2814 3 -35.0291 40.1038 39.1849
2815 2 15.7778 -11.5486 37.6904
2816 3 15.7916 -12.4877 37.8748
2817 3 15.3041 -11.1659 38.4289
2818 2 -20.4991 10.2585 42.7517
2819 3 -19.5608 10.0706 42.7261
2820 3 -20.9074 9.41542 42.9482
2821 2 33.6818 -6.93735 19.5186
2822 3 33.4865 -7.8443 19.7542
2823 3 32.9293 -6.43918 19.8374
2824 2 -38.4573 22.3698 42.3502
2825 3 -38.0219 23.22 42.4112
2826 3 -38.8338 22.23 43.219
2827 2 31.1489 -16.3036 17.5684
2828 3 31.1529 -16.9355 18.2873
2829 3 31.6429 -15.5555 17.9037
2830 2 -9.77625 4.9924 36.2954
2831 3 -9.30914 5.82438 36.3718
2832 3 -9.0976 4.32563 36.4006
2833 2 23.1953 -12.0751 13.1909
2834 3 22.3068 -12.3419 13.4266
2835 3 23.1807 -12.0092 12.2361
2836 2 -14.6171 9.96927 2.76637
2837 3 -13.7776 10.4042 2.61747
2838 3 -14.3825 9.09235 3.07
2839 2 -38.7563 -3.32549 60.883
2840 3 -39.3341 -4.07609 60.7451
2841 3 -38.5202 -3.03909 60.0007
2848 2 3.23044 18.794 34.1604
2849 3 3.76047 18.1011 33.7666
2850 3 2.32926 18.4814 34.081
2851 2 39.0153 -12.2809 51.5096
2852 3 38.5177 -13.018 51.8635
2853 3 38.4929 -11.5101 51.7315
2854 2 -2.19402 -14.3756 31.4874
2855 3 -1.80538 -14.8549 32.2192
2856 3 -2.44054 -13.5287 31.8591
2863 2 27.2636 -8.9733 -10.0301
2864 3 26.3737 -8.70543 -10.2592
2865 3 27.7716 -8.16231 -10.0523
2866 2 23.4271 24.5324 33.0843
2867 3 22.5341 24.2724 32.8579
2868 3 23.9763 24.0983 32.4315
2869 2 35.5249 -12.4645 18.8893
2870 3 35.8311 -12.8834 19.6936
2871 3 36.3239 -12.2799 18.3956
2872 2 -11.4975 20.3595 58.7961
2873 3 -11.8419 21.2163 58.544
2874 3 -10.5663 20.4017 58.5786
2905 2 -4.5404 36.3423 33.5081
2906 3 -4.54177 36.8281 34.3328
2907 3 -3.61946 36.1303 33.356
2908 2 16.8866 5.37959 61.429
2909 3 16.9798 5.46851 62.3775
2910 3 16.3409 6.12241 61.1708
2911 2 -39.2869 16.8017 52.4185
2912 3 -39.3974 16.9144 51.4744
2913 3 -39.0485 17.672 52.7378
2947 2 28.9967 8.76578 14.4105
2948 3 28.6957 9.47489 14.9786
2949 3 28.5074 7.99781 14.7055
2950 2 -25.3198 39.2657 59.3674
2951 3 -25.9127 39.3911 58.6265
2952 3 -25.3807 40.0816 59.8642
2986 2 24.7048 19.4149 42.6121
2987 3 23.9078 18.9536 42.3509
2988 3 24.6832 19.4083 43.569
2989 2 -23.8887 6.90405 43.0411
2990 3 -23.3963 7.64105 42.6796
2991 3 -23.2539 6.43314 43.581
3025 2 -27.3594 -0.234436 35.2133
3026 3 -27.4207 -0.536577 36.1195
3027 3 -28.2521 0.0255614 34.9861
3028 2 -12.2588 30.7936 -4.80949
3029 3 -12.408 31.6775 -5.14506
3030 3 -12.6975 30.2209 -5.43863
3031 2 9.64169 46.6127 35.4764
3032 3 9.88468 46.6542 36.4013
3033 3 10.131 45.8651 35.133
3064 2 -26.6753 6.15026 21.967
3065 3 -26.7598 5.52371 21.2483
3066 3 -26.1308 6.85221 21.6106
3067 2 -27.4091 63.6191 21.3808
3068 3 -27.4587 63.2628 20.4938
3069 3 -28.0472 63.1095 21.8802
3070 2 -45.5434 26.3783 -28.811
3071 3 -45.9157 26.7107 -27.9942
3072 3 -44.8262 26.9801 -29.0102
3073 2 -36.2985 32.3074 -12.6903
3074 3 -36.7203 31.449 -12.6545
3075 3 -37.0232 32.9279 -12.7677
3082 2 3.97003 55.3536 25.1187
3083 3 4.06938 56.2728 24.8709
3084 3 4.8654 55.0434 25.2538
3085 2 -10.1518 19.8274 25.1989
3086 3 -10.9012 20.4211 25.2452
3087 3 -9.4775 20.3275 24.7391
3088 2 18.0258 34.1249 45.5166
3089 3 17.1793 33.861 45.1559
3090 3 18.3731 34.7504 44.8809
3097 2 2.4441 -4.31872 41.9601
3098 3 2.7719 -4.63984 41.12
3099 3 1.65723 -4.83818 42.125
3100 2 20.7352 -12.3661 -29.3691
3101 3 21.201 -13.1007 -28.9696
3102 3 20.1239 -12.7743 -29.9821
3103 2 34.31 -8.33116 37.5284
3104 3 33.6408 -7.96207 38.1047
3105 3 33.8214 -8.87629 36.9116
3106 2 -65.5657 35.586 63.2282
3107 3 -64.7789 35.0668 63.0623
3108 3 -65.3715 36.0654 64.0336
3109 2 -9.4063 32.0162 74.2815
3110 3 -10.3165 32.2142 74.0614
3111 3 -9.03938 31.6489 73.4774
3112 2 -9.07588 62.2903 -2.87341
3113 3 -9.28675 61.5506 -3.44306
3114 3 -8.12612 62.3853 -2.94512
3115 2 -35.073 51.088 21.1591
3116 3 -34.9486 51.655 21.9203
3117 3 -35.7458 51.528 20.6396
3118 2 4.6252 33.8764 16.8177
3119 3 5.41705 33.7073 17.3282
3120 3 4.37654 34.7711 17.0499
3121 2 -9.64341 54.8408 59.2866
3122 3 -10.331 55.3656 59.6966
3123 3 -9.90009 54.7859 58.3661
3124 2 0.684451 15.3145 28.0326
3125 3 1.35116 14.8306 28.52
3126 3 1.10262 15.5244 27.1976
3127 2 -10.6987 9.90498 22.7825
3128 3 -10.735 9.23863 23.4687
3129 3 -11.2103 10.6355 23.1302
3130 2 -23.075 44.9721 56.8041
3131 3 -23.5764 45.4065 56.1141
3132 3 -22.1602 45.1025 56.5543
3133 2 10.6994 44.2198 34.8325
3134 3 10.8152 43.4935 34.2199
3135 3 11.4949 44.214 35.3648
3136 2 20.126 42.0705 34.7089
3137 3 20.4137 41.1809 34.5038
3138 3 20.3091 42.1726 35.6428
3139 2 -1.44814 -9.78997 19.1013
3140 3 -1.67126 -9.42836 18.2436
3141 3 -1.82521 -10.6697 19.0963
3142 2 -13.5398 17.4548 30.2862
3143 3 -13.3283 18.0974 30.9634
3144 3 -13.8701 16.6973 30.7691
3145 2 -30.3505 39.1555 44.7384
3146 3 -29.6499 38.5146 44.617
3147 3 -31.0542 38.8534 44.1642
3148 2 2.637 -12.9508 31.7248
3149 3 1.93759 -12.9063 31.0729
3150 3 3.44469 -12.8888 31.2149
3151 2 -54.9386 43.4759 28.6575
3152 3 -54.5294 42.7689 29.1563
3153 3 -55.7002 43.7283 29.1795
3154 2 -39.5128 -1.64312 32.8133
3155 3 -39.1705 -2.00413 31.9955
3156 3 -38.7373 -1.33846 33.2844
3157 2 -23.3193 -20.9412 -10.1601
3158 3 -23.9758 -21.2544 -10.7823
3159 3 -23.7475 -21.006 -9.30645
3160 2 -9.40516 63.0407 24.5328
3161 3 -9.39689 63.9007 24.9528
3162 3 -9.4327 62.4187 25.2599
3163 2 8.64732 59.1961 50.6142
3164 3 9.5876 59.1689 50.4372
3165 3 8.52258 58.5875 51.3425
3166 2 2.71854 17.9568 27.8595
3167 3 3.0394 17.861 26.9628
3168 3 1.86742 17.5188 27.8579
3169 2 13.9838 13.8882 40.5443
3170 3 14.5684 13.9905 39.7934
3171 3 14.4224 14.3553 41.2553
3172 2 4.72175 64.6683 18.4686
3173 3 5.24449 64.1692 19.0962
3174 3 3.87022 64.2311 18.4643
3175 2 -8.00464 44.8446 81.9224
3176 3 -8.67024 45.3097 82.4292
3177 3 -8.46741 44.5383 81.1425
3178 2 -7.5857 -4.57072 38.3218
3179 3 -8.20666 -4.95524 37.7031
3180 3 -7.98096 -4.71764 39.1811
3181 2 22.7235 21.974 28.9902
3182 3 22.278 22.8206 29.0224
3183 3 22.123 21.3701 29.4271
3184 2 -56.2639 53.4478 58.519
3185 3 -57.1505 53.6851 58.2473
3186 3 -55.8505 53.1133 57.7231
3187 2 -36.2047 41.7156 67.2369
3188 3 -35.5632 41.1903 67.7151
3189 3 -35.6886 42.4098 66.827
3190 2 -42.0385 75.7888 23.3462
3191 3 -41.546 75.0636 23.7305
3192 3 -42.1754 75.5297 22.435
3193 2 -27.2333 63.3845 40.6898
3194 3 -27.7332 63.8539 40.022
3195 3 -26.4651 63.0525 40.2253
3196 2 -19.4818 96.4862 35.0195
3197 3 -19.8476 95.8692 34.3856
3198 3 -20.1039 97.2135 35.033
3199 2 -38.0088 35.614 52.6211
3200 3 -38.6756 35.6541 53.3066
3201 3 -38.4602 35.23 51.8694
3202 2 4.02663 61.8568 37.2185
3203 3 3.13694 61.5524 37.0397
3204 3 4.58412 61.1097 37.0013
3205 2 -6.42971 34.2851 33.4497
3206 3 -5.83846 35.0229 33.5989
3207 3 -5.89977 33.5108 33.6391
3208 2 0.0155832 69.0935 48.3981
3209 3 -0.788819 69.612 48.4175
3210 3 0.571514 69.4878 49.0701
3211 2 -5.81881 40.8789 27.141
3212 3 -6.14207 40.0571 26.7717
3213 3 -4.9474 40.6657 27.4747
3214 2 27.9799 40.2376 39.6179
3215 3 28.0678 40.2359 40.5711
3216 3 27.0713 40.4946 39.4611
3217 2 3.11431 53.8897 -6.65818
3218 3 2.17657 53.8396 -6.47284
3219 3 3.18592 54.536 -7.36055
3220 2 29.1935 49.6835 22.084
3221 3 30.0834 49.3325 22.0522
3222 3 28.7523 49.1589 22.752
3223 2 -31.3948 8.56912 53.2163
3224 3 -30.5529 8.97109 53.0021
3225 3 -31.1912 7.64376 53.3522
3226 2 57.322 -10.9922 21.2836
3227 3 58.2714 -11.0946 21.3506
3228 3 57.1583 -10.8799 20.3472
3229 2 7.30839 -2.58448 66.6517
3230 3 6.60486 -2.58441 66.0026
3231 3 7.00333 -3.17995 67.3362
3232 2 14.7609 22.374 56.7547
3233 3 15.0451 21.4613 56.8039
3234 3 14.3884 22.4624 55.8774
3235 2 -9.57791 37.6547 -0.259707
3236 3 -8.82917 37.1729 -0.611103
3237 3 -9.9505 38.1052 -1.0176
3238 2 -42.9328 -25.0992 50.7755
3239 3 -42.4499 -24.6135 51.4441
3240 3 -43.7671 -25.3156 51.1918
3241 2 -23.4857 20.2442 99.3652
3242 3 -23.3452 20.6778 100.207
3243 3 -22.6496 20.3317 98.9076
3244 2 5.26979 26.3555 42.3364
3245 3 5.14276 26.8791 41.5453
3246 3 6.16365 26.5545 42.615
3247 2 -1.26325 -51.6618 89.1934
3248 3 -1.70465 -50.8126 89.179
3249 3 -0.980623 -51.8007 88.2895
3250 2 2.1903 -21.9841 25.4949
3251 3 2.03196 -22.2168 24.58
3252 3 2.83461 -21.2774 25.4547
3253 2 18.0573 -40.6865 35.3153
3254 3 17.7687 -41.1759 36.0856
3255 3 17.6408 -39.8294 35.4057
3256 2 -10.3831 8.07212 -4.7326
3257 3 -10.0042 8.57154 -4.00925
3258 3 -10.9401 7.41972 -4.30797
3259 2 19.2625 -8.05712 41.4963
3260 3 18.5744 -7.39184 41.4821
3261 3 18.9004 -8.78757 40.9948
3262 2 -33.936 7.91267 29.2608
3263 3 -33.0831 7.84516 28.8316
3264 3 -34.3757 8.63282 28.8088
3265 2 -26.4009 20.976 2.87665
3266 3 -26.521 21.2106 1.95648
3267 3 -27.1309 20.3883 3.07167
3268 2 3.06199 4.85686 9.46031
3269 3 2.69667 5.02093 8.59092
3270 3 3.50843 5.67161 9.69069
3271 2 -39.2322 -16.6088 44.9153
3272 3 -39.4437 -15.6781 44.9881
3273 3 -38.2847 -16.6504 45.0445
3274 2 0.885577 43.9864 32.6714
3275 3 0.357871 43.8234 31.8897
3276 3 1.76687 44.1509 32.3361
3277 2 -6.55577 23.0465 60.901
3278 3 -7.27016 23.5593 60.5229
3279 3 -6.58164 23.2516 61.8356
3280 2 -14.2991 -1.50107 33.061
3281 3 -14.488 -2.29185 32.5559
3282 3 -14.5809 -0.782027 32.4955
3283 2 -39.1888 20.1587 50.6088
3284 3 -39.1788 21.089 50.384
3285 3 -38.4443 19.7891 50.1341
3286 2 24.7606 -9.20064 15.535
3287 3 24.93 -10.0973 15.8239
3288 3 23.8999 -9.24135 15.1181
3289 2 0.735469 6.3623 54.6989
3290 3 0.626715 7.31145 54.7579
3291 3 0.782077 6.06901 55.6088
3292 2 62.5526 11.9776 33.5339
3293 3 62.0825 11.5251 34.2343
3294 3 62.9777 11.2773 33.0389
3295 2 25.0663 -15.8055 51.7883
3296 3 25.6099 -16.2627 52.4299
3297 3 24.5144 -15.2246 52.312
3298 2 44.4713 -1.53333 77.4895
3299 3 44.9429 -1.25137 76.7057
3300 3 43.6216 -1.09701 77.4283
3301 2 5.32933 63.7693 45.6972
3302 3 4.63308 64.1777 45.1828
3303 3 5.94997 64.478 45.8666
3304 2 -40.3438 -11.7386 -5.04985
3305 3 -40.3877 -10.9572 -5.60104
3306 3 -41.2111 -12.1359 -5.1273
3307 2 -25.346 -1.89866 17.7428
3308 3 -25.9322 -2.22859 18.4238
3309 3 -25.9289 -1.63909 17.0294
3310 2 -27.1383 -23.6286 66.4707
3311 3 -27.1351 -23.4809 65.525
3312 3 -26.7263 -22.8462 66.8372
3313 2 27.7072 56.3145 39.3434
3314 3 26.9967 55.8095 39.7389
3315 3 27.9556 56.9474 40.0172
3316 2 35.5718 7.58424 10.7861
3317 3 35.1067 7.36673 9.97833
3318 3 36.3229 8.10311 10.4983
3319 2 -52.2523 24.5922 39.0948
3320 3 -52.8563 24.6236 38.3529
3321 3 -52.1273 25.5086 39.3414
3322 2 -45.4276 1.01533 34.2384
3323 3 -46.2861 1.43853 34.2274
3324 3 -45.221 0.867689 33.3155
3325 2 -31.4001 31.5106 35.1464
3326 3 -32.2096 32.0155 35.0687
3327 3 -30.737 32.1563 35.3905
3328 2 -36.6239 3.66073 44.5182
3329 3 -36.8784 4.58207 44.5692
3330 3 -36.8345 3.40292 43.6208
3331 2 19.7749 31.5248 -18.8809
3332 3 18.9933 31.9115 -19.2756
3333 3 19.8611 30.6714 -19.3057
3334 2 1.57459 12.0272 40.3235
3335 3 1.29626 12.1882 39.4219
3336 3 1.07728 11.2554 40.594
3337 2 9.85991 21.9534 10.12
3338 3 10.4577 21.4592 10.681
3339 3 9.82213 21.4497 9.30697
3340 2 -10.4401 -9.25157 38.4197
3341 3 -10.9842 -8.86684 37.7326
3342 3 -10.3585 -10.1729 38.1734
3343 2 -25.2786 -1.10119 48.3149
3344 3 -24.8314 -0.342183 47.9405
3345 3 -24.7896 -1.29777 49.1139
3346 2 -42.9445 14.0681 63.003
3347 3 -42.4757 14.811 63.3833
3348 3 -42.4683 13.8713 62.1964
3358 2 -4.10747 34.6387 68.3793
3359 3 -4.84237 34.3098 67.8617
3360 3 -4.48821 34.844 69.2332
3361 2 -10.3442 34.8791 35.4607
3362 3 -10.0785 34.2522 34.7879
3363 3 -9.67987 35.5672 35.4232
3373 2 4.72774 19.0969 -1.2521
3374 3 4.1738 18.9097 -2.00992
3375 3 5.52349 18.5873 -1.40471
3376 2 -7.33589 -0.85679 1.98345
3377 3 -7.27254 -0.322533 2.77513
3378 3 -8.27299 -1.02209 1.87984
3379 2 -15.4228 -17.6669 24.9395
3380 3 -15.5961 -17.7177 23.9995
3381 3 -15.9946 -18.3305 25.3252
3415 2 30.8552 11.8861 56.5872
3416 3 31.0977 12.4932 55.888
3417 3 30.8672 12.4187 57.3824
3418 2 -10.839 29.2546 41.0272
3419 3 -11.727 28.8978 41.0071
3420 3 -10.4396 28.9503 40.2123
3454 2 3.42092 18.0055 76.3105
3455 3 2.55254 17.8768 75.929
3456 3 3.88402 18.5508 75.6745
3457 2 -22.3588 12.5893 22.4485
3458 3 -23.0478 11.9332 22.5538
3459 3 -21.5839 12.0857 22.1994
3493 2 38.6662 -11.397 35.3956
3494 3 37.73 -11.5791 35.3138
3495 3 38.9323 -11.1112 34.5217
3496 2 -0.267071 28.7447 32.0935
3497 3 0.426966 28.1154 32.2897
3498 3 -0.966842 28.2176 31.7078
3532 2 -0.0600168 13.752 0.784984
3533 3 -0.0335036 14.5545 1.30594
3534 3 -0.923111 13.3785 0.963313
3535 2 -49.9119 11.4753 40.5233
3536 3 -50.4309 12.2351 40.787
3537 3 -49.6839 11.0431 41.3464
3571 2 29.2496 -31.768 39.9796
3572 3 29.1489 -31.3799 39.1104
3573 3 28.3803 -31.7007 40.3746
3574 2 -44.4009 20.8235 26.8617
3575 3 -43.8646 20.239 26.3259
3576 3 -45.0174 20.2424 27.3071
3577 2 -12.0285 59.4593 25.4522
3578 3 -12.9839 59.4648 25.5099
3579 3 -11.7521 60.2118 25.9753
3589 2 -29.705 54.1171 4.46287
3590 3 -30.387 54.6388 4.88575
3591 3 -29.9164 53.2127 4.69457
3592 2 6.87443 53.1465 10.2079
3593 3 5.97311 52.9571 10.4685
3594 3 7.40625 52.5436 10.7273
3607 2 7.29526 33.538 86.7846
3608 3 6.57351 32.9383 86.9733
3609 3 7.25791 34.187 87.4873
3610 2 26.5281 38.2532 48.4643
3611 3 27.198 38.2587 49.148
3612 3 25.8462 37.6721 48.8011
3613 2 -44.9482 0.840807 41.8219
3614 3 -44.7094 1.76112 41.7113
3615 3 -45.6356 0.849585 42.488
3616 2 -23.4105 15.0504 15.4673
3617 3 -23.6795 14.9902 14.5506
3618 3 -23.6285 15.9467 15.723
3619 2 -42.8358 23.4205 18.5196
3620 3 -41.963 23.2044 18.8479
3621 3 -42.7172 24.2444 18.047
3622 2 -1.50541 27.2633 37.7097
3623 3 -2.10248 27.9978 37.8519
3624 3 -1.70366 26.9611 36.8234
3625 2 -11.3449 13.0124 10.8465
3626 3 -11.4289 13.9501 11.0192
3627 3 -10.4219 12.8911 10.6236
3628 2 23.5231 40.3523 58.3236
3629 3 23.5167 39.8845 59.1587
3630 3 23.1275 41.2012 58.521
3631 2 70.789 9.40582 20.0814
3632 3 70.9273 9.52575 19.1418
3633 3 71.5247 8.86303 20.3648
3634 2 0.568056 7.04717 40.2705
3635 3 1.24848 6.38583 40.3964
3636 3 0.726584 7.39018 39.391
3637 2 -5.95654 14.5495 4.90436
3638 3 -5.25309 14.7123 4.27596
3639 3 -6.43535 13.8046 4.54099
3640 2 22.7589 16.9116 47.2368
3641 3 23.2605 17.6486 47.5852
3642 3 23.3667 16.4647 46.6477
3643 2 -29.664 26.4667 43.5807
3644 3 -29.6297 25.5196 43.7151
3645 3 -28.7797 26.7703 43.7857
3646 2 0.583191 -2.6935 38.7723
3647 3 0.191442 -2.92735 37.9309
3648 3 -0.0303896 -3.03114 39.4248
3649 2 28.9719 40.3093 37.0978
3650 3 28.5895 40.1771 37.9653
3651 3 28.3131 39.9714 36.4912
3652 2 -11.5902 62.9564 58.3436
3653 3 -11.3221 63.1537 59.241
3654 3 -11.0602 63.5402 57.8009
3655 2 -0.835364 65.2752 25.3389
3656 3 -0.948384 64.3298 25.4375
3657 3 0.0653222 65.4396 25.6181
3658 2 -28.7239 14.9647 53.3957
3659 3 -28.4668 14.3378 54.0718
3660 3 -28.1293 15.705 53.5163
3661 2 4.3736 33.3945 -2.91699
3662 3 3.95587 33.2751 -2.06407
3663 3 3.66366 33.2841 -3.54945
3664 2 -64.2939 5.32749 8.60549
3665 3 -64.1175 5.89104 7.85217
3666 3 -65.2467 5.33963 8.69638
3667 2 -23.9374 38.082 18.2867
3668 3 -23.5669 38.1241 17.4051
3669 3 -24.5526 37.3495 18.2538
3670 2 -32.6261 29.7382 43.23
3671 3 -33.2709 30.2219 42.7137
3672 3 -32.1607 30.4123 43.7252
3673 2 -2.56056 64.4757 47.5405
3674 3 -2.68754 65.2817 48.0409
3675 3 -3.12926 64.575 46.777
3676 2 27.4321 39.9425 42.2798
3677 3 27.5974 39.0415 42.5573
3678 3 27.4451 40.4498 43.0914
3679 2 -31.2826 30.8619 -5.36929
3680 3 -30.6213 30.2815 -5.74621
3681 3 -30.9404 31.0854 -4.50373
3682 2 17.1586 26.9924 10.8756
3683 3 16.5963 26.7299 10.1468
3684 3 18.0495 26.8796 10.544
3685 2 29.8605 12.378 51.8526
3686 3 29.738 13.2837 51.5681
3687 3 28.9993 11.9742 51.7452
3688 2 -40.2862 20.6223 25.4339
3689 3 -39.8331 21.1695 24.7924
3690 3 -40.4009 21.1905 26.1956
3691 2 -19.3802 22.5402 85.6184
3692 3 -18.5762 22.0217 85.5864
3693 3 -19.8434 22.3147 84.8117
3694 2 -6.79101 44.6466 26.4291
3695 3 -6.52281 44.6987 27.3465
3696 3 -6.16979 45.208 25.9652
3697 2 28.2859 26.4966 -5.02699
3698 3 28.1897 25.8227 -4.3541
3699 3 28.1597 26.0304 -5.85337
3700 2 -18.2968 51.4039 66.4725
3701 3 -18.3106 51.0051 65.6025
3702 3 -17.5744 52.0309 66.4377
3703 2 4.51118 44.6456 -18.4094
3704 3 4.02184 44.5101 -17.5979
3705 3 3.98747 44.209 -19.0812
3706 2 2.98558 28.3336 52.7556
3707 3 2.62585 28.8877 53.4483
3708 3 3.83212 28.0437 53.0956
3709 2 15.345 -1.44995 19.3753
3710 3 14.8503 -0.74932 18.9504
3711 3 15.0161 -1.46504 20.2741
3712 2 13.1279 49.5514 31.0959
3713 3 12.5249 48.8483 31.3371
3714 3 12.862 50.2928 31.6397
3715 2 -11.2449 13.8726 29.2399
3716 3 -10.8289 13.126 29.6709
3717 3 -12.1114 13.9299 29.6426
3718 2 -13.9906 13.6075 67.6617
3719 3 -14.042 12.744 68.0715
3720 3 -14.069 14.2238 68.3898
3721 2 6.02598 40.0255 56.4951
3722 3 6.03629 40.9165 56.8447
3723 3 6.93538 39.8528 56.2514
3724 2 4.33788 56.9606 31.8192
3725 3 3.78606 57.1512 31.0607
3726 3 3.82844 57.2666 32.5696
3727 2 21.382 41.3265 29.9942
3728 3 20.9032 40.5085 30.1274
3729 3 22.1394 41.2587 30.5756
3730 2 -12.7971 -14.6257 20.932
3731 3 -12.4674 -13.7543 20.7127
3732 3 -13.6367 -14.4634 21.3621
3733 2 -33.7829 34.7963 1.07023
3734 3 -33.9659 35.5788 0.550233
3735 3 -34.2271 34.9527 1.90361
3736 2 25.5285 16.3688 54.9409
3737 3 24.7607 15.8308 55.1338
3738 3 25.5 17.0699 55.5919
3739 2 9.44892 -5.80348 29.3638
3740 3 8.98269 -5.61517 30.1783
3741 3 8.9984 -5.27826 28.7024
3742 2 -30.8445 -4.30648 76.4454
3743 3 -31.1039 -3.54928 76.9704
3744 3 -30.0065 -4.58081 76.8177
3745 2 8.3229 -13.9288 14.8639
3746 3 8.36779 -13.1621 14.2925
3747 3 8.34526 -14.6756 14.2655
3748 2 7.21374 25.0307 66.2744
3749 3 6.57587 25.7439 66.2488
3750 3 8.00468 25.402 65.8835
3751 2 42.4392 17.5042 -20.9627
3752 3 43.1261 17.0857 -21.4816
3753 3 41.6307 17.0772 -21.2461
3754 2 10.4638 -17.0057 21.4675
3755 3 11.1705 -16.4655 21.1141
3756 3 10.1997 -17.5639 20.7361
3757 2 -40.8595 -44.0173 73.2482
3758 3 -40.1918 -44.2383 72.599
3759 3 -40.7319 -44.6552 73.9504
3760 2 30.8238 0.437784 63.7789
3761 3 30.9326 -0.483533 64.0145
3762 3 30.7645 0.435723 62.8235
3763 2 -12.5931 29.3291 36.9229
3764 3 -12.312 30.1786 36.5827
3765 3 -13.546 29.3974 36.9814
3766 2 -15.3919 24.7094 55.1839
3767 3 -15.5966 23.9334 55.7056
3768 3 -16.2445 25.0408 54.902
3769 2 -16.8988 10.0478 51.3739
3770 3 -17.3335 9.35247 51.8677
3771 3 -16.5309 9.60505 50.6091
3772 2 -33.6513 6.31785 73.6467
3773 3 -33.4792 7.24889 73.7873
3774 3 -33.4579 5.90809 74.4899
3775 2 19.7249 -0.965433 82.726
3776 3 19.2828 -0.262815 82.2494
3777 3 19.865 -0.609162 83.6033
3778 2 20.4388 30.6036 13.3824
3779 3 20.1849 31.5211 13.4819
3780 3 19.6474 30.1108 13.5991
3781 2 -17.1696 3.15073 61.2567
3782 3 -17.2754 3.6637 62.0579
3783 3 -17.8464 3.48375 60.6674
3784 2 23.5182 9.59343 52.7216
3785 3 22.5785 9.63776 52.5451
3786 3 23.8929 10.3086 52.2075
3787 2 -16.0446 -15.0751 56.6128
3788 3 -15.5818 -15.913 56.6142
3789 3 -16.3584 -14.9727 57.5113
3790 2 2.33453 5.14797 2.662
3791 3 2.63721 4.56702 3.35991
3792 3 2.9021 4.94563 1.91827
3793 2 -17.9046 20.591 116.091
3794 3 -17.7254 21.5111 116.284
3795 3 -17.0582 20.2327 115.823
3796 2 -32.7221 -7.19644 18.8771
3797 3 -33.5193 -6.67077 18.8109
3798 3 -32.993 -7.98503 19.3471
3799 2 24.5986 9.3117 37.7602
3800 3 24.1831 9.58557 36.9426
3801 3 24.047 8.59908 38.0829
3802 2 40.129 10.0191 34.7233
3803 3 39.487 9.41119 34.3566
3804 3 40.0457 9.91325 35.671
3805 2 6.78414 20.6687 8.43183
3806 3 6.11251 19.9875 8.39939
3807 3 6.81281 21.02 7.54191
3808 2 -19.2536 -6.08286 31.7363
3809 3 -18.5751 -6.75301 31.818
3810 3 -18.9322 -5.35049 32.2621
3811 2 -25.1015 18.4203 72.668
3812 3 -25.5987 18.2918 73.4758
3813 3 -24.1869 18.3152 72.9298
3814 2 45.5347 -4.32607 73.919
3815 3 44.9963 -3.66877 73.4782
3816 3 45.0632 -4.51842 74.7294
3817 2 -47.3029 20.5678 -37.8698
3818 3 -47.1668 21.4481 -37.5196
3819 3 -47.6369 20.0634 -37.128
3820 2 -9.72354 -31.3848 53.2915
3821 3 -10.0656 -31.6627 54.1411
3822 3 -10.4523 -31.5155 52.6849
3823 2 -1.73573 54.0946 49.1882
3824 3 -2.26595 54.6566 48.6232
3825 3 -1.91239 53.2067 48.8773
3826 2 -25.0848 20.2319 43.9799
3827 3 -24.4475 20.0248 44.6634
3828 3 -24.6295 20.0379 43.1606
3829 2 -19.6654 31.0716 16.1954
3830 3 -20.3341 31.2799 16.8479
3831 3 -19.4587 31.9122 15.7869
3832 2 -41.5752 17.3524 40.2012
3833 3 -41.5647 16.4826 40.6008
3834 3 -41.9471 17.9215 40.875
3835 2 16.1661 41.6535 12.5909
3836 3 16.513 42.485 12.9141
3837 3 15.338 41.8859 12.1708
3838 2 -12.1083 -6.1925 35.447
3839 3 -12.8353 -5.57399 35.5189
3840 3 -12.2253 -6.60188 34.5898
3841 2 63.78 53.2496 31.3894
3842 3 63.9091 52.7596 30.5774
3843 3 63.422 54.0914 31.1074
3844 2 9.95724 8.84584 38.1287
3845 3 10.6115 9.53435 38.2474
3846 3 9.13196 9.25038 38.3961
3847 2 -29.3226 4.98232 17.4111
3848 3 -30.077 5.43058 17.0287
3849 3 -28.9793 5.59912 18.0576
3850 2 -18.0079 1.28626 36.7232
3851 3 -17.3431 1.6561 37.3042
3852 3 -17.7149 1.52163 35.8428
3853 2 30.7031 -0.180578 11.3544
3854 3 31.1016 -0.964558 10.9765
3855 3 30.7491 0.472387 10.656
3862 2 -49.7341 21.6251 44.6361
3863 3 -49.4283 22.3225 44.0561
3864 3 -50.6006 21.9139 44.9225
3865 2 16.9836 51.4617 30.1148
3866 3 17.8171 51.6097 29.6679
3867 3 16.3228 51.5628 29.4297
3868 2 4.68759 -16.2763 38.6591
3869 3 3.77847 -16.2869 38.9584
3870 3 5.08005 -15.5289 39.1102
3877 2 -10.3928 18.5145 30.8785
3878 3 -10.7982 18.4588 31.7438
3879 3 -10.8319 19.252 30.4548
3880 2 13.3796 11.5001 55.7546
3881 3 14.2912 11.6834 55.9817
3882 3 12.9008 11.61 56.5761
3883 2 22.2711 12.8267 47.1013
3884 3 21.981 13.4445 46.4303
3885 3 21.7551 13.0529 47.8751
3886 2 -17.0195 -1.19014 42.4495
3887 3 -17.229 -1.20771 43.3833
3888 3 -17.4108 -1.99105 42.1007
3922 2 24.9508 6.24605 40.4128
3923 3 24.0556 6.44211 40.1362
3924 3 25.4772 6.36208 39.6218
3925 2 6.4142 -24.1142 45.4173
3926 3 6.09986 -23.4251 46.0025
3927 3 6.08686 -24.9259 45.8047
3961 2 23.5183 23.5674 52.8379
3962 3 23.5873 24.1796 52.1054
3963 3 23.1958 24.0992 53.5655
3964 2 -5.0235 21.2637 36.4002
3965 3 -5.62589 20.5393 36.5692
3966 3 -5.27079 21.5841 35.5328
4000 2 24.0784 17.4347 24.7988
4001 3 24.9272 17.585 24.3825
4002 3 23.9761 18.1673 25.4064
4003 2 -28.7906 0.995436 48.8851
4004 3 -29.6415 0.581733 48.7401
4005 3 -28.5901 1.429 48.0556
4039 2 2.4744 13.1187 15.497
4040 3 1.91923 12.4092 15.8205
4041 3 3.36682 12.7835 15.5833
4042 2 -3.02023 33.2835 0.236805
4043 3 -2.49117 33.8526 -0.322103
4044 3 -3.37517 32.6242 -0.35952
4045 2 -29.7214 43.1409 22.3204
4046 3 -29.6972 43.8731 21.7044
4047 3 -29.9985 43.5329 23.1484
4078 2 22.1896 36.9519 27.2895
4079 3 23.0298 36.6872 27.6639
4080 3 22.053 36.3505 26.5574
4081 2 -29.0448 42.2883 47.6212
4082 3 -29.6312 41.6229 47.9811
4083 3 -28.5613 42.6173 48.379
4084 2 -17.0328 -3.15149 62.7171
4085 3 -16.2145 -2.90108 62.2882
4086 3 -17.7042 -2.63145 62.2755
4087 2 -37.4614 0.8285 -11.52
4088 3 -37.3749 0.995281 -10.5815
4089 3 -37.726 1.67069 -11.89
4096 2 17.191 2.09686 22.4611
4097 3 16.2839 2.32531 22.6637
4098 3 17.1229 1.38856 21.8209
4099 2 11.305 56.6229 29.5539
4100 3 10.8571 56.9884 30.3169
4101 3 11.3726 57.3555 28.9416
4102 2 35.3827 23.6222 44.6688
4103 3 35.3321 24.2725 43.9683
4104 3 35.9424 24.0266 45.3317
4111 2 9.08934 26.5536 64.8371
4112 3 9.16879 26.9208 63.9567
4113 3 9.48199 27.2134 65.4086
4114 2 15.6884 49.6267 31.6363
4115 3 16.0609 50.2813 31.0456
4116 3 14.7763 49.5435 31.3579
4117 2 -27.2959 21.5564 -37.4294
4118 3 -27.1808 20.6978 -37.8367
4119 3 -26.628 22.1071 -37.8379
4120 2 -27.6267 18.1322 56.8008
4121 3 -28.17 17.573 57.3561
4122 3 -28.2462 18.7314 56.3844
4123 2 -6.48687 44.8799 66.6955
4124 3 -5.76906 45.065 67.3011
4125 3 -7.1424 45.5502 66.8884
4126 2 -12.514 30.9655 16.9758
4127 3 -12.7389 30.0516 16.8015
4128 3 -12.2948 30.9852 17.9074
4129 2 29.17 29.6497 22.8853
4130 3 29.6393 30.385 23.2793
4131 3 28.3511 29.596 23.378
4132 2 22.7473 34.8377 23.6308
4133 3 23.4096 35.2754 24.1654
4134 3 23.2501 34.3256 22.9974
4135 2 -24.7219 52.3655 73.4814
4136 3 -25.1748 51.5301 73.5966
4137 3 -25.3908 53.0273 73.6571
4138 2 -1.17163 48.1432 10.0809
4139 3 -1.2961 48.1004 11.029
4140 3 -0.426194 48.732 9.96304
4141 2 14.9826 68.0497 37.5639
4142 3 14.0926 67.9459 37.2272
4143 3 15.5069 68.2669 36.7931
4144 2 -14.9575 36.699 44.8769
4145 3 -15.1841 36.5676 45.7975
4146 3 -15.7906 36.9012 44.4511
4147 2 -37.3286 23.535 1.53265
4148 3 -38.262 23.5047 1.74271
4149 3 -36.9792 22.7114 1.87284
4150 2 12.3112 58.8427 65.3244
4151 3 13.2153 58.6501 65.0761
4152 3 12.0178 59.4876 64.6808
4153 2 8.15791 20.6188 43.3632
4154 3 7.78176 19.8047 43.6979
4155 3 7.52341 20.9284 42.7168
4156 2 6.78807 29.7017 17.1057
4157 3 7.41213 29.8866 17.8075
4158 3 5.93076 29.872 17.4958
4159 2 -26.3445 2.26687 81.1864
4160 3 -26.8317 2.40667 80.3744
4161 3 -26.3463 1.3173 81.3069
4162 2 8.43851 60.3029 18.8817
4163 3 8.43102 59.3776 18.6368
4164 3 8.31526 60.3009 19.831
4165 2 -15.2917 32.9233 33.0826
4166 3 -16.1893 33.236 33.1952
4167 3 -14.8797 33.0643 33.935
4168 2 -28.4993 59.7669 65.2752
4169 3 -28.8155 58.9329 64.9279
4170 3 -27.6692 59.9161 64.8224
4171 2 2.87925 40.7141 18.4987
4172 3 2.70078 40.1658 17.7347
4173 3 3.40392 40.1587 19.0753
4174 2 -15.313 31.729 16.0666
4175 3 -15.5993 32.1069 15.2351
4176 3 -14.3893 31.519 15.9295
4177 2 12.0735 34.5331 8.69356
4178 3 12.246 35.1141 9.43442
4179 3 11.2556 34.8594 8.31816
4180 2 -18.3454 40.3899 5.32216
4181 3 -18.8349 39.6547 5.69113
4182 3 -17.4454 40.2513 5.61711
4183 2 11.5644 22.286 53.3377
4184 3 10.8548 22.7619 53.7692
4185 3 11.223 21.3993 53.2219
4186 2 -22.8419 -4.60748 31.9615
4187 3 -22.1615 -4.98203 31.4021
4188 3 -23.5703 -5.22551 31.9
4189 2 17.4399 7.29301 50.0135
4190 3 17.1749 6.60506 49.403
4191 3 18.0869 6.87406 50.581
4192 2 -3.41253 49.4175 47.3074
4193 3 -3.1409 50.3102 47.5209
4194 3 -2.61413 48.8966 47.3937
4195 2 14.8966 25.6142 21.543
4196 3 15.6134 26.0461 21.0784
4197 3 15.271 24.7869 21.8457
4198 2 -71.1273 18.0044 11.7338
4199 3 -71.9836 17.6531 11.9778
4200 3 -71.1427 18.9103 12.0425
4201 2 -32.0688 38.1815 16.7029
4202 3 -31.886 38.7457 17.4543
4203 3 -32.8375 38.5743 16.2893
4204 2 -79.1401 56.5238 49.6856
4205 3 -79.7746 57.1894 49.9514
4206 3 -78.2875 56.9369 49.822
4207 2 -11.4825 61.929 17.0888
4208 3 -12.0746 62.6421 17.3278
4209 3 -11.8469 61.1584 17.5243
4210 2 -36.6102 15.0443 18.9522
4211 3 -37.5576 14.9735 18.8352
4212 3 -36.4936 15.8178 19.5037
4213 2 -16.5964 49.2409 17.1862
4214 3 -16.4161 48.3554 17.5019
4215 3 -16.1176 49.3032 16.3598
4216 2 -6.16169 66.3167 17.8768
4217 3 -5.79184 65.4357 17.9337
4218 3 -5.56075 66.7927 17.3037
4219 2 -30.2505 -2.08459 32.6601
4220 3 -29.3212 -2.00675 32.8756
4221 3 -30.6885 -2.15492 33.5084
4222 2 13.4146 65.1823 -6.46098
4223 3 12.7502 65.5797 -7.02393
4224 3 13.6106 65.8553 -5.80915
4225 2 -39.8245 33.0055 10.6089
4226 3 -39.4697 33.4522 9.84027
4227 3 -40.5923 32.5372 10.2812
4228 2 25.4253 77.9809 38.4374
4229 3 24.7453 78.6061 38.1863
4230 3 25.3019 77.2407 37.8432
4231 2 -14.6817 44.6161 38.6405
4232 3 -14.0138 44.2562 38.0569
4233 3 -15.449 44.062 38.4976
4234 2 21.3597 9.34863 20.8164
4235 3 21.355 8.39237 20.7748
4236 3 20.6192 9.5679 21.3819
4237 2 -20.5577 -8.09065 33.6481
4238 3 -20.1551 -7.33073 33.2278
4239 3 -19.894 -8.77777 33.588
4240 2 -23.1975 -8.42326 33.2382
4241 3 -23.4491 -8.89568 34.0317
4242 3 -22.2404 -8.43581 33.2447
4243 2 2.45438 -3.85055 32.7099
4244 3 1.8233 -4.08117 33.3916
4245 3 2.14961 -4.31851 31.9325
4246 2 28.7399 -27.5861 37.2528
4247 3 29.1814 -26.8902 37.7397
4248 3 27.9329 -27.7465 37.7418
4249 2 12.0025 10.5608 38.4822
4250 3 12.611 9.86523 38.2328
4251 3 12.1322 10.6665 39.4247
4252 2 -33.2317 15.3344 57.5115
4253 3 -33.7378 14.6325 57.9207
4254 3 -33.7927 16.1068 57.5811
4255 2 -19.8314 44.1275 30.4687
4256 3 -20.7069 44.5118 30.4254
4257 3 -19.5465 44.2803 31.3697
4258 2 -22.6451 20.0271 49.0218
4259 3 -21.688 20.0166 49.0313
4260 3 -22.8797 20.8715 49.4067
4261 2 -26.1151 -30.2454 44.5711
4262 3 -25.2797 -30.3675 44.1202
4263 3 -25.9169 -29.6369 45.283
4264 2 40.7594 -16.4146 42.4933
4265 3 40.1891 -16.4441 43.2614
4266 3 41.3177 -15.6507 42.638
4267 2 -23.6715 6.36933 71.1393
4268 3 -24.1465 7.01068 70.6108
4269 3 -23.4019 5.69605 70.5147
4270 2 29.6454 9.45725 29.3736
4271 3 30.3003 9.91837 28.8496
4272 3 29.1122 10.1531 29.7579
4273 2 45.0996 -3.0769 21.0058
4274 3 45.5217 -2.29411 20.6519
4275 3 45.1007 -2.9425 21.9535
4276 2 -9.02135 -25.375 9.60134
4277 3 -9.04015 -24.5311 9.14995
4278 3 -8.18544 -25.7652 9.34597
4279 2 -61.173 10.1198 50.5896
4280 3 -61.8146 10.783 50.844
4281 3 -61.1509 10.1617 49.6336
4282 2 -24.7048 8.61244 69.8072
4283 3 -23.7768 8.4403 69.6481
4284 3 -25.1584 8.1568 69.0981
4285 2 -0.206028 -34.6702 41.9655
4286 3 0.550479 -34.6051 41.3827
4287 3 -0.706351 -33.8712 41.7994
4288 2 9.1706 -10.7024 33.9637
4289 3 9.21072 -10.2476 33.1224
4290 3 10.0303 -11.1129 34.0558
4291 2 3.51421 -5.04659 74.8924
4292 3 3.51787 -4.21424 75.365
4293 3 2.63343 -5.39585 75.0282
4294 2 27.5822 -43.3897 5.23537
4295 3 28.3897 -43.8966 5.14998
4296 3 27.7961 -42.5334 4.86481
4297 2 24.137 -0.4131 11.6671
4298 3 23.8598 -0.000692871 12.4852
4299 3 24.1934 -1.34561 11.8756
4300 2 24.7217 14.6088 -3.43234
4301 3 24.4526 14.4794 -2.52293
4302 3 24.7701 13.7249 -3.79636
4303 2 5.60028 -7.63792 47.0728
4304 3 6.14886 -8.18858 46.5142
4305 3 4.70833 -7.7952 46.7631
4306 2 17.1351 2.61729 30.8413
4307 3 16.499 2.15099 30.2989
4308 3 16.6119 3.01228 31.5388
4309 2 4.39265 7.19734 47.6558
4310 3 4.7183 7.39927 48.533
4311 3 5.18154 7.11484 47.1201
4312 2 33.0194 -19.5024 -0.0956493
4313 3 32.99 -19.7634 0.824794
4314 3 32.1011 -19.4597 -0.362425
4315 2 24.3443 -5.05056 46.6871
4316 3 25.1365 -4.67899 46.2992
4317 3 24.6556 -5.53301 47.453
4318 2 -7.41336 14.9756 38.0651
4319 3 -7.59819 15.4541 38.8733
4320 3 -8.18777 15.1164 37.5204
4321 2 -20.8566 0.356405 64.3324
4322 3 -20.2446 0.773113 63.7258
4323 3 -21.7188 0.507815 63.9452
4324 2 20.368 43.1211 37.274
4325 3 19.4348 43.3187 37.1945
4326 3 20.4484 42.6782 38.1188
4327 2 21.4374 17.4391 73.7508
4328 3 21.4331 18.1409 73.0999
4329 3 20.7441 16.8437 73.4663
4330 2 8.09128 59.5386 21.5294
4331 3 8.97802 59.2028 21.6602
4332 3 7.55749 59.0603 22.1638
4333 2 -19.2968 31.3461 25.8694
4334 3 -19.6387 31.7861 25.0911
4335 3 -19.5862 31.8921 26.6003
4336 2 44.5813 -34.8943 40.0539
4337 3 45.3524 -35.3915 40.3267
4338 3 44.4637 -34.238 40.7406
4339 2 20.0123 12.4636 43.7967
4340 3 20.5227 12.9754 44.4241
4341 3 19.1113 12.5242 44.114
4342 2 -1.44125 10.2744 15.5205
4343 3 -2.05031 10.6041 16.1813
4344 3 -0.688548 10.8634 15.5728
4345 2 11.7925 -20.8649 32.8454
4346 3 12.0088 -20.4065 33.6574
4347 3 10.8642 -20.6787 32.7046
4348 2 18.2517 29.2199 14.2232
4349 3 17.9057 29.7936 14.9068
4350 3 17.5525 28.5853 14.066
4351 2 -10.5469 -1.39741 89.7025
4352 3 -10.2793 -0.530148 89.3985
4353 3 -11.013 -1.77917 88.9588
4354 2 -18.0827 50.7641 63.6837
4355 3 -18.8864 50.382 63.3312
4356 3 -18.1779 51.7045 63.5329
4357 2 -48.2764 14.1164 15.6624
4358 3 -49.0621 14.5054 16.0464
4359 3 -47.9862 13.4733 16.3093
4360 2 -16.8939 23.1652 41.2657
4361 3 -16.0102 23.0171 41.6025
4362 3 -16.7621 23.4362 40.3572
4363 2 -10.7708 -1.2851 40.0109
4364 3 -11.4578 -1.85854 39.6713
4365 3 -10.6489 -0.625835 39.3278
4366 2 -25.7574 37.2976 38.9056
4367 3 -26.1204 38.1802 38.9783
4368 3 -26.5146 36.7408 38.7242
4369 2 -9.31232 41.9283 60.1796
4370 3 -9.90666 41.9944 59.4322
4371 3 -9.73179 41.2976 60.7648
4375 2 -1.71889 17.0989 61.9216
4376 3 -1.04523 17.7639 62.0637
4377 3 -1.2559 16.2657 62.0093
4378 2 -3.09751 6.81597 8.31979
4379 3 -4.04184 6.97157 8.30444
4380 3 -2.82851 6.88182 7.40354
4381 2 -1.99303 11.2071 22.6361
4382 3 -2.17632 10.7045 23.4298
4383 3 -1.03986 11.2935 22.6215
4384 2 11.2216 23.1167 33.2172
4385 3 11.3174 22.1866 33.4218
4386 3 10.3947 23.3689 33.6281
4387 2 23.403 -8.58868 43.9409
4388 3 22.9612 -9.43777 43.9361
4389 3 22.8005 -8.00201 43.4837
4390 2 33.3847 -17.8361 59.2665
4391 3 33.1853 -17.9401 58.3361
4392 3 32.5294 -17.744 59.6863
4393 2 -50.0864 -16.3833 36.7685
4394 3 -50.5506 -16.1821 37.581
4395 3 -49.2113 -16.6486 37.0514
4396 2 -4.36813 26.7482 45.5237
4397 3 -5.04078 27.3734 45.2537
4398 3 -4.83723 25.9201 45.6255
4426 2 19.4109 -3.91362 33.0265
4427 3 18.9388 -3.77505 33.8475
4428 3 19.1006 -3.21497 32.4504
4429 2 -6.43148 -16.917 45.1815
4430 3 -5.60463 -16.9734 45.6604
4431 3 -6.66584 -17.827 44.9993
4432 2 -6.98336 14.4943 60.9397
4433 3 -6.46405 14.3963 61.7378
4434 3 -7.84993 14.1628 61.1751
4435 2 36.6383 2.82306 24.2064
4436 3 35.7403 2.688 24.5089
4437 3 37.0429 3.35982 24.8879
4468 2 -26.21 48.4014 42.9598
4469 3 -26.8392 47.6821 43.0138
4470 3 -26.731 49.1885 43.1184
4471 2 14.1467 24.4655 24.7479
4472 3 13.87 25.339 25.0245
4473 3 15.0909 24.5445 24.6122
4507 2 39.7895 69.5139 59.9471
4508 3 39.0149 68.9929 59.7356
4509 3 39.6297 69.8316 60.8357
4510 2 16.2698 26.1301 54.2028
4511 3 16.7565 26.9393 54.3595
4512 3 15.4151 26.2822 54.606
4546 2 103.264 5.44891 69.2104
4547 3 103.058 6.37106 69.3633
4548 3 103.96 5.25147 69.8372
4549 2 -39.0672 32.0376 -17.9969
4550 3 -39.9079 31.58 -18
4551 3 -38.8249 32.1008 -18.9208
4552 2 -20.4109 37.8477 20.1964
4553 3 -19.6131 37.325 20.1159
4554 3 -21.1009 37.289 19.8389
4582 2 -12.7683 1.61169 32.6768
4583 3 -12.535 1.30991 31.7989
4584 3 -11.9926 2.08148 32.983
4585 2 28.2111 8.73555 49.2187
4586 3 27.2651 8.72792 49.0725
4587 3 28.3067 8.72905 50.171
4588 2 18.0789 8.63538 64.2213
4589 3 18.076 7.67928 64.2668
4590 3 18.3096 8.91706 65.1066
4591 2 -34.7973 8.36156 5.49827
4592 3 -34.1105 7.78789 5.15836
4593 3 -35.4059 8.46666 4.76703
4594 2 19.0791 38.0483 65.6781
4595 3 19.5167 37.7604 64.8769
4596 3 18.1453 37.9714 65.4823
4597 2 -17.242 53.8015 2.36028
4598 3 -17.5383 54.4346 1.70635
4599 3 -17.9769 53.7231 2.9686
4600 2 8.11223 61.7246 25.6672
4601 3 7.8376 62.5151 26.132
4602 3 8.40047 61.128 26.358
4603 2 14.9828 4.29498 26.719
4604 3 14.8539 3.35211 26.6161
4605 3 15.4867 4.3814 27.5282
4609 2 16.2695 10.7778 56.3839
4610 3 16.5158 11.0824 55.5105
4611 3 16.5269 9.85596 56.398
4612 2 31.4562 14.7435 46.6242
4613 3 31.4063 13.91 47.0921
4614 3 30.5917 14.8478 46.2268
4615 2 -5.01505 79.9603 24.9441
4616 3 -5.52298 79.6061 25.674
4617 3 -4.2785 80.4087 25.3595
4618 2 5.03836 35.3985 27.3524
4619 3 4.7096 34.9573 28.1356
4620 3 4.5208 35.0321 26.6354
4621 2 19.8133 23.2879 34.1797
4622 3 20.4437 23.6815 34.7829
4623 3 19.3827 22.6054 34.6943
4624 2 1.75564 36.8472 45.5159
4625 3 1.60327 36.2946 46.2825
4626 3 2.64114 36.6225 45.2303
4627 2 -16.6166 17.7593 20.5961
4628 3 -17.2004 17.0461 20.8545
4629 3 -17.0642 18.1823 19.8634
4630 2 -27.3788 9.6012 57.9247
4631 3 -27.5709 9.22897 57.0641
4632 3 -26.5506 10.0662 57.8057
4633 2 27.7586 48.9481 67.9288
4634 3 28.0381 49.6446 68.5229
4635 3 27.2141 48.3757 68.4694
4636 2 -15.3823 63.7789 59.8296
4637 3 -14.8221 64.0707 59.1104
4638 3 -15.4538 64.542 60.403
4639 2 -12.7349 22.2575 55.9164
4640 3 -12.833 22.4502 56.8489
4641 3 -13.4128 21.6071 55.7331
4642 2 -13.8178 66.6041 49.5279
4643 3 -14.2917 66.5396 50.357
4644 3 -14.4147 66.2291 48.8805
4645 2 -43.6833 35.6541 47.2416
4646 3 -44.1138 35.8469 46.4087
4647 3 -43.8727 34.7296 47.4013
4648 2 -31.081 22.9954 31.5395
4649 3 -31.3305 23.5474 32.2806
4650 3 -30.1965 23.2829 31.3132
4651 2 15.429 7.91975 68.9463
4652 3 16.0078 8.48354 69.4596
4653 3 15.3813 8.34206 68.0887
4654 2 9.73672 39.9195 46.4754
4655 3 10.4859 40.2034 45.9516
4656 3 9.32831 40.7333 46.7707
4657 2 28.4175 6.46671 10.05
4658 3 29.3538 6.29332 9.95248
4659 3 28.3741 7.24579 10.6044
4660 2 34.5943 5.78978 96.9856
4661 3 33.6581 5.79039 97.1851
4662 3 34.8648 6.70067 97.1009
4663 2 5.11255 14.9479 -9.98642
4664 3 6.03238 14.7011 -9.89046
4665 3 5.09583 15.8873 -9.80369
4666 2 23.0942 27.4387 32.9282
4667 3 23.561 27.3536 33.7596
4668 3 22.9826 26.5385 32.6225
4669 2 -5.11222 -16.5064 42.6213
4670 3 -5.72738 -16.6774 43.3344
4671 3 -4.88458 -15.5816 42.7172
4672 2 -15.8727 7.41694 7.65151
4673 3 -15.3144 7.82165 8.31543
4674 3 -15.5149 7.72307 6.81813
4675 2 -32.0884 35.1038 47.0949
4676 3 -31.2725 34.6042 47.1227
4677 3 -32.6873 34.6171 47.6612
4678 2 -31.9371 24.326 33.7283
4679 3 -31.9023 23.7122 34.462
4680 3 -32.7022 24.8723 33.9085
4681 2 -10.7049 25.9395 -8.77771
4682 3 -10.7944 26.7968 -9.194
4683 3 -9.7604 25.8151 -8.68517
4684 2 3.01227 35.4578 62.3661
4685 3 3.28997 35.0709 61.5358
4686 3 2.63518 36.3033 62.1227
4687 2 -19.3118 -1.99619 68.5826
4688 3 -20.22 -1.85893 68.3132
4689 3 -18.8882 -2.37661 67.8132
4690 2 -12.501 69.2 57.4964
4691 3 -11.7165 69.0211 58.0148
4692 3 -12.3765 70.0921 57.1727
4693 2 -3.50702 54.8433 34.1388
4694 3 -4.35673 55.2228 33.9149
4695 3 -2.93555 55.0881 33.411
4696 2 -4.69899 34.1677 24.3366
4697 3 -4.1019 33.4459 24.1395
4698 3 -4.1452 34.9482 24.3215
4699 2 29.0932 21.8462 53.1022
4700 3 29.5915 21.758 53.9147
4701 3 28.9163 22.7841 53.0298
4702 2 31.6123 37.8555 58.2077
4703 3 31.021 38.5853 58.3919
4704 3 31.042 37.1626 57.875
4705 2 -14.2341 40.5407 40.4254
4706 3 -14.4314 39.7918 40.9879
4707 3 -13.3753 40.3412 40.0527
4708 2 20.1988 17.5563 84.2295
4709 3 21.1111 17.4418 84.4956
4710 3 20.0539 18.5016 84.2699
4711 2 -1.34984 0.860857 55.68
4712 3 -0.68766 0.196532 55.8707
4713 3 -2.07458 0.653658 56.2699
4714 2 -20.7503 29.8453 49.1037
4715 3 -20.6322 28.9164 49.3024
4716 3 -19.8604 30.1876 49.019
4717 2 45.7968 0.773816 34.0604
4718 3 44.8724 0.561097 33.9319
4719 3 45.9043 1.63294 33.6523
4720 2 -2.11616 8.6401 21.7792
4721 3 -2.23193 9.58844 21.838
4722 3 -1.54962 8.4212 22.519
4723 2 -21.9946 56.4711 53.0676
4724 3 -21.5764 57.2716 53.3847
4725 3 -21.2676 55.8732 52.8937
4726 2 -50.3827 31.4218 43.1403
4727 3 -49.4732 31.5503 42.8709
4728 3 -50.42 30.5113 43.4331
4729 2 26.9738 12.3188 36.8797
4730 3 27.3789 11.471 37.0627
4731 3 27.3327 12.5781 36.0311
4732 2 -22.037 42.354 56.9936
4733 3 -22.7376 41.7134 57.1161
4734 3 -22.4891 43.1954 56.9318
4735 2 8.62174 3.45607 27.6587
4736 3 8.77268 4.2281 27.1134
4737 3 8.18948 3.79634 28.442
4738 2 43.9655 55.9605 43.69
4739 3 43.0362 55.968 43.9192
4740 3 44.3878 55.5001 44.4152
4741 2 -26.7242 36.7558 21.9285
4742 3 -26.0802 37.4638 21.9438
4743 3 -26.4125 36.1336 22.5857
4744 2 -68.4656 4.06918 68.0603
4745 3 -68.5497 4.70961 67.3539
4746 3 -68.7692 3.24677 67.676
4747 2 -13.5094 32.613 22.2599
4748 3 -12.8997 32.018 22.6963
4749 3 -13.5887 32.2662 21.3713
4750 2 -2.03492 5.32225 12.1885
4751 3 -2.812 5.6195 12.6618
4752 3 -1.70782 6.10641 11.7477
4753 2 -5.99947 -18.9892 47.3373
4754 3 -6.23369 -18.2312 47.8728
4755 3 -6.30764 -19.7429 47.8403
4756 2 3.64847 23.6574 22.5232
4757 3 3.99637 22.9153 22.0287
4758 3 2.9813 24.0357 21.9505
4759 2 -14.8288 16.2379 6.31922
4760 3 -14.6858 16.2859 5.37398
4761 3 -14.1523 15.6384 6.63412
4762 2 -0.967106 -10.3521 40.5433
4763 3 -1.00355 -10.3988 39.5879
4764 3 -0.634945 -9.47365 40.7281
4765 2 10.3877 -29.4485 53.2177
4766 3 9.84494 -28.7679 52.8196
4767 3 10.5335 -30.0811 52.5143
4768 2 -14.3071 -11.4103 47.9617
4769 3 -14.224 -11.7643 47.0763
4770 3 -15.0681 -10.8313 47.9182
4771 2 5.5276 -37.2934 34.3264
4772 3 4.75034 -37.4957 33.8056
4773 3 5.22947 -36.6392 34.9583
4774 2 7.48915 43.8934 66.1768
4775 3 6.89685 44.569 65.8468
4776 3 7.81783 44.2455 67.0039
4777 2 0.440515 -46.615 74.1416
4778 3 0.965429 -47.2641 73.6732
4779 3 -0.22266 -47.1294 74.6017
4780 2 41.3485 49.5902 67.9827
4781 3 41.0605 50.4454 67.6633
4782 3 40.9666 49.5198 68.8576
4783 2 25.3066 5.91824 60.3546
4784 3 24.8547 6.754 60.2385
4785 3 25.8998 5.86003 59.6056
4786 2 24.5863 29.2454 64.8861
4787 3 23.7947 29.0088 64.4027
4788 3 24.6989 28.5392 65.5224
4789 2 -7.74489 17.7775 30.7547
4790 3 -7.19286 18.1598 30.0726
4791 3 -8.63393 18.0452 30.5221
4792 2 -13.856 48.2728 48.4643
4793 3 -14.6198 48.833 48.3269
4794 3 -13.1675 48.6707 47.9314
4795 2 11.8701 24.9507 29.9696
4796 3 11.9248 23.9975 30.0371
4797 3 11.8308 25.1229 29.0289
4798 2 34.6711 4.69396 30.9491
4799 3 34.8605 5.17197 31.7564
4800 3 34.0033 4.05545 31.1992
4801 2 -1.44146 15.6969 32.602
4802 3 -0.643208 15.8594 32.0995
4803 3 -1.15799 15.7174 33.5161
4804 2 36.4367 31.1244 33.3324
4805 3 36.767 30.3103 32.9524
4806 3 35.8748 31.4959 32.6524
4807 2 -23.1662 -6.09283 23.1591
4808 3 -23.0108 -5.4522 22.4651
4809 3 -23.9346 -6.58256 22.8658
4810 2 34.5821 38.3122 20.3967
4811 3 35.1215 39.0185 20.7523
4812 3 33.7957 38.7509 20.0721
4813 2 31.9551 48.4654 28.4523
4814 3 31.6496 48.6981 27.5755
4815 3 32.7801 48.9402 28.5529
4816 2 7.74559 -10.6353 55.8522
4817 3 7.35151 -9.91153 55.3652
4818 3 7.26968 -11.4111 55.556
4819 2 12.3181 -28.2092 -9.79038
4820 3 13.2197 -27.9822 -10.018
4821 3 12.0021 -28.7161 -10.5384
4822 2 -27.6495 53.7027 46.707
4823 3 -27.6728 52.7471 46.7579
4824 3 -28.3742 53.9297 46.1243
4825 2 -2.52459 11.6038 44.2338
4826 3 -2.53882 12.471 43.8288
4827 3 -2.62239 11.7747 45.1705
4828 2 -21.4758 16.3057 31.6479
4829 3 -20.7272 16.4216 32.233
4830 3 -21.2001 15.6213 31.0382
4831 2 -14.2791 48.6062 61.3681
4832 3 -13.8208 49.4409 61.4651
4833 3 -15.1347 48.754 61.7711
4834 2 24.482 53.9384 39.3223
4835 3 24.4685 54.7064 38.751
4836 3 24.0249 53.2608 38.8242
4837 2 -5.20597 0.648893 72.7989
4838 3 -5.34157 0.307921 73.6829
4839 3 -6.08433 0.870764 72.4899
4840 2 -25.2485 32.3244 67.0681
4841 3 -25.0347 31.8557 67.8748
4842 3 -26.1968 32.4489 67.107
4843 2 -17.712 -2.79001 66.1904
4844 3 -16.9397 -3.33941 66.0561
4845 3 -17.4702 -1.9414 65.8194
4846 2 -17.719 38.3928 9.5035
4847 3 -17.2918 39.1923 9.81092
4848 3 -18.2106 38.0767 10.2615
4849 2 23.1561 -4.40852 35.6727
4850 3 22.7611 -4.97482 36.3356
4851 3 23.1129 -3.53021 36.0507
4852 2 -19.45 50.7903 86.1191
4853 3 -19.2014 51.7068 85.9991
4854 3 -18.6522 50.3644 86.4328
4855 2 19.7526 -17.3837 -21.4044
4856 3 19.8453 -17.9162 -22.1944
4857 3 18.8295 -17.131 -21.3922
4858 2 18.487 -22.6481 13.9547
4859 3 18.6526 -23.1561 14.7489
4860 3 17.8068 -23.1389 13.4935
4861 2 -2.18319 -22.4459 65.7063
4862 3 -2.26577 -23.0177 66.4694
4863 3 -1.2394 -22.3408 65.5862
4864 2 -18.1044 -18.9996 56.0702
4865 3 -18.786 -19.6577 55.9336
4866 3 -18.1278 -18.4619 55.2786
4867 2 -21.3593 -10.9499 69.743
4868 3 -22.2498 -10.9829 70.0926
4869 3 -20.8029 -11.2043 70.4791
4870 2 -22.5465 9.09457 27.2522
4871 3 -22.1568 9.54455 28.0018
4872 3 -22.3041 9.63123 26.4976
4873 2 9.87221 30.4858 61.2419
4874 3 9.51993 31.1383 60.6366
4875 3 10.2444 30.9997 61.9586
4885 2 -7.11482 35.8896 28.198
4886 3 -7.92439 36.0145 28.6932
4887 3 -6.43044 36.2495 28.7622
4888 2 -27.0547 -0.809583 15.81
4889 3 -27.2331 -1.37292 15.057
4890 3 -27.8453 -0.868433 16.3464
4891 2 9.82344 -24.8201 5.67759
4892 3 9.07348 -24.4067 5.25
4893 3 9.57205 -24.8784 6.59933
4894 2 12.2228 -1.15472 41.3044
4895 3 12.1468 -0.84191 40.403
4896 3 11.3183 -1.27007 41.5955
4897 2 11.6667 61.6348 47.014
4898 3 11.2221 60.8338 47.2913
4899 3 11.4785 61.702 46.0779
4900 2 -15.7129 -6.38416 23.0096
4901 3 -14.9088 -5.91464 22.7875
4902 3 -15.89 -6.14034 23.9181
4903 2 16.2851 15.9444 62.2909
4904 3 15.7688 15.1385 62.2825
4905 3 15.8539 16.5123 61.6524
4906 2 -7.75191 -9.77788 58.6213
4907 3 -8.58889 -10.0088 58.2184
4908 3 -7.96747 -9.07867 59.2384
4909 2 -47.2245 21.6072 28.4791
4910 3 -46.9873 20.7899 28.041
4911 3 -48.1045 21.4495 28.8212
4927 2 -28.4474 32.8854 2.232
4928 3 -28.6044 33.0201 3.16657
4929 3 -27.5189 32.6602 2.17464
4930 2 9.92203 -44.28 51.6108
4931 3 9.77275 -43.878 50.7551
4932 3 10.3935 -43.6133 52.1103
4933 2 17.3864 -5.75846 58.4473
4934 3 17.3067 -5.36793 59.3176
4935 3 18.1853 -6.28377 58.4923
4936 2 53.5644 5.46096 47.4577
4937 3 54.3115 5.36239 46.8675
4938 3 52.8446 5.01658 47.0099
4939 2 -19.5326 16.4022 55.2743
4940 3 -19.638 16.7158 54.3761
4941 3 -20.3431 15.9278 55.4595
4942 2 -48.5196 1.56517 110.974
4943 3 -48.8148 0.927196 110.324
4944 3 -49 2.36504 110.76
4945 2 -3.78564 22.4104 59.3862
4946 3 -4.62439 22.7545 59.0791
4947 3 -3.95824 21.4873 59.5713
4969 2 21.227 -26.8464 65.7125
4970 3 21.5287 -27.7532 65.7651
4971 3 21.9763 -26.3268 66.0039
4972 2 9.91455 35.0453 13.6742
4973 3 8.95736 35.0444 13.6737
4974 3 10.155 35.098 12.7492
4975 2 27.7803 50.594 40.4779
4976 3 27.5311 51.2748 39.8528
4977 3 27.0259 50.0055 40.5052
4978 2 -0.984063 24.7258 62.6362
4979 3 -0.161014 24.286 62.4232
4980 3 -1.05858 24.648 63.5873
4981 2 -20.7833 49.8819 53.9738
4982 3 -20.8927 49.4683 53.1175
4983 3 -19.9372 50.3262 53.9194
4984 2 -10.0836 -6.49817 58.8401
4985 3 -9.72776 -6.25384 57.9858
4986 3 -9.31353 -6.69508 59.3734
5011 2 15.8829 22.2553 32.0325
5012 3 16.3431 21.5651 31.555
5013 3 14.9604 22.0037 31.9883
5014 2 25.97 5.95232 51.2629
5015 3 25.1619 6.44133 51.4176
5016 3 25.7491 5.04755 51.4837
5017 2 -49.2914 30.985 62.042
5018 3 -49.6655 30.1366 61.8039
5019 3 -49.7141 31.2095 62.8709
5020 2 -11.8663 40.6117 11.6398
5021 3 -11.1051 41.091 11.9671
5022 3 -11.5841 39.6973 11.6206
5023 2 9.64076 1.89376 78.8826
5024 3 10.3038 1.97703 78.1973
5025 3 9.61875 0.957999 79.0828
5047 2 4.08975 -22.3398 88.7924
5048 3 4.75949 -22.0991 89.4325
5049 3 3.37752 -22.7062 89.3165
5050 2 5.28234 17.5166 29.3132
5051 3 6.2022 17.5228 29.5778
5052 3 5.22233 18.1922 28.6379
5053 2 36.8391 21.5173 -14.6846
5054 3 37.4253 22.206 -14.9981
5055 3 36.3842 21.2135 -15.4701
5056 2 -39.0595 18.0345 3.55975
5057 3 -39.9369 17.8781 3.21063
5058 3 -38.8394 18.9192 3.26804
5059 2 -17.7028 68.0362 58.9807
5060 3 -17.0244 68.2773 59.6115
5061 3 -17.2332 67.9243 58.1542
5062 2 -28.4388 25.7222 50.6552
5063 3 -28.6218 25.4158 49.767
5064 3 -28.511 26.675 50.6
5065 2 9.31239 37.0635 44.4262
5066 3 10.1562 37.2685 44.8289
5067 3 8.89186 36.4638 45.0424
5083 2 18.3129 -10.3122 40.1647
5084 3 17.6533 -10.3791 40.8551
5085 3 18.9155 -11.0355 40.3376
5086 2 55.6849 9.38815 46.9173
5087 3 56.1434 9.3527 47.7568
5088 3 55.4983 10.3176 46.7849
5089 2 5.71752 -4.0675 42.0191
5090 3 6.64794 -4.03521 42.2415
5091 3 5.39771 -3.18277 42.1957
5092 2 -39.4402 51.3358 10.8545
5093 3 -38.5654 51.02 10.6282
5094 3 -39.5079 51.1985 11.7994
5095 2 15.4999 35.0818 26.4195
5096 3 15.0075 35.2266 27.2274
5097 3 16.2466 34.5456 26.6863
5098 2 -22.3251 -32.7018 82.031
5099 3 -21.4313 -32.5359 81.7312
5100 3 -22.5694 -33.5271 81.6123
5101 2 -4.63605 6.88109 33.4325
5102 3 -5.24639 7.61528 33.3643
5103 3 -3.91233 7.21886 33.9601
5104 2 12.4429 49.9629 13.8674
5105 3 12.4237 49.9798 14.8242
5106 3 11.7913 50.6122 13.6027
5107 2 -15.1219 37.2335 16.359
5108 3 -15.922 37.6482 16.6815
5109 3 -15.1745 36.3318 16.6758
5119 2 1.63708 24.2859 20.9768
5120 3 0.756709 24.3423 21.3483
5121 3 1.72091 25.0725 20.4379
5122 2 0.200014 44.4607 36.8073
5123 3 -0.651303 44.6168 37.2161
5124 3 0.737413 45.2041 37.0808
5125 2 -23.4643 10.0018 72.2774
5126 3 -24.2294 9.46985 72.0586
5127 3 -22.7642 9.65384 71.7252
5128 2 -30.3415 33.3575 31.1662
5129 3 -30.6314 34.0859 31.7153
5130 3 -30.6894 32.5777 31.5987
5131 2 -49.8837 26.2233 42.8071
5132 3 -49.0835 26.7341 42.929
5133 3 -50.0623 26.2773 41.8683
5134 2 -19.7399 -20.2384 52.4167
5135 3 -19.0175 -19.8446 51.9276
5136 3 -19.9138 -21.0641 51.9648
5137 2 -18.6385 13.3543 59.9508
5138 3 -18.7717 14.1811 59.4874
5139 3 -19.0329 12.6938 59.3812
5140 2 -61.6124 55.2517 54.4037
5141 3 -61.3517 55.4388 55.3056
5142 3 -60.967 55.7118 53.867
5143 2 20.9252 40.7044 47.754
5144 3 21.8635 40.8397 47.887
5145 3 20.7173 41.2166 46.9726
5146 2 6.97919 17.3991 12.0919
5147 3 6.09938 17.775 12.0635
5148 3 6.90846 16.5848 11.5937
5149 2 19.6416 25.3493 16.6924
5150 3 20.0252 25.9013 16.011
5151 3 19.5445 24.4912 16.2795
5152 2 -23.707 29.6002 16.9773
5153 3 -23.7106 28.6591 17.1516
5154 3 -23.0694 29.9564 17.596
5155 2 -25.9056 -2.74814 23.738
5156 3 -25.8544 -3.37133 23.0133
5157 3 -25.3459 -3.12387 24.4175
5158 2 5.80498 4.6371 58.1104
5159 3 5.56714 5.44525 57.6559
5160 3 6.66138 4.82175 58.496
5161 2 -1.13197 51.9324 61.9841
5162 3 -1.91922 51.3879 61.9758
5163 3 -0.505425 51.4402 62.5146
5164 2 -14.7175 54.8936 3.54678
5165 3 -14.1357 54.5494 2.86918
5166 3 -15.5583 54.4675 3.38028
5167 2 5.44342 39.4365 67.0203
5168 3 5.78453 38.6606 67.4651
5169 3 4.59922 39.602 67.44
5170 2 37.0749 50.0503 19.6976
5171 3 36.2771 49.5347 19.58
5172 3 37.5772 49.5687 20.3549
5173 2 16.2928 54.9992 43.8295
5174 3 17.0923 54.4818 43.7332
5175 3 16.3403 55.3511 44.7184
5176 2 14.2993 23.4013 35.8901
5177 3 15.0024 23.4427 35.2418
5178 3 14.7512 23.3059 36.7284
5179 2 -15.568 67.9489 33.5736
5180 3 -15.311 68.78 33.1744
5181 3 -16.1998 67.5734 32.9604
5182 2 16.4713 27.6041 24.7254
5183 3 15.6231 27.9802 24.9607
5184 3 16.7487 28.1006 23.9555
5185 2 0.0535224 24.3812 67.9408
5186 3 0.392585 23.602 67.5004
5187 3 -0.708221 24.0687 68.4289
5188 2 0.837433 17.4927 34.2111
5189 3 0.381358 17.766 35.007
5190 3 1.10003 16.5885 34.3834
5191 2 8.50308 48.8205 63.454
5192 3 8.88299 48.9587 64.3216
5193 3 9.21689 48.4486 62.9359
5194 2 12.4983 16.3624 60.4505
5195 3 11.5624 16.4029 60.2539
5196 3 12.8017 15.5682 60.0108
5197 2 -3.27479 -31.9825 64.7732
5198 3 -3.80506 -31.6008 65.4727
5199 3 -2.67918 -31.2799 64.5129
5200 2 -36.5121 18.8339 17.178
5201 3 -37.1907 18.6637 17.8312
5202 3 -36.0663 17.9937 17.0706
5203 2 10.2592 21.2093 82.7706
5204 3 9.53886 21.2662 82.1429
5205 3 10.9518 20.7457 82.2998
5206 2 10.8855 35.0632 19.8722
5207 3 11.0524 34.2252 20.3038
5208 3 11.1705 35.7208 20.5067
5209 2 -2.1673 11.8667 26.7518
5210 3 -1.42753 11.6609 27.3233
5211 3 -2.57914 12.6295 27.1578
5212 2 -48.5472 33.6808 24.7086
5213 3 -47.8296 34.0098 24.1673
5214 3 -49.013 33.066 24.1418
5215 2 -61.363 36.7283 36.8234
5216 3 -61.6476 35.857 36.5473
5217 3 -62.0189 37.0031 37.4641
5218 2 -25.4772 16.9258 42.8581
5219 3 -25.7985 16.115 42.4636
5220 3 -26.2617 17.3521 43.2032
5221 2 -28.2225 83.5492 60.42
5222 3 -27.9748 82.6264 60.4779
5223 3 -28.2134 83.7417 59.4825
5224 2 19.3873 49.9204 37.6037
5225 3 18.9117 49.3902 36.9642
5226 3 19.6797 49.2935 38.2652
5227 2 -25.8375 32.9654 21.6324
5228 3 -25.3319 32.2426 21.2606
5229 3 -26.7508 32.7015 21.5211
5230 2 -2.73224 57.6834 35.0086
5231 3 -3.0955 56.9312 34.5412
5232 3 -3.48962 58.0975 35.4223
5233 2 -39.1549 -29.4066 66.6123
5234 3 -38.8583 -28.7802 67.2725
5235 3 -38.8189 -30.2505 66.9141
5236 2 -13.5028 35.3681 39.1416
5237 3 -12.896 34.794 38.6742
5238 3 -13.5563 34.9952 40.0215
5239 2 -28.7712 53.1795 72.0629
5240 3 -28.6371 53.7784 71.3284
5241 3 -29.5274 52.6515 71.807
5242 2 12.5703 12.8118 48.3704
5243 3 13.0507 13.363 47.7527
5244 3 12.6036 13.2926 49.1974
5245 2 -10.4513 66.2447 33.9891
5246 3 -10.6749 66.9278 33.357
5247 3 -10.1364 65.5163 33.454
5248 2 36.3044 41.0902 27.9174
5249 3 37.1746 41.1343 27.5213
5250 3 35.8093 41.7875 27.4875
5251 2 -7.3488 -5.70619 24.0153
5252 3 -7.69757 -4.82315 24.137
5253 3 -7.18061 -6.02222 24.9031
5254 2 -28.6808 -12.1065 85.0281
5255 3 -28.5395 -11.1834 84.8179
5256 3 -27.864 -12.5376 84.7767
5257 2 -28.6369 28.145 47.3297
5258 3 -27.9064 28.7359 47.1467
5259 3 -29.0375 28.4977 48.1243
5260 2 -5.67802 18.7794 29.2572
5261 3 -5.57176 19.0113 28.3347
5262 3 -4.95421 18.18 29.4389
5263 2 -26.6988 -20.5781 16.4919
5264 3 -27.0144 -20.3391 17.3634
5265 3 -25.7513 -20.6654 16.5954
5266 2 16.2344 -28.0048 62.3269
5267 3 16.7888 -28.3531 63.0251
5268 3 16.7276 -27.2633 61.9761
5269 2 -16.5299 -23.1252 45.303
5270 3 -16.0652 -22.5833 44.6654
5271 3 -17.4193 -22.7716 45.3155
5272 2 -21.7965 23.4762 0.814747
5273 3 -22.3665 23.1726 1.52117
5274 3 -20.9468 23.6126 1.23387
5275 2 15.3121 5.05958 54.3321
5276 3 15.7512 4.41517 53.777
5277 3 15.5928 4.8417 55.2209
5278 2 -14.1075 4.20383 31.846
5279 3 -13.71 4.58478 31.063
5280 3 -13.6084 3.40227 32.0028
5281 2 11.9627 25.4679 54.5205
5282 3 12.0315 24.8149 53.824
5283 3 11.4979 25.0181 55.2261
5284 2 13.5737 -16.6873 31.9417
5285 3 13.6757 -17.5552 31.5512
5286 3 13.7852 -16.814 32.8666
5287 2 48.8837 19.4307 52.9155
5288 3 48.7175 18.5144 53.1367
5289 3 49.7381 19.4222 52.484
5290 2 4.01118 -11.6401 35.1412
5291 3 3.50263 -10.9772 35.6083
5292 3 4.09981 -12.3592 35.7666
5293 2 -46.4028 -6.26077 69.0634
5294 3 -47.0217 -6.98964 69.107
5295 3 -46.7981 -5.64692 68.4444
5296 2 -59.6364 -4.28934 34.5151
5297 3 -59.8063 -4.36477 33.5762
5298 3 -58.864 -3.72718 34.5748
5299 2 14.0849 -8.2667 87.7685
5300 3 14.5347 -8.38953 86.9326
5301 3 13.2187 -8.65106 87.6338
5302 2 -0.00575848 30.4453 58.9189
5303 3 -0.426856 31.0136 58.2739
5304 3 -0.707695 29.8735 59.2295
5305 2 12.4493 2.63539 69.2409
5306 3 12.9573 1.84203 69.0712
5307 3 11.9409 2.7705 68.4412
5308 2 7.75741 9.26255 78.803
5309 3 7.12225 9.94805 79.0101
5310 3 8.18061 9.06705 79.639
5311 2 13.584 19.5658 51.2123
5312 3 14.0108 19.406 50.3706
5313 3 14.2995 19.5643 51.8482
5314 2 9.83759 43.6963 1.23025
5315 3 9.80234 44.6519 1.18966
5316 3 9.41619 43.4756 2.06088
5317 2 -8.9773 -24.2732 24.985
5318 3 -9.64582 -24.8155 25.4036
5319 3 -8.16124 -24.7568 25.113
5320 2 2.54734 40.5926 22.4699
5321 3 3.10927 40.0927 21.8779
5322 3 2.93095 40.4573 23.3364
5323 2 39.0311 -0.084491 49.8445
5324 3 38.4282 0.225069 50.5204
5325 3 39.3085 0.709927 49.3883
5326 2 13.0198 33.4219 51.9364
5327 3 13.4883 32.6005 52.0845
5328 3 12.2859 33.3936 52.5503
5329 2 -17.3802 0.451289 55.4283
5330 3 -17.1291 1.31085 55.7664
5331 3 -17.4124 -0.110956 56.2022
5332 2 -20.1649 -25.3666 62.1582
5333 3 -21.0444 -25.0093 62.2808
5334 3 -19.8323 -24.9233 61.3778
5335 2 -64.2799 22.8215 25.1636
5336 3 -64.222 23.6716 25.5998
5337 3 -63.6515 22.8779 24.4438
5338 2 -13.5223 -1.0385 57.957
5339 3 -14.3319 -0.977834 58.464
5340 3 -13.3008 -1.96965 57.969
5341 2 11.0271 30.4791 47.3874
5342 3 10.9614 30.9499 46.5566
5343 3 10.5462 31.0237 48.0105
5344 2 -0.15416 11.9322 71.8675
5345 3 -0.150959 11.4638 71.0327
5346 3 -0.59673 12.7592 71.6769
5347 2 2.15125 -1.91232 40.9258
5348 3 2.13094 -2.71987 41.4392
5349 3 1.37013 -1.95875 40.3745
5350 2 -24.2431 -18.6418 46.3706
5351 3 -24.5415 -19.4889 46.0398
5352 3 -24.8923 -18.3998 47.031
5353 2 20.7168 1.91201 34.0747
5354 3 21.6525 1.80096 34.2427
5355 3 20.4143 1.04142 33.8162
5356 2 11.4827 42.3531 56.8973
5357 3 12.0251 42.5717 56.1396
5358 3 11.7614 41.4717 57.1457
5359 2 13.9934 51.9465 46.6975
5360 3 14.2849 51.8169 45.7951
5361 3 13.3129 52.6168 46.636
5362 2 37.9148 23.5654 49.1785
5363 3 38.5059 24.3039 49.3249
5364 3 37.4094 23.8124 48.404
5365 2 19.7446 -38.7708 57.5653
5366 3 19.4551 -39.6797 57.6448
5367 3 20.355 -38.6489 58.2924
5368 2 -9.91073 18.3851 11.0839
5369 3 -8.99484 18.3922 11.3619
5370 3 -10.1909 19.2974 11.1575
5371 2 -32.2372 -48.3394 53.206
5372 3 -32.6367 -49.1362 52.8573
5373 3 -32.2987 -48.436 54.1563
5374 2 -4.63625 25.9971 87.1033
5375 3 -4.58282 25.0432 87.1617
5376 3 -4.10107 26.2212 86.342
5377 2 -29.2705 16.4626 58.1464
5378 3 -30.0047 16.8847 57.7003
5379 3 -29.4166 15.5258 58.0152
5380 2 28.3745 -21.4854 70.226
5381 3 28.8132 -20.8549 69.6549
5382 3 27.5073 -21.5987 69.8371
5383 2 17.3942 24.6425 79.65
5384 3 17.4723 24.5782 78.6982
5385 3 16.7776 25.3606 79.7923
5392 2 -17.2181 10.413 39.5055
5393 3 -17.6451 10.9472 40.1753
5394 3 -16.3044 10.3616 39.786
5395 2 0.152187 47.3111 41.4606
5396 3 -0.717293 47.1942 41.8434
5397 3 0.27095 46.5468 40.8968
5398 2 38.0904 -4.63574 72.1588
5399 3 37.4613 -5.21907 71.7344
5400 3 38.4017 -5.12958 72.9173
5401 2 -19.0846 15.304 42.1119
5402 3 -18.6749 15.5279 42.9474
5403 3 -20.0107 15.5122 42.2354
5404 2 3.61476 48.2635 21.0552
5405 3 3.33017 47.5929 20.4342
5406 3 3.19746 49.0681 20.7474
5407 2 19.6906 26.6387 47.9745
5408 3 19.9584 26.0038 48.6389
5409 3 19.833 26.1889 47.1416
5410 2 -23.0283 -1.2651 21.9009
5411 3 -23.6617 -0.776482 22.4265
5412 3 -22.5048 -1.74605 22.5418
5413 2 -15.5218 2.26949 43.8944
5414 3 -15.2888 3.17303 43.681
5415 3 -15.3199 1.77552 43.0998
5416 2 3.15408 25.3094 49.0171
5417 3 3.84653 24.8742 48.5198
5418 3 3.48217 25.332 49.916
5434 2 23.1347 -9.96467 57.7092
5435 3 22.7136 -9.11783 57.5617
5436 3 24.0686 -9.76198 57.764
5437 2 20.963 55.6116 30.5855
5438 3 20.0809 55.2964 30.7823
5439 3 21.2926 55.0044 29.923
5440 2 21.1883 24.2149 64.442
5441 3 21.8718 23.6053 64.1639
5442 3 20.3803 23.8509 64.0801
5443 2 37.14 -18.4103 74.3003
5444 3 37.3611 -18.1162 75.184
5445 3 36.3133 -17.9709 74.1009
5446 2 10.5645 56.2993 36.9883
5447 3 11.1878 56.0911 37.6842
5448 3 10.2388 55.4483 36.6954
5449 2 -10.3453 19.02 44.584
5450 3 -9.90685 18.9832 43.7339
5451 3 -10.6146 19.9339 44.6757
5452 2 -29.7097 29.1523 87.3306
5453 3 -30.6449 28.955 87.3809
5454 3 -29.3661 28.9072 88.1897
5476 2 -11.9034 15.118 42.3827
5477 3 -12.5827 14.6581 41.8894
5478 3 -11.2146 14.4652 42.5083
5479 2 24.0527 29.2751 31.0468
5480 3 23.3851 29.9479 30.9131
5481 3 23.7979 28.8429 31.8619
5482 2 29.4953 54.6376 35.2822
5483 3 29.2968 54.4034 34.3756
5484 3 28.8431 54.166 35.8003
5485 2 1.53663 2.6335 -2.37581
5486 3 2.43405 2.91491 -2.5537
5487 3 1.01689 3.43481 -2.4389
5488 2 5.15192 32.9161 14.3619
5489 3 5.7672 32.1854 14.4233
5490 3 4.93349 33.1228 15.2706
5491 2 -21.7464 55.7305 78.8228
5492 3 -22.5846 56.1927 78.8209
5493 3 -21.5369 55.6172 79.7499
5515 2 5.01602 26.4569 29.1351
5516 3 5.17243 26.3991 30.0777
5517 3 4.48991 25.6837 28.9313
5518 2 38.5102 -25.2945 10.381
5519 3 38.9911 -24.672 9.83559
5520 3 38.59 -24.9468 11.2693
5521 2 63.8314 20.309 54.0371
5522 3 63.3837 20.8733 54.6674
5523 3 64.6746 20.1141 54.4461
5524 2 -18.4485 37.7072 70.4105
5525 3 -18.3348 38.4327 69.7965
5526 3 -18.7964 36.9931 69.8764
5527 2 -43.5395 59.6116 34.0184
5528 3 -44.4797 59.786 33.9774
5529 3 -43.3458 59.1471 33.2042
5530 2 -30.2267 17.7553 35.9127
5531 3 -29.8519 17.0771 35.3507
5532 3 -30.0129 17.4747 36.8025
5554 2 3.21682 0.288935 32.4414
5555 3 3.41632 -0.583683 32.1023
5556 3 2.37759 0.185989 32.89
5557 2 28.0106 13.6537 43.196
5558 3 28.3044 12.8304 43.5861
5559 3 28.1852 13.5517 42.2604
5560 2 -3.77998 54.704 67.4546
5561 3 -3.03564 54.4523 66.908
5562 3 -4.28195 53.8963 67.5633
5563 2 -22.7982 17.6279 22.9381
5564 3 -23.0763 18.4233 23.3921
5565 3 -23.615 17.1889 22.7009
5566 2 -19.4616 20.8814 63.1677
5567 3 -18.69 20.3162 63.1322
5568 3 -19.1754 21.6472 63.6655
5569 2 -33.754 9.90512 50.2572
5570 3 -33.3904 10.6906 49.8484
5571 3 -34.4217 10.2347 50.8586
5572 2 -24.8246 3.68869 36.8766
5573 3 -25.2256 3.4364 36.0449
5574 3 -24.8416 4.64571 36.8707
5590 2 27.6502 26.0218 37.4073
5591 3 28.1043 25.6266 36.6632
5592 3 27.011 25.3621 37.6764
5593 2 -30.8065 6.59546 46.4734
5594 3 -30.8579 6.27712 45.5722
5595 3 -30.2792 5.93985 46.9298
5596 2 -6.32809 25.0149 72.8548
5597 3 -5.95843 24.7605 72.0093
5598 3 -5.58431 25.362 73.3473
5599 2 -10.1051 35.4858 58.9049
5600 3 -10.2289 35.1171 58.0303
5601 3 -10.708 36.2284 58.9399
5602 2 -32.0643 37.9833 26.0995
5603 3 -32.0607 37.9159 25.1447
5604 3 -32.2305 37.0907 26.4025
5605 2 14.0111 28.3962 57.7687
5606 3 14.9387 28.1717 57.8412
5607 3 13.5673 27.7706 58.3413
5608 2 -43.1824 -9.06679 4.5905
5609 3 -43.2231 -9.7313 5.27824
5610 3 -42.2549 -8.8373 4.53313
5611 2 -31.28 7.43002 32.6513
5612 3 -31.062 6.73311 33.2702
5613 3 -30.4778 7.56162 32.1459
5614 2 1.59586 29.9441 16.9635
5615 3 1.96836 30.7358 17.3516
5616 3 1.44066 29.3622 17.7075
5626 2 11.7033 2.37105 76.9859
5627 3 12.5723 2.24862 77.3682
5628 3 11.8624 2.86525 76.1818
5629 2 6.67254 26.2462 38.4087
5630 3 6.5425 25.9888 37.496
5631 3 6.28288 25.5345 38.9165
5632 2 -13.5136 63.2011 82.927
5633 3 -12.7639 63.241 83.5207
5634 3 -13.1676 63.4927 82.0836
5635 2 -15.2753 39.8316 55.9544
5636 3 -15.0657 39.8391 56.8883
5637 3 -14.6101 39.2649 55.5637
5638 2 -29.3288 8.70772 45.5585
5639 3 -28.7248 8.95528 46.2586
5640 3 -29.8819 8.03013 45.9472
5641 2 -24.1482 37.8114 67.4067
5642 3 -24.6707 37.389 66.7249
5643 3 -24.4198 37.3819 68.2178
5644 2 11.7625 -11.4172 34.1649
5645 3 12.26 -10.9095 34.8059
5646 3 12.4095 -11.998 33.7645
5647 2 13.4266 76.7374 84.9114
5648 3 14.2023 76.4358 84.4386
5649 3 13.4486 77.6905 84.8256
5650 2 -14.7983 61.2401 60.4687
5651 3 -15.3003 62.0314 60.2736
5652 3 -13.9663 61.5629 60.8148
5653 2 16.9921 -16.863 16.717
5654 3 16.5324 -16.1686 16.2451
5655 3 17.5252 -16.401 17.364
5656 2 16.385 47.033 37.8983
5657 3 16.7958 46.7347 38.7098
5658 3 16.1345 47.9397 38.0755
5659 2 -12.2904 54.8192 35.1905
5660 3 -12.5837 53.9418 34.9447
5661 3 -12.8219 55.0447 35.954
5662 2 -1.73504 31.78 64.4676
5663 3 -2.62738 32.0331 64.2312
5664 3 -1.27048 32.61 64.5745
5665 2 -13.6083 -10.3639 29.2468
5666 3 -13.7778 -11.138 29.7836
5667 3 -13.6747 -9.62947 29.8571
5668 2 43.2661 32.197 44.4844
5669 3 42.4243 32.3897 44.8973
5670 3 43.2019 32.5898 43.6139
5671 2 31.4995 -28.5123 71.3879
5672 3 30.6077 -28.2137 71.5662
5673 3 31.9601 -28.4029 72.2198
5674 2 29.046 19.2336 51.9464
5675 3 29.0826 19.9631 52.5651
5676 3 28.2046 18.8123 52.1214
5677 2 18.9765 47.2225 104.434
5678 3 19.6326 47.8856 104.219
5679 3 19.0608 47.0986 105.379
5680 2 -47.7503 72.8102 66.2323
5681 3 -47.7763 73.3143 67.0455
5682 3 -48.5871 72.9976 65.807
5683 2 -16.7739 70.5833 5.04276
5684 3 -16.014 71.0349 5.41005
5685 3 -17.23 70.2234 5.80344
5686 2 -15.0636 44.3093 94.035
5687 3 -15.3794 43.7002 94.7025
5688 3 -15.8068 44.8889 93.8681
5689 2 -60.9298 31.5021 79.6069
5690 3 -61.2466 30.6019 79.5321
5691 3 -61.2305 31.7914 80.4684
5692 2 -63.7596 33.0167 42.778
5693 3 -63.8192 32.3052 43.4155
5694 3 -63.6688 32.5754 41.9335
5695 2 17.0818 32.6049 61.1693
5696 3 16.8726 33.5263 61.3226
5697 3 16.2891 32.1331 61.4248
5698 2 -16.415 11.0806 25.2467
5699 3 -16.741 11.9348 24.9634
5700 3 -16.6324 11.0374 26.1778
5701 2 -25.6792 0.0197522 45.3316
5702 3 -25.0886 -0.653379 44.9936
5703 3 -25.1179 0.589297 45.8577
5704 2 -6.23056 52.8614 34.6974
5705 3 -6.90394 53.2236 35.2732
5706 3 -5.9269 53.6093 34.183
5707 2 -21.4734 85.4361 67.1872
5708 3 -20.5324 85.3343 67.3302
5709 3 -21.7491 86.0715 67.8479
5710 2 -5.16937 40.5237 69.5261
5711 3 -5.56898 39.6548 69.4871
5712 3 -5.49751 40.9739 68.7477
5713 2 14.764 -28.887 3.6086
5714 3 14.3673 -29.5536 3.04788
5715 3 14.1763 -28.1346 3.53959
5716 2 -6.35041 41.654 58.1953
5717 3 -6.95593 40.962 58.4612
5718 3 -6.23868 42.1899 58.9804
5719 2 6.44316 58.0916 23.1403
5720 3 6.06942 58.675 23.8007
5721 3 6.78547 57.3508 23.6405
5722 2 -20.8847 49.4725 84.1796
5723 3 -20.56 50.1183 84.8071
5724 3 -21.7604 49.25 84.4955
5725 2 -38.7105 68.6835 29.3692
5726 3 -38.3726 67.7967 29.2447
5727 3 -39.264 68.8391 28.6038
5728 2 -43.2145 32.1583 17.2529
5729 3 -42.6376 31.6031 16.7283
5730 3 -44.0578 32.1224 16.8014
5731 2 11.9768 24.4832 51.6485
5732 3 11.1781 24.6771 51.1579
5733 3 11.8836 23.5661 51.9061
5734 2 -1.39203 -4.45196 54.4418
5735 3 -2.0913 -4.85325 53.9259
5736 3 -1.62486 -3.52435 54.4811
5737 2 -34.748 29.8575 9.08265
5738 3 -34.8979 29.3714 8.27183
5739 3 -35.1355 29.3102 9.76569
5740 2 -2.44471 -9.79266 30.4346
5741 3 -2.82163 -10.3072 29.7209
5742 3 -3.13014 -9.16616 30.6667
5743 2 -14.4392 60.5956 82.8154
5744 3 -14.5462 60.6023 83.7665
5745 3 -14.0843 61.46 82.6077
5746 2 -40.7064 49.2165 57.0595
5747 3 -40.8839 48.9846 56.1479
5748 3 -41.2602 48.6255 57.5697
5749 2 38.9696 86.6742 37.2392
5750 3 38.0187 86.583 37.1781
5751 3 39.1563 87.5196 36.8311
5752 2 11.7087 59.028 49.9062
5753 3 12.4189 59.3824 49.3712
5754 3 12.1506 58.509 50.5783
5755 2 10.1025 9.31006 10.1873
5756 3 10.9495 9.03314 10.5369
5757 3 9.48431 9.14854 10.9
5758 2 -46.2373 -13.5395 54.739
5759 3 -47.1901 -13.4624 54.7882
5760 3 -45.981 -13.8949 55.59
5761 2 -41.3536 -25.6643 35.49
5762 3 -41.8357 -25.0159 34.9767
5763 3 -41.9512 -26.4088 35.5584
5764 2 -31.1693 -16.875 -4.26945
5765 3 -30.8351 -16.1203 -4.75417
5766 3 -31.8394 -17.2498 -4.84107
5767 2 15.0499 7.43932 51.557
5768 3 14.6622 8.29265 51.3626
5769 3 15.8389 7.40532 51.0162
5770 2 26.4143 4.74357 17.7674
5771 3 26.1967 5.19913 18.5807
5772 3 25.603 4.75843 17.2596
5773 2 8.42078 19.9243 64.0888
5774 3 8.82712 19.1108 64.3876
5775 3 8.79486 20.0746 63.2207
5776 2 -17.6658 33.3539 47.6966
5777 3 -16.7214 33.4447 47.8237
5778 3 -17.8036 33.5538 46.7707
5779 2 46.3915 -51.6698 41.622
5780 3 46.9371 -50.8925 41.5029
5781 3 46.4406 -52.1283 40.7832
5782 2 27.8423 16.1654 25.4062
5783 3 28.1375 15.2551 25.3867
5784 3 28.5116 16.6453 24.9184
5785 2 5.9057 27.2309 50.0996
5786 3 5.72916 26.3797 49.699
5787 3 5.82045 27.0758 51.0403
5788 2 21.7028 -41.9283 19.746
5789 3 21.1449 -41.8481 20.5196
5790 3 21.3342 -42.6656 19.2596
5791 2 -1.26534 -2.37985 29.8135
5792 3 -2.17376 -2.54417 30.0664
5793 3 -1.21014 -1.4287 29.7214
5794 2 -24.8357 -6.40718 32.1455
5795 3 -24.2317 -7.13776 32.2787
5796 3 -25.6987 -6.81694 32.0866
5797 2 -0.253388 0.211576 75.5615
5798 3 0.176069 1.05427 75.7085
5799 3 -0.44116 -0.118665 76.44
5800 2 -16.0953 32.1087 37.81
5801 3 -16.8445 31.5849 38.0939
5802 3 -15.3958 31.8778 38.4212
5803 2 -36.641 -21.5768 51.6284
5804 3 -36.6433 -21.3977 50.6881
5805 3 -37.5328 -21.3769 51.9129
5806 2 -1.21818 -22.2968 17.1732
5807 3 -1.99524 -22.4567 17.7087
5808 3 -1.56377 -22.0849 16.3061
5809 2 -17.5262 18.5235 76.1065
5810 3 -16.7415 18.625 76.645
5811 3 -17.2351 18.0112 75.3522
5812 2 34.9284 17.6031 96.8523
5813 3 34.6183 18.4725 97.106
5814 3 35.3248 17.2481 97.648
5815 2 -0.282412 -0.178571 81.1794
5816 3 0.0351724 -0.596016 81.98
5817 3 -0.737724 0.606895 81.4826
5818 2 22.119 -4.23313 65.8988
5819 3 21.9781 -4.92726 65.2549
5820 3 22.3601 -4.69561 66.7014
5821 2 44.1756 -19.5619 56.6497
5822 3 43.8479 -19.8167 55.7871
5823 3 43.399 -19.2629 57.1227
5824 2 -22.1762 52.0904 38.3946
5825 3 -22.1844 51.6006 37.5723
5826 3 -21.2616 52.071 38.6764
5827 2 13.6883 13.3069 44.2561
5828 3 12.7885 13.0181 44.1041
5829 3 14.2045 12.5009 44.2431
5830 2 9.27575 -19.7787 27.9769
5831 3 9.97283 -19.3614 28.4831
5832 3 9.72747 -20.1899 27.2401
5833 2 36.3636 -12.5283 65.4034
5834 3 36.8519 -12.7332 66.2007
5835 3 35.5254 -12.1878 65.716
5836 2 -48.5687 25.425 83.855
5837 3 -48.1127 24.5989 83.6942
5838 3 -47.9758 26.0962 83.5171
5839 2 27.653 3.16504 64.8929
5840 3 27.4373 4.00419 64.4861
5841 3 27.3576 3.25452 65.7989
5842 2 11.2037 24.7598 27.2759
5843 3 10.512 25.413 27.1705
5844 3 11.9579 25.1332 26.8198
5845 2 -29.7303 -38.0788 74.9725
5846 3 -30.4281 -38.1751 74.3245
5847 3 -29.7291 -37.146 75.1871
5848 2 -56.5771 24.4107 59.8347
5849 3 -56.4109 25.3032 59.5312
5850 3 -57.3085 24.1067 59.2972
5851 2 -19.2459 23.3836 64.1353
5852 3 -19.3733 23.884 64.9413
5853 3 -20.0213 23.5763 63.6082
5854 2 -0.308736 -3.14677 58.1927
5855 3 0.593167 -3.46646 58.2167
5856 3 -0.794259 -3.8324 57.734
5857 2 -30.6718 25.6013 35.7004
5858 3 -31.0077 25.1858 34.9062
5859 3 -29.7951 25.9022 35.4614
5860 2 6.1861 13.2059 61.2687
5861 3 7.13897 13.2907 61.3016
5862 3 5.8876 14.0141 60.8516
5863 2 10.4307 15.938 36.422
5864 3 10.3696 15.1664 36.9851
5865 3 9.91293 15.7126 35.6491
5866 2 -9.58448 -0.158115 81.222
5867 3 -9.82101 0.361413 81.9904
5868 3 -8.95016 -0.795778 81.5495
5869 2 32.3287 10.9824 38.4283
5870 3 31.4934 11.4498 38.437
5871 3 32.4978 10.7761 39.3476
5872 2 18.4166 26.2542 36.8145
5873 3 17.519 26.429 37.0971
5874 3 18.9073 27.0324 37.0787
5875 2 -0.884265 34.2821 27.1708
5876 3 -0.999254 34.5517 28.082
5877 3 -1.30138 34.9764 26.6607
5878 2 -13.0525 -2.22161 65.4434
5879 3 -13.4346 -3.06101 65.6995
5880 3 -12.9118 -2.29994 64.4999
5881 2 -0.489903 43.4784 68.0473
5882 3 0.0824744 42.7438 67.8261
5883 3 -1.37578 43.1244 67.9693
5884 2 3.71346 3.59595 42.0898
5885 3 3.3842 3.18399 42.8886
5886 3 3.61815 2.92295 41.4159
5887 2 -49.6615 -13.883 85.9492
5888 3 -49.0889 -13.4442 85.3201
5889 3 -49.2341 -13.751 86.7955
5890 2 -7.56645 18.1512 45.2763
5891 3 -8.45861 18.1386 45.6229
5892 3 -7.00832 18.203 46.0522
5893 2 -7.34877 26.516 38.4432
5894 3 -7.42938 27.4215 38.1434
5895 3 -8.25179 26.219 38.555
5896 2 -9.39526 28.0232 62.7426
5897 3 -8.43976 28.0793 62.7508
5898 3 -9.6549 28.2199 63.6427
5899 2 1.23284 6.80729 7.22457
5900 3 1.7767 7.20319 6.54362
5901 3 1.07763 7.5154 7.84963
5902 2 -25.2926 -15.2194 58.0857
5903 3 -24.4602 -15.0819 57.6336
5904 3 -25.0777 -15.136 59.0147
5905 2 34.6359 -5.71848 15.0765
5906 3 34.238 -6.58384 14.9814
5907 3 34.0639 -5.13523 14.5776
5908 2 45.3008 -23.6705 29.0646
5909 3 44.9003 -24.163 29.781
5910 3 46.2423 -23.7393 29.2231
5911 2 55.8176 63.1805 13.1009
5912 3 55.4377 63.7231 12.4099
5913 3 55.0935 62.6304 13.3995
5914 2 -30.2702 44.9126 61.9893
5915 3 -29.7845 44.5268 62.7183
5916 3 -29.6232 45.4422 61.5233
5917 2 4.47637 28.392 -4.39895
5918 3 4.31912 28.5382 -3.46616
5919 3 4.84243 29.2187 -4.71309
5920 2 -52.8239 38.5426 51.3958
5921 3 -52.5956 38.0776 52.2008
5922 3 -52.5112 39.4361 51.538
5923 2 -19.979 34.4777 19.3536
5924 3 -20.5244 35.2635 19.3198
5925 3 -20.4866 33.8555 19.8746
5938 2 39.9214 19.7551 67.5259
5939 3 39.0554 19.6672 67.924
5940 3 39.8738 19.2276 66.7286
5941 2 -2.76198 1.79471 40.0707
5942 3 -3.2774 2.53598 40.3886
5943 3 -3.33146 1.36153 39.4349
5944 2 4.54448 4.70697 38.205
5945 3 4.25164 3.85372 38.525
5946 3 5.39175 4.84429 38.6287
5947 2 41.3319 -3.33141 49.2422
5948 3 41.7444 -4.19074 49.3292
5949 3 41.6527 -2.83391 49.9944
5950 2 11.88 22.6202 5.16465
5951 3 11.9231 21.8877 5.77933
5952 3 11.6386 22.219 4.32979
5953 2 -5.37965 33.8959 59.2152
5954 3 -4.64073 34.4072 58.8853
5955 3 -5.43087 34.1201 60.1443
5956 2 -22.3661 71.5152 44.7664
5957 3 -23.0671 72.1556 44.645
5958 3 -22.806 70.6664 44.7207
5959 2 -29.504 -5.17226 46.0801
5960 3 -29.744 -5.46049 46.9607
5961 3 -30.3209 -5.21437 45.5828
5962 2 -0.608599 14.7671 96.7458
5963 3 -1.26653 14.552 97.4069
5964 3 -0.796103 14.1736 96.0186
5980 2 13.847 -16.4579 34.6406
5981 3 13.9177 -15.6441 35.1395
5982 3 13.16 -16.9536 35.0861
5983 2 -5.30059 47.0938 47.7038
5984 3 -4.73134 47.4605 47.0272
5985 3 -5.6892 46.3196 47.2966
5986 2 -8.686 10.0966 -3.22191
5987 3 -8.81537 11.0321 -3.37796
5988 3 -8.61357 10.0197 -2.27056
5989 2 27.3405 -3.04819 42.2374
5990 3 26.559 -2.98827 42.7868
5991 3 27.4104 -2.18734 41.8248
5992 2 -2.9119 39.8358 -3.07745
5993 3 -3.82938 39.7301 -2.82595
5994 3 -2.46554 39.0904 -2.67584
5995 2 -41.7029 33.5961 13.1285
5996 3 -40.7641 33.7726 13.1898
5997 3 -42.1125 34.2975 13.6351
5998 2 -18.0658 28.8407 44.3441
5999 3 -17.8732 29.7508 44.5697
6000 3 -18.3022 28.8682 43.417
6001 2 -26.0799 1.50614 26.1237
6002 3 -25.8564 1.63792 27.0451
6003 3 -26.3702 0.595351 26.0751
6019 2 -1.00216 54.8921 43.7616
6020 3 -1.94158 54.7692 43.8979
6021 3 -0.93356 55.2593 42.8803
6022 2 14.0572 39.5731 40.7065
6023 3 14.7368 40.1819 40.4171
6024 3 14.3772 38.7115 40.4393
6025 2 55.6626 -31.7215 63.8745
6026 3 56.4855 -32.1285 63.6035
6027 3 55.3135 -32.3091 64.5446
6028 2 26.1192 37.969 96.5168
6029 3 25.2824 37.5504 96.3148
6030 3 26.1639 38.7162 95.9202
6031 2 -31.8796 19.4512 27.2954
6032 3 -31.0279 19.2108 26.9307
6033 3 -31.6705 19.9416 28.0904
6034 2 -39.8188 47.5901 39.1959
6035 3 -39.2338 48.3206 38.995
6036 3 -39.9194 47.6179 40.1474
6037 2 -47.3684 30.1773 16.3574
6038 3 -47.932 29.9439 15.6198
6039 3 -46.7982 30.8658 16.0153
6040 2 -17.9047 28.3274 75.5641
6041 3 -18.5311 28.0385 76.2278
6042 3 -18.0814 29.2621 75.4581
6058 2 30.7469 19.3366 36.3839
6059 3 30.4364 18.8421 35.6255
6060 3 29.9697 19.7916 36.7083
6061 2 8.94208 37.6326 61.2478
6062 3 9.39284 37.1832 61.9627
6063 3 9.40346 37.3502 60.4581
6064 2 -34.6346 50.1323 82.6913
6065 3 -35.5094 49.7746 82.5397
6066 3 -34.7331 50.6873 83.4649
6067 2 35.4116 28.382 53.5594
6068 3 36.0382 29.052 53.2862
6069 3 35.6794 27.5952 53.0845
6070 2 -36.6518 12.9662 25.6056
6071 3 -36.0869 13.7097 25.8165
6072 3 -36.9018 12.6059 26.4564
6073 2 -35.8342 21.3109 40.0167
6074 3 -35.5429 21.2019 40.922
6075 3 -36.641 20.7988 39.961
6076 2 -6.63079 11.7003 25.5185
6077 3 -5.94447 12.3631 25.5953
6078 3 -6.27332 11.054 24.9096
6079 2 -3.59345 52.3866 3.49862
6080 3 -3.39332 51.8737 2.71558
6081 3 -2.87162 52.1997 4.09884
6097 2 32.7571 34.8519 55.0734
6098 3 32.0153 35.2109 55.5603
6099 3 32.6659 33.9033 55.1622
6100 2 62.2395 87.7271 45.5626
6101 3 61.4207 87.758 46.0576
6102 3 62.576 88.6224 45.5993
6103 2 -0.77489 -37.7062 78.3816
6104 3 -0.19035 -37.6592 79.1381
6105 3 -1.08926 -36.8096 78.2652
6106 2 30.3241 10.1412 45.8081
6107 3 31.0001 10.1347 45.1305
6108 3 30.7893 10.3831 46.6089
6109 2 -25.9031 5.39728 65.7826
6110 3 -25.1152 5.06566 66.2132
6111 3 -25.9497 4.91057 64.9597
6112 2 -19.2843 62.0257 39.2018
6113 3 -18.7709 61.2251 39.0935
6114 3 -19.1324 62.5191 38.3958
6115 2 -18.7613 16.7282 35.5733
6116 3 -19.2802 17.2207 36.2092
6117 3 -19.1242 15.8429 35.6017
6118 2 -9.16356 56.553 27.6346
6119 3 -9.67745 56.8406 26.88
6120 3 -9.49488 55.6766 27.8306
6121 2 -33.0129 7.79158 61.9784
6122 3 -33.0981 8.72999 61.8101
6123 3 -32.0991 7.59303 61.774
6124 2 -6.99364 17.0248 52.6205
6125 3 -7.43633 17.8731 52.5966
6126 3 -7.38282 16.572 53.3687
6127 2 6.50048 74.9901 30.5353
6128 3 6.28617 74.5486 31.3571
6129 3 6.7421 74.282 29.9384
6130 2 29.565 34.8288 52.6189
6131 3 28.741 35.2018 52.3056
6132 3 30.2429 35.3666 52.2097
6133 2 -13.664 -8.60959 40.9319
6134 3 -14.2543 -9.02805 40.3053
6135 3 -14.2449 -8.21379 41.5815
6136 2 0.864621 16.4423 48.9689
6137 3 1.04286 17.3762 48.8582
6138 3 -0.0856495 16.3898 49.0711
6139 2 14.202 86.0645 47.8864
6140 3 13.6169 85.403 47.5173
6141 3 13.6178 86.6861 48.3207
6142 2 1.02514 8.49897 63.1442
6143 3 1.51941 9.25247 62.8215
6144 3 1.66275 7.78541 63.1665
6145 2 7.88673 2.50086 61.4177
6146 3 8.57029 3.03541 61.0137
6147 3 8.26938 1.62537 61.4753
6148 2 -11.6025 65.9555 47.8942
6149 3 -12.4813 65.9385 48.2732
6150 3 -11.7495 66.0058 46.9497
6151 2 -5.51588 25.0641 69.9792
6152 3 -5.75661 25.8675 69.5179
6153 3 -5.28873 24.4469 69.2837
6154 2 -9.49991 41.9004 49.8851
6155 3 -8.57321 42.116 49.7806
6156 3 -9.9153 42.7317 50.1145
6157 2 5.0047 -12.5771 62.3089
6158 3 4.82801 -11.6364 62.3007
6159 3 4.47832 -12.9264 61.5898
6160 2 -57.1655 38.2057 43.7778
6161 3 -57.4509 37.8083 42.9551
6162 3 -57.9636 38.2713 44.3022
6163 2 -40.9701 41.9927 -0.904513
6164 3 -40.7881 41.589 -1.75311
6165 3 -40.2365 41.7269 -0.350095
6166 2 -1.20096 4.49958 38.3297
6167 3 -0.558589 5.19632 38.4643
6168 3 -1.45573 4.23409 39.2134
6169 2 3.16171 25.2065 64.3025
6170 3 2.39958 24.8625 63.8367
6171 3 3.85854 25.2189 63.6464
6172 2 -25.9318 2.00436 34.9002
6173 3 -26.4646 1.23002 35.0813
6174 3 -26.43 2.48999 34.2428
6175 2 -5.55018 -15.5269 52.7317
6176 3 -5.40488 -15.7884 53.6409
6177 3 -6.46884 -15.738 52.5652
6178 2 3.31973 27.9828 82.4379
6179 3 3.80491 28.3155 81.6828
6180 3 2.70756 27.3464 82.0684
6181 2 -2.58592 23.2289 111.802
6182 3 -1.91885 22.5609 111.644
6183 3 -2.66497 23.2682 112.756
6184 2 9.3647 36.7223 65.7675
6185 3 8.78534 37.4517 65.5472
6186 3 8.77547 36.0294 66.0658
6187 2 -3.3753 38.0252 14.782
6188 3 -2.65494 38.6551 14.7598
6189 3 -3.9842 38.3797 15.4299
6190 2 -25.6594 33.6176 11.6997
6191 3 -25.0615 33.2127 11.0715
6192 3 -25.1493 33.6861 12.5067
6193 2 4.98859 30.9407 67.4955
6194 3 5.44884 30.7064 68.3014
6195 3 4.44417 30.1782 67.2997
6196 2 -10.3926 2.92364 70.2419
6197 3 -9.65883 2.48886 69.8073
6198 3 -10.3019 3.84561 70.0012
6199 2 21.6352 53.0895 49.3988
6200 3 22.0781 53.4155 50.1822
6201 3 22.1976 53.3626 48.674
6202 2 18.7462 21.9344 56.1607
6203 3 18.2542 22.695 56.47
6204 3 19.6094 22.282 55.9362
6205 2 43.8326 12.2349 -6.72631
6206 3 43.7497 12.2293 -5.77274
6207 3 42.9335 12.1586 -7.04583
6208 2 -15.2726 54.1518 18.4662
6209 3 -15.2078 53.2485 18.7762
6210 3 -15.7332 54.6134 19.1669
6211 2 0.941054 -5.3201 53.2064
6212 3 0.0724385 -5.0625 53.5152
6213 3 0.979282 -6.26446 53.3578
6214 2 30.3231 25.5205 52.867
6215 3 29.7783 26.3049 52.8036
6216 3 30.1067 25.1464 53.721
6217 2 25.0902 -10.6595 -2.58111
6218 3 25.947 -10.3934 -2.91454
6219 3 24.9056 -10.0418 -1.8736
6220 2 24.1094 72.4775 52.5175
6221 3 23.9734 72.7274 53.4314
6222 3 23.2605 72.1397 52.2322
6223 2 55.925 51.7044 35.5883
6224 3 56.1075 51.0966 36.3049
6225 3 55.1363 51.3557 35.1728
6226 2 -42.4202 61.8244 42.4139
6227 3 -42.9285 62.4259 41.8698
6228 3 -42.8473 61.8561 43.27
6229 2 -1.09603 57.0163 53.4157
6230 3 -0.202578 57.1194 53.7433
6231 3 -1.09562 57.4674 52.5715
6232 2 -35.7936 96.701 32.5046
6233 3 -35.4712 97.5877 32.3439
6234 3 -35.9825 96.6807 33.4428
6235 2 17.9702 19.1076 20.5613
6236 3 18.2549 18.2089 20.3952
6237 3 18.6335 19.6518 20.1371
6238 2 -23.7359 41.8507 67.1357
6239 3 -23.9958 41.4573 67.9687
6240 3 -23.2684 41.1531 66.6763
6241 2 -24.7683 28.7671 41.4158
6242 3 -24.534 28.1741 42.1298
6243 3 -25.7068 28.9183 41.5276
6244 2 23.088 57.5884 51.3957
6245 3 23.6641 58.2897 51.6997
6246 3 23.0971 56.9458 52.1051
6247 2 5.06366 31.858 11.4609
6248 3 4.53444 31.2864 12.0171
6249 3 5.27964 31.3193 10.6998
6250 2 -40.172 53.9793 36.5291
6251 3 -40.4425 54.6042 37.2018
6252 3 -40.6075 54.2813 35.732
6253 2 12.0747 44.2814 48.4793
6254 3 12.5485 43.5696 48.9095
6255 3 11.8378 43.9281 47.6218
6256 2 66.6573 -26.5898 43.5129
6257 3 66.7762 -26.8037 44.4383
6258 3 66.1695 -27.332 43.1558
6259 2 4.69571 22.3386 12.5933
6260 3 5.15653 22.6418 11.811
6261 3 3.86428 21.9966 12.2646
6262 2 46.672 22.5598 68.0589
6263 3 47.6222 22.5946 67.949
6264 3 46.3277 22.5405 67.166
6265 2 -4.36751 26.8391 73.8121
6266 3 -4.42205 26.5606 74.7262
6267 3 -3.53654 26.4801 73.501
6268 2 -44.4385 23.6627 25.8614
6269 3 -44.6577 23.0168 26.5329
6270 3 -43.5058 23.8351 25.9896
6271 2 -1.07667 -13.2565 84.6743
6272 3 -1.82121 -13.7284 85.0475
6273 3 -1.34489 -12.3378 84.6854
6274 2 22.8536 -22.8893 63.7336
6275 3 22.9579 -22.0067 63.378
6276 3 22.284 -23.3349 63.1065
6277 2 9.3137 -0.778665 41.5805
6278 3 9.21233 -0.837586 42.5305
6279 3 8.47986 -1.09213 41.2303
6280 2 -16.5277 -5.79704 25.8229
6281 3 -17.3949 -6.17744 25.6838
6282 3 -16.5825 -4.9252 25.4317
6283 2 -0.74535 2.57959 47.4838
6284 3 -0.495137 3.45357 47.1842
6285 3 -0.796974 2.65807 48.4364
6286 2 21.4049 -48.4875 28.2014
6287 3 22.134 -48.631 28.8047
6288 3 21.3064 -49.321 27.7413
6289 2 -2.59932 9.56382 42.249
6290 3 -2.61863 10.2011 42.963
6291 3 -3.46965 9.61903 41.8544
6292 2 14.0561 22.4852 77.8813
6293 3 13.796 21.6461 77.5011
6294 3 14.1147 22.3148 78.8214
6295 2 1.46238 -53.2688 28.7009
6296 3 2.14771 -52.6133 28.831
6297 3 1.7562 -54.0267 29.2063
6298 2 43.7562 11.4319 78.9412
6299 3 43.1312 11.1959 79.6267
6300 3 43.2713 11.3161 78.1241
6301 2 41.9788 -0.24052 40.6076
6302 3 42.3055 0.165365 41.4106
6303 3 41.1756 -0.687678 40.8743
6304 2 -21.3073 -10.4337 79.8809
6305 3 -20.9706 -9.54411 79.9883
6306 3 -22.1405 -10.4334 80.3521
6307 2 -21.9679 -3.61489 86.7363
6308 3 -21.5847 -4.14721 87.4335
6309 3 -21.2283 -3.12929 86.3711
6310 2 -39.011 -29.3307 56.6081
6311 3 -39.4562 -30.1042 56.2619
6312 3 -39.0882 -29.4146 57.5585
6313 2 18.5904 42.7858 51.3756
6314 3 19.3807 42.4365 50.9637
6315 3 18.7905 42.7924 52.3116
6316 2 19.9754 -25.4069 31.0452
6317 3 20.928 -25.3654 31.1294
6318 3 19.7936 -25.0251 30.1865
6319 2 21.4674 9.26333 72.817
6320 3 20.5713 9.53755 73.0121
6321 3 21.3978 8.78713 71.9895
6322 2 36.2138 40.1377 59.1169
6323 3 37.0447 39.785 58.7984
6324 3 36.2889 40.1048 60.0705
6325 2 15.5134 15.5009 72.7018
6326 3 15.5919 15.3459 71.7605
6327 3 14.6716 15.1123 72.9396
6328 2 9.98158 39.0363 51.9493
6329 3 9.69773 38.579 51.1577
6330 3 10.228 38.3373 52.5549
6331 2 -7.88443 22.9815 19.8192
6332 3 -7.0092 23.0857 19.4459
6333 3 -7.96809 23.7049 20.4404
6334 2 25.2057 -5.3384 89.6576
6335 3 25.5805 -5.4246 90.5341
6336 3 24.8934 -4.43445 89.618
6337 2 13.0207 8.88531 54.8434
6338 3 12.9237 9.7663 55.2048
6339 3 12.4688 8.88458 54.0614
6340 2 33.0767 -7.84814 31.2023
6341 3 33.7407 -7.16429 31.1147
6342 3 32.3074 -7.49421 30.756
6343 2 -21.7853 0.409274 32.5155
6344 3 -21.1651 1.13809 32.5342
6345 3 -22.3323 0.539666 33.2901
6346 2 -36.836 -12.5474 79.3473
6347 3 -37.2427 -11.7307 79.058
6348 3 -36.5407 -12.9677 78.5396
6349 2 -79.7384 13.847 44.7148
6350 3 -80.2835 14.262 45.3833
6351 3 -80.2579 13.903 43.9128
6352 2 -18.8928 2.06897 53.5262
6353 3 -18.6277 1.45002 54.2065
6354 3 -18.5913 1.67136 52.7093
6355 2 1.07435 0.907004 58.6975
6356 3 1.24786 0.431417 59.5099
6357 3 1.48349 1.76242 58.8282
6358 2 -6.18739 48.1039 59.8112
6359 3 -5.73833 48.2307 58.9754
6360 3 -6.98599 47.6274 59.5846
6361 2 -72.3716 14.4203 29.3016
6362 3 -71.744 14.7365 28.6516
6363 3 -72.2923 15.0353 30.0307
6364 2 13.4417 4.11843 46.6656
6365 3 12.5969 4.55319 46.5493
6366 3 13.7414 3.9343 45.7754
6367 2 -21.3089 16.791 58.5471
6368 3 -22.0652 16.2076 58.4841
6369 3 -21.4387 17.2643 59.3689
6370 2 3.02035 -0.754157 36.8654
6371 3 2.1882 -0.475572 37.2477
6372 3 3.4821 0.0623027 36.6747
6373 2 -6.77954 19.6835 59.9323
6374 3 -7.53582 20.117 60.3277
6375 3 -6.68021 18.8723 60.4307
6376 2 6.51377 -43.126 63.3283
6377 3 6.5385 -43.669 62.5404
6378 3 5.58558 -42.9297 63.4554
6379 2 40.9571 -1.17382 51.4848
6380 3 40.3151 -0.681534 50.9732
6381 3 40.4931 -1.41158 52.2874
6382 2 13.1612 -11.2184 64.005
6383 3 13.5056 -10.4976 63.4778
6384 3 13.5779 -11.1109 64.86
6385 2 -31.7531 22.793 65.6495
6386 3 -31.4498 22.1411 66.2814
6387 3 -31.2717 23.5888 65.876
6388 2 -47.8243 13.2398 57.8491
6389 3 -47.8294 12.7204 57.0451
6390 3 -47.1001 12.8811 58.362
6391 2 -15.9694 43.8635 32.6262
6392 3 -16.2234 43.5047 33.4765
6393 3 -15.8379 43.0949 32.071
6394 2 13.504 62.6382 32.627
6395 3 13.2489 63.3844 32.0844
6396 3 12.7664 62.0316 32.5628
6397 2 -53.1783 36.449 47.5605
6398 3 -53.9423 37.0186 47.6499
6399 3 -52.5033 36.8673 48.0949
6400 2 0.879747 -4.39538 67.5057
6401 3 0.125885 -3.86483 67.7634
6402 3 0.636388 -5.28991 67.7441
6403 2 26.2223 -5.67015 39.6591
6404 3 26.1492 -4.95767 40.2941
6405 3 26.3645 -6.45265 40.1917
6406 2 12.4504 -8.09183 23.1158
6407 3 12.4832 -9.03202 22.9392
6408 3 11.5362 -7.92211 23.3431
6409 2 18.5941 43.5971 70.6315
6410 3 18.0435 44.1236 71.211
6411 3 19.1845 43.1287 71.2216
6412 2 14.4499 -6.32394 44.8939
6413 3 15.1647 -6.7966 44.4675
6414 3 14.4616 -6.63647 45.7986
6415 2 -3.60664 -5.55015 3.0898
6416 3 -2.89225 -5.28111 2.51233
6417 3 -3.91375 -4.73534 3.48727
6418 2 38.1657 -18.2388 48.9412
6419 3 37.8311 -18.371 48.0541
6420 3 38.6855 -17.437 48.8846
6421 2 -41.809 13.9722 33.7631
6422 3 -42.4728 14.4551 34.2554
6423 3 -41.0748 14.5818 33.6885
6424 2 -22.7843 36.9294 40.375
6425 3 -23.6023 36.6558 40.7899
6426 3 -22.6872 36.3421 39.6255
6427 2 8.85605 30.2949 57.1305
6428 3 8.44945 29.552 57.5766
6429 3 9.67817 29.9469 56.7853
6430 2 27.0184 9.47563 39.3508
6431 3 26.1167 9.74915 39.1823
6432 3 27.075 9.40935 40.304
6433 2 38.281 5.05792 22.2521
6434 3 37.4164 4.67425 22.3985
6435 3 38.8514 4.30755 22.0856
6436 2 16.509 39.3137 49.0829
6437 3 16.677 39.5094 48.1611
6438 3 16.5408 40.1653 49.5187
6439 2 -13.4822 24.5124 35.9859
6440 3 -13.4782 24.2328 35.0705
6441 3 -13.1743 25.4184 35.9615
6442 2 15.7945 -8.10491 39.9909
6443 3 15.399 -8.97346 39.917
6444 3 15.5587 -7.66375 39.1748
6445 2 49.6828 37.2669 32.1766
6446 3 49.8996 37.3253 33.1071
6447 3 48.7615 37.5219 32.1284
6448 2 -25.6725 40.0776 50.001
6449 3 -24.8453 39.6026 50.0795
6450 3 -26.3343 39.4601 50.3125
6451 2 -15.7958 8.25615 28.9885
6452 3 -14.8663 8.22232 29.2147
6453 3 -16.0735 7.3402 28.977
6454 2 16.2336 3.09348 39.5489
6455 3 16.3588 2.96213 38.6091
6456 3 17.0348 2.75384 39.9476
6457 2 64.6635 9.27271 4.40812
6458 3 64.7587 8.32081 4.44026
6459 3 63.9557 9.46402 5.02343
6460 2 14.2269 6.70741 26.0209
6461 3 14.478 5.78685 26.0963
6462 3 14.6919 7.14237 26.7355
6463 2 -11.8707 3.13379 52.3816
6464 3 -11.6925 2.87336 51.4779
6465 3 -11.4863 2.43631 52.9126
6466 2 -10.8014 39.2043 83.0607
6467 3 -11.034 38.7461 83.8682
6468 3 -10.0783 39.7795 83.3109
6469 2 16.6812 -5.55611 13.1407
6470 3 16.7604 -6.3659 12.6365
6471 3 16.1092 -5.78453 13.8734
6472 2 -2.7289 50.8157 76.5449
6473 3 -3.37459 51.3369 76.0678
6474 3 -3.09564 49.9317 76.557
6484 2 -32.2546 45.2854 12.9096
6485 3 -32.6452 46.1561 12.835
6486 3 -32.3125 45.0756 13.8417
6487 2 22.7071 4.65917 42.8931
6488 3 23.1219 4.30768 42.1053
6489 3 23.4239 4.7522 43.5206
6490 2 3.51351 23.9178 66.6219
6491 3 4.26291 23.3974 66.3325
6492 3 3.20819 24.3601 65.8298
6493 2 2.21588 16.3631 54.0996
6494 3 1.79657 15.7271 54.6792
6495 3 1.89502 16.1396 53.2259
6496 2 56.8138 88.7141 16.3622
6497 3 56.9417 89.5153 16.8701
6498 3 57.445 88.0946 16.7282
6499 2 -60.9515 27.1322 39.6188
6500 3 -61.5824 26.4216 39.5038
6501 3 -61.3198 27.6688 40.3206
6502 2 -48.385 73.8294 69.5747
6503 3 -48.8123 74.0787 70.3941
6504 3 -48.4957 74.5906 69.005
6505 2 -2.24737 42.0126 94.6273
6506 3 -2.49233 42.1138 95.5471
6507 3 -1.29043 42.0341 94.6301
6508 2 -29.0411 48.126 30.4043
6509 3 -28.5808 48.5847 31.1071
6510 3 -29.8478 48.6258 30.2795
6526 2 -51.7556 13.32 41.5989
6527 3 -52.404 12.7072 41.9457
6528 3 -52.1866 13.7246 40.846
6529 2 60.1877 -6.03137 68.2123
6530 3 59.427 -6.51526 68.5338
6531 3 60.2313 -5.25461 68.7699
6532 2 -2.95925 -15.0817 47.8511
6533 3 -3.63873 -14.8598 48.4877
6534 3 -3.20657 -15.9482 47.5282
6535 2 0.841963 9.19449 55.0449
6536 3 0.134649 9.13479 55.6871
6537 3 0.888534 10.1249 54.825
6538 2 5.94432 11.5867 57.8209
6539 3 5.13699 11.3774 58.2906
6540 3 5.96561 10.9666 57.0921
6541 2 8.46453 5.26409 111.773
6542 3 8.83901 5.44444 112.636
6543 3 9.1386 5.54632 111.155
6544 2 0.830964 41.3735 101.546
6545 3 1.30584 42.1436 101.234
6546 3 1.46099 40.6567 101.472
6547 2 -12.4074 51.0383 26.8186
6548 3 -13.0474 51.7361 26.6784
6549 3 -11.9153 51.3156 27.5913
6550 2 -16.8553 12.2779 49.8729
6551 3 -16.7429 13.1721 50.1953
6552 3 -16.75 11.7279 50.6493
6562 2 8.45435 44.1308 41.2754
6563 3 7.89494 43.8674 42.006
6564 3 8.31065 45.0734 41.1908
6565 2 2.92275 5.56589 27.9601
6566 3 3.61648 4.93627 27.7638
6567 3 3.36024 6.25833 28.4554
6568 2 -9.91043 42.2273 81.4143
6569 3 -9.19641 42.3635 82.0371
6570 3 -10.703 42.2427 81.9508
6571 2 9.26554 37.5412 69.4685
6572 3 8.89921 37.7583 70.3258
6573 3 8.51388 37.5545 68.876
6574 2 33.6123 64.3893 28.3452
6575 3 32.7571 64.6807 28.6614
6576 3 33.8314 65.0041 27.645
6577 2 -7.54344 22.4348 49.6172
6578 3 -7.62877 22.6518 48.6888
6579 3 -8.02022 23.1298 50.0709
6580 2 4.61591 42.0229 69.8912
6581 3 5.44204 41.8612 69.4355
6582 3 4.32477 42.8745 69.5652
6583 2 -20.5298 20.5866 40.8453
6584 3 -19.5828 20.5787 40.7067
6585 3 -20.7711 19.6624 40.9072
6586 2 -13.3472 14.2578 74.7517
6587 3 -14.185 13.7962 74.7845
6588 3 -12.7008 13.6006 75.0097
6589 2 -13.5986 39.0286 29.9246
6590 3 -14.1296 38.2699 30.1666
6591 3 -14.0444 39.4006 29.1636
6592 2 0.45992 45.6725 22.7122
6593 3 0.337225 44.728 22.617
6594 3 0.860257 45.7767 23.5753
6595 2 -32.1075 48.7047 -10.8967
6596 3 -31.254 48.8942 -11.2863
6597 3 -32.6684 49.4244 -11.1859
6598 2 11.0205 2.71059 66.8575
6599 3 11.0028 3.5968 66.4962
6600 3 10.1234 2.39233 66.7566
6601 2 -53.0639 27.5391 76.9714
6602 3 -53.4679 27.3091 77.8081
6603 3 -53.7642 27.9628 76.4752
6604 2 -15.8548 30.4443 42.145
6605 3 -16.6178 29.9906 41.787
6606 3 -16.146 31.3487 42.2611
6607 2 -10.431 44.0507 42.1182
6608 3 -10.2292 43.4328 42.8209
6609 3 -11.3094 43.8054 41.8278
6610 2 17.1374 12.6529 44.0149
6611 3 16.9861 12.4088 44.928
6612 3 17.2167 11.8182 43.5533
6613 2 51.4173 46.2652 -0.620211
6614 3 51.5326 46.7223 -1.45326
6615 3 52.2835 46.2859 -0.213262
6616 2 -14.0355 45.0481 51.239
6617 3 -14.0287 45.867 51.7346
6618 3 -14.876 45.0518 50.781
6619 2 -42.2272 42.2354 53.7708
6620 3 -42.9808 42.0805 54.3403
6621 3 -41.6912 42.8681 54.2488
6622 2 -22.2296 26.6119 46.3385
6623 3 -22.7811 27.3938 46.3634
6624 3 -21.4869 26.8595 45.7878
6625 2 -38.6858 47.5958 69.0633
6626 3 -38.3053 46.9221 69.6268
6627 3 -39.4893 47.8585 69.5123
6628 2 -0.0414416 42.492 35.0108
6629 3 0.449369 42.9595 34.335
6630 3 -0.2252 43.1552 35.6761
6631 2 3.6312 2.46921 25.1185
6632 3 4.12333 3.20327 25.4861
6633 3 3.96766 1.70026 25.5786
6634 2 -21.0479 9.48301 33.2409
6635 3 -20.2098 9.78353 32.8894
6636 3 -20.8172 8.76603 33.8316
6637 2 24.7029 6.23553 33.4991
6638 3 24.112 6.54248 34.1868
6639 3 24.1773 5.61978 32.9884
6640 2 -19.3096 24.0932 44.542
6641 3 -19.6491 24.9289 44.8622
6642 3 -19.4725 24.1135 43.5989
6643 2 -5.03325 -27.3575 44.4489
6644 3 -4.90698 -28.0481 43.7983
6645 3 -4.18787 -26.9106 44.4917
6646 2 -3.63402 66.6194 11.1773
6647 3 -3.90266 67.5131 11.3899
6648 3 -3.70618 66.1438 12.0048
6649 2 4.36579 5.09845 22.6473
6650 3 3.74528 4.4004 22.4378
6651 3 4.97436 5.10829 21.9086
6652 2 19.4188 -7.03098 48.0892
6653 3 19.5565 -6.08768 48.0029
6654 3 19.7727 -7.24723 48.9518
6655 2 -17.928 9.64081 42.4842
6656 3 -17.8996 9.18925 41.6407
6657 3 -17.9197 8.93743 43.1333
6658 2 -11.0227 43.9755 58.0259
6659 3 -10.168 44.3499 57.8124
6660 3 -11.6529 44.5625 57.6082
6661 2 -32.1649 59.6733 25.1788
6662 3 -31.9919 60.6129 25.2368
6663 3 -31.9847 59.3413 26.0583
6664 2 -8.78679 20.8392 41.0348
6665 3 -8.63959 21.4212 40.2893
6666 3 -8.49731 21.3444 41.7945
6667 2 -9.36505 -14.7121 76.4599
6668 3 -8.63247 -14.4412 75.9067
6669 3 -9.5077 -13.9713 77.049
6670 2 -14.8646 42.7267 59.1955
6671 3 -15.3838 43.0428 59.9349
6672 3 -13.9717 43.0113 59.3902
6673 2 31.072 -10.0876 68.9842
6674 3 30.2 -9.91354 69.3384
6675 3 31.63 -9.41838 69.3806
6676 2 -37.007 48.6201 59.6521
6677 3 -37.0903 47.6666 59.6627
6678 3 -36.4868 48.8242 60.4292
6679 2 -19.1 39.126 24.7323
6680 3 -18.5277 39.8918 24.6857
6681 3 -19.549 39.1102 23.8871
6682 2 -14.5628 22.226 64.0213
6683 3 -14.9002 21.4359 63.5993
6684 3 -14.7177 22.0841 64.9552
6685 2 -0.983718 -7.30537 24.4324
6686 3 -1.59319 -6.99798 25.1034
6687 3 -1.02576 -8.25994 24.4892
6688 2 18.3716 17.0151 70.5575
6689 3 18.8404 16.7922 71.3617
6690 3 18.0135 17.8873 70.7225
6691 2 6.37352 33.0004 18.7986
6692 3 6.6795 33.5836 19.4932
6693 3 6.03581 32.2332 19.2608
6694 2 15.1814 51.8346 27.9612
6695 3 14.3329 51.3922 27.9855
6696 3 14.9666 52.759 27.8359
6697 2 -36.2469 47.9158 51.8374
6698 3 -36.5792 47.384 51.1143
6699 3 -35.7637 47.2986 52.3868
6700 2 -20.5136 19.3044 71.1497
6701 3 -21.161 19.744 70.5985
6702 3 -21.0002 19.0472 71.9328
6703 2 11.0803 20.4112 71.45
6704 3 10.318 20.389 72.0285
6705 3 11.62 19.6742 71.7358
6706 2 5.77423 25.5255 58.1797
6707 3 5.55217 25.4228 59.1051
6708 3 5.25468 24.8573 57.7327
6709 2 -20.624 7.3238 34.9426
6710 3 -21.5509 7.09138 34.8876
6711 3 -20.3211 6.9121 35.7519
6712 2 9.28794 19.4394 41.2481
6713 3 8.50266 19.4779 40.7021
6714 3 8.98364 19.6789 42.1234
6715 2 32.858 23.0937 49.8994
6716 3 32.932 22.9 50.8339
6717 3 31.9267 22.9879 49.7055
6718 2 6.058 43.5435 16.1
6719 3 6.16394 42.9228 15.379
6720 3 5.21655 43.3128 16.4936
6721 2 20.2438 14.9574 69.9285
6722 3 20.0124 14.1517 69.4665
6723 3 19.5025 15.5432 69.7754
6724 2 -2.91786 32.0628 98.8283
6725 3 -3.75584 31.7538 98.4841
6726 3 -2.38933 31.2701 98.9206
6727 2 26.6713 67.4455 13.9497
6728 3 26.2247 68.2872 14.0402
6729 3 25.9871 66.7934 14.1007
6730 2 -33.2719 29.4548 -11.3953
6731 3 -32.4038 29.1699 -11.1099
6732 3 -33.254 30.4074 -11.3037
6733 2 -7.31164 30.7762 4.9276
6734 3 -7.00588 31.3689 4.24103
6735 3 -6.71342 30.0302 4.88455
6736 2 -29.3132 33.2707 54.1821
6737 3 -29.818 32.9363 53.4407
6738 3 -29.7864 32.9607 54.9541
6739 2 14.1028 56.004 31.393
6740 3 13.4256 55.6476 31.968
6741 3 14.832 55.3889 31.4711
6742 2 -14.1079 41.4087 85.5227
6743 3 -13.4332 41.2056 86.1706
6744 3 -13.9034 40.8432 84.778
6745 2 -3.30651 66.2295 64.0213
6746 3 -2.40898 66.0491 63.7418
6747 3 -3.80855 66.2664 63.2071
6748 2 11.953 52.4175 94.3328
6749 3 12.4516 53.2237 94.466
6750 3 11.745 52.4157 93.3985
6751 2 -35.2676 27.8337 48.6641
6752 3 -34.7201 28.3191 49.2811
6753 3 -34.9438 26.9342 48.7121
6754 2 26.1654 18.4919 23.2024
6755 3 25.7062 19.1977 22.7472
6756 3 26.8014 18.9398 23.7601
6757 2 7.36444 34.5996 23.8615
6758 3 7.76053 35.0932 24.5796
6759 3 6.80724 33.9525 24.2938
6760 2 18.2668 42.779 45.9986
6761 3 19.1969 42.9107 46.1827
6762 3 18.2096 42.7744 45.0432
6763 2 41.661 35.4496 68.8526
6764 3 41.1114 34.8921 69.4034
6765 3 41.1739 35.5315 68.0326
6766 2 44.8241 51.7616 19.5435
6767 3 44.0417 52.1862 19.8955
6768 3 44.6304 50.8254 19.59
6769 2 4.07346 29.3655 50.4341
6770 3 3.66908 29.0048 51.2231
6771 3 4.75627 28.7351 50.2048
