5541
 Atoms. Timestep: 500
C -5.86133 0.29806 2.24732
C -4.87089 -0.114103 1.31594
C -7.10236 -0.0721889 2.8306
C -5.97804 -0.875334 0.857863
C -4.77982 -1.32562 0.243267
C -5.14947 1.25185 1.04644
C -4.83732 0.858355 -0.28258
C -5.04556 -0.435282 -0.831717
C -8.01197 1.29801 3.07278
C -7.69438 2.37619 2.20464
C -8.29199 0.0103699 3.60244
C -6.75693 1.34901 1.91287
C -6.01048 2.36195 1.25472
C -8.63156 3.33078 1.72567
C -7.72983 2.59406 0.91338
C -6.64506 2.54843 -0.0018117
C -9.91471 -0.236618 2.82695
C -10.5241 0.86781 2.17367
C -8.75264 -1.05289 2.78039
C -9.16655 1.27975 2.24455
C -9.71843 2.42418 1.6089
C -10.4228 0.317998 0.868353
C -11.3015 1.21225 0.201704
C -10.2724 2.18354 0.323418
C -8.46296 -3.06225 1.37815
C -9.19346 -1.98655 0.8065
C -8.01013 -2.21076 2.42146
C -9.86424 -1.14744 1.73744
C -10.8872 -1.01953 0.761744
C -9.57348 -3.20329 0.178734
C -10.0337 -2.25985 -0.77775
C -10.6566 -0.990794 -0.638977
C -5.93923 -2.07312 1.62037
C -6.41468 -2.56369 0.375431
C -6.82668 -1.43181 2.52455
C -7.74541 -2.1203 0.594907
C -8.22532 -3.14563 -0.261988
C -5.58783 -2.05997 -0.663453
C -6.34578 -2.618 -1.72585
C -7.70809 -2.42936 -1.37312
C -10.0987 -0.585255 -2.33406
C -9.57934 -1.88023 -2.06885
C -8.30476 -2.15493 -2.63195
C -9.21175 0.506987 -2.52469
C -9.63906 1.41974 -1.44486
C -11.0189 1.57026 -1.14303
C -10.8538 0.185315 -1.41015
C -9.17131 1.91648 -2.6907
C -7.68961 2.35538 -1.1477
C -8.20949 3.29924 -0.222235
C -9.34528 2.57841 -0.677796
C -7.81205 1.65174 -2.37527
C -6.07884 0.864069 -2.31735
C -5.03933 1.46008 -1.55366
C -6.3169 2.01384 -1.2756
C -7.21892 0.59991 -3.12323
C -7.4883 -1.02079 -2.38127
C -6.23379 -1.5995 -2.70907
C -5.60202 -0.462142 -2.13886
C -8.31289 -0.292682 -3.27862
C 10.2754 0.499951 2.2614
C 11.2372 0.261621 1.24432
C 9.13397 -0.155128 2.7944
C 10.8973 -1.11181 1.11383
C 11.3286 -1.3299 -0.221918
C 10.3978 1.14486 0.514815
C 11.0191 0.610923 -0.644363
C 11.3389 -0.544416 -1.40531
C 7.90948 1.27777 3.07437
C 8.32929 2.36515 2.26347
C 7.77911 -0.128634 3.21873
C 9.05812 1.17804 1.98588
C 9.93665 2.13797 1.41786
C 7.25985 2.87325 1.47874
C 8.36051 2.98994 0.588937
C 9.4127 2.17244 0.0975415
C 5.90687 -0.352107 2.44362
C 5.30652 0.870619 2.04111
C 6.7915 -1.14913 3.21863
C 6.64265 1.13264 2.44704
C 6.03943 2.31773 1.94703
C 4.81586 0.117634 0.941599
C 5.05704 1.46823 0.574622
C 5.97008 2.55594 0.548334
C 7.38603 -2.64852 2.14613
C 6.59522 -2.50178 0.975106
C 8.0387 -1.8196 3.09798
C 6.0871 -1.22565 1.33773
C 5.00923 -1.18614 0.413544
C 6.63134 -2.84514 -0.402848
C 5.4478 -2.33555 -0.999793
C 5.49116 -0.919667 -0.895547
C 10.1844 -2.18441 1.71469
C 9.17097 -2.28596 0.724133
C 9.37535 -1.5513 2.69648
C 7.98093 -3.03863 0.916233
C 7.98276 -2.41125 -0.357739
C 10.1325 -2.0927 -0.3039
C 9.0053 -2.00077 -1.16318
C 8.07419 -2.9457 -1.67012
C 5.91374 -0.407473 -2.5323
C 6.09743 -1.75545 -2.12208
C 7.44593 -1.98535 -2.50748
C 6.99178 0.516239 -2.5802
C 6.39845 1.4114 -1.48923
C 5.16656 1.19708 -0.815803
C 4.89724 0.103763 -1.68183
C 6.90739 1.92814 -2.71053
C 7.97323 3.00606 -1.59579
C 7.53712 3.60956 -0.387865
C 6.85629 2.37215 -0.547151
C 8.11442 1.65747 -2.01357
C 9.70979 0.761572 -2.11698
C 10.376 1.70126 -1.28784
C 9.29511 2.62059 -1.24596
C 8.62614 0.812179 -3.03236
C 8.59989 -1.67356 -3.27589
C 9.69697 -1.75062 -2.3776
C 10.3323 -0.481229 -2.40493
C 7.97885 -0.446118 -2.92382
C 2.02975 0.534633 12.0621
C 3.34154 0.246793 11.6007
C 1.27158 -0.18431 13.0236
C 2.84414 -0.978827 11.0837
C 2.79079 -0.952498 9.66464
C 2.7177 1.08111 10.6351
C 2.749 0.682435 9.27183
C 3.40431 -0.342305 8.53812
C -0.305275 1.37146 12.5462
C 0.661757 2.22962 11.9595
C -0.121248 -0.0102926 12.8117
C 1.97264 1.91222 12.4023
C 1.85673 2.1482 11.0067
C -0.349937 2.80003 11.1428
C 0.744297 3.24146 10.3535
C 1.13866 1.99868 9.79102
C -1.50784 -0.486298 12.0844
C -2.72709 0.223348 11.9222
C -0.506697 -1.35783 12.5896
C -1.51792 0.968322 11.9267
C -1.56927 2.37417 11.732
C -2.5238 0.271935 10.5176
C -2.56508 1.51795 9.83619
C -1.98603 2.68229 10.4092
C -0.676897 -2.7655 11.8183
C -1.60875 -2.36939 10.8216
C 0.270361 -2.51741 12.8481
C -2.10082 -1.04125 10.9198
C -3.46942 -0.779916 10.6485
C -1.91861 -3.33538 9.82817
C -2.28824 -2.20894 9.04441
C -2.70712 -0.915333 9.45755
C 1.69939 -1.8001 11.2618
C 1.42994 -2.71831 10.2113
C 0.859017 -1.34151 12.311
C 0.131627 -3.05159 10.6845
C -0.614379 -2.88832 9.48713
C 2.66328 -2.3658 9.60019
C 1.58044 -2.43586 8.68441
C 0.189531 -2.17937 8.555
C -1.63501 -0.662221 7.53276
C -2.23122 -1.94566 7.64914
C -0.81571 -1.82781 7.61483
C -1.11313 0.544118 6.99719
C -2.07029 1.33553 8.44039
C -3.39443 0.984151 8.81273
C -2.337 0.0832466 8.51722
C -1.45657 1.89095 7.28731
C 0.447582 2.59951 8.35306
C -0.338709 2.97897 9.47308
C -1.6194 2.53912 9.04461
C -0.0570492 2.07673 7.13294
C 1.84575 0.550059 7.65999
C 1.72513 1.49369 8.71473
C 1.7327 2.90512 8.87403
C 0.869268 1.06458 6.76551
C 0.475683 -1.50372 7.1198
C 1.73981 -1.37498 7.75403
C 2.7443 -0.485955 7.28859
C 0.13619 -0.130907 6.98976
O -18.5034 -17.8997 -19.537
H -18.2472 -17.7847 19.5479
H -19.4368 -18.1088 -19.5736
O -14.6047 -18.4345 -18.5708
H -14.7429 -17.4892 -18.5113
H -13.6585 -18.545 -18.4772
O -11.9783 -18.9809 -18.2392
H -11.7718 -19.0789 -17.3097
H -11.1833 -18.6118 -18.624
O -9.7278 -18.1458 -19.4201
H -9.08131 -18.7665 -19.0838
H -9.62151 -17.3681 -18.8723
O -5.68777 -18.1991 -19.096
H -5.90265 -17.2891 -18.8911
H -5.72722 -18.2458 19.9488
O -3.04412 -18.4759 -18.6096
H -3.00045 -18.9858 -17.8006
H -3.97903 -18.4182 -18.8067
O 0.41125 -19.6174 -18.1023
H 0.557085 19.4484 -18.2513
H -0.0546114 -19.5774 -17.2671
O 3.74769 -18.9301 -18.1158
H 4.69618 -18.9131 -17.9882
H 3.63433 -19.1114 -19.0488
O 6.7142 -19.135 -17.7734
H 7.63389 -18.9806 -17.5576
H 6.70212 -19.2181 -18.7269
O 9.43218 -18.7006 -17.8156
H 10.3312 -18.9232 -17.5737
H 9.49799 -17.8306 -18.2093
O 12.0762 -19.7502 -17.7827
H 12.153 19.331 -18.0401
H 12.9802 -19.4558 -17.6716
O 14.8402 -19.3114 -17.9203
H 15.2884 -18.8977 -17.1826
H 15.0705 19.762 -17.852
O 18.9293 -18.7523 -19.4228
H 18.2715 -18.3088 -19.9584
H 18.764 -18.4406 -18.533
O -17.6206 -15.4217 -18.1578
H -16.6973 -15.6533 -18.2583
H -18.0879 -16.0584 -18.6986
O -14.9559 -15.6956 -18.2168
H -14.1164 -15.3855 -18.5562
H -14.8716 -15.624 -17.266
O -12.4498 -15.0603 -19.0396
H -12.2163 -15.4282 -19.8918
H -11.7829 -15.3977 -18.4416
O -9.90851 -15.9191 -17.7782
H -9.58147 -15.0389 -17.9641
H -9.59441 -16.1102 -16.8945
O -5.92234 -15.4879 -18.6564
H -6.21125 -15.2368 -19.5338
H -4.96913 -15.4052 -18.6849
O -3.19938 -15.7466 -18.9739
H -3.27009 -15.7921 -19.9274
H -3.08364 -16.6559 -18.6982
O -0.665901 -14.7458 -18.9134
H -1.58005 -15.0026 -19.0343
H -0.200692 -15.1668 -19.6363
O 2.53229 -16.5256 -17.581
H 2.92487 -17.3648 -17.8216
H 1.62597 -16.7394 -17.3594
O 5.71399 -16.3947 -17.9096
H 6.26734 -17.0827 -17.5398
H 5.61252 -16.6372 -18.83
O 9.56698 -16.2778 -18.9645
H 9.06528 -15.5201 -18.664
H 10.478 -16.0526 -18.776
O 12.2168 -15.9211 -18.3989
H 12.3636 -14.9803 -18.4965
H 12.5662 -16.3033 -19.2039
O 16.0157 -14.7188 -18.2907
H 16.9631 -14.5864 -18.3245
H 15.6463 -13.8864 -18.5854
O 18.7133 -14.3036 -18.5525
H 19.1349 -14.7912 -17.8448
H 18.8016 -13.3853 -18.2969
O -18.3844 -11.564 -17.6616
H -17.711 -12.0858 -18.098
H -18.192 -10.6618 -17.9171
O -15.9934 -12.7954 -18.5237
H -16.1328 -13.7369 -18.6253
H -15.4239 -12.7184 -17.7582
O -11.3584 -12.7712 19.9421
H -11.8685 -13.5135 -19.7339
H -11.7585 -12.5544 19.1
O -9.3661 -13.1558 -18.2987
H -8.51225 -12.8599 -18.6143
H -9.95031 -13.0467 -19.049
O -6.92626 -11.8915 -18.6534
H -6.66059 -12.2271 -17.7972
H -7.03173 -10.9496 -18.5198
O -3.76779 -12.2509 -18.9804
H -4.11155 -11.3712 -19.1363
H -2.82859 -12.1216 -18.8484
O -1.09154 -12.0663 -18.4506
H -0.84585 -12.9888 -18.52
H -0.539607 -11.7232 -17.7478
O 3.27719 -12.3979 -18.6308
H 3.07198 -13.0628 -19.288
H 3.21414 -11.5671 -19.102
O 5.56308 -13.6695 -17.6379
H 4.78825 -13.259 -18.0219
H 5.40369 -14.6095 -17.7229
O 8.2798 -13.9188 -18.3595
H 7.35291 -13.8436 -18.1327
H 8.32203 -13.6688 -19.2826
O 12.5307 -13.2635 -18.7001
H 12.3707 -12.8794 -17.8381
H 13.3907 -12.9299 -18.9556
O 14.9985 -12.4188 -19.224
H 15.3345 -12.336 19.8835
H 15.2561 -11.6033 -18.7939
O 18.9131 -11.7942 -17.3916
H 19.8698 -11.7645 -17.3874
H 18.6514 -11.0276 -17.9018
O -17.5581 -9.18128 -18.7247
H -16.6072 -9.17561 -18.8337
H -17.7822 -8.27238 -18.5248
O -14.8049 -9.32957 -19.1867
H -14.9253 -9.10994 19.8895
H -13.928 -9.71088 -19.1429
O -12.2173 -10.3674 -19.0562
H -11.4657 -10.2022 -18.487
H -12.0715 -11.2503 -19.396
O -9.70204 -10.4251 -17.9078
H -9.59213 -11.3727 -17.9864
H -9.31452 -10.0713 -18.7084
O -6.81264 -9.07526 -18.1188
H -5.94951 -9.20932 -18.5103
H -7.02031 -8.1593 -18.3035
O -4.39867 -9.67602 -19.3216
H -4.22126 -9.36013 19.7924
H -3.66396 -9.35293 -18.8
O -2.32415 -9.05224 -17.6847
H -1.96237 -8.16839 -17.6202
H -1.55955 -9.62732 -17.6546
O 3.14578 -9.81355 -19.5898
H 4.0366 -9.68021 -19.2659
H 2.59255 -9.32945 -18.9768
O 5.72684 -9.51545 -18.55
H 6.03374 -9.85192 -17.7081
H 5.64633 -8.57109 -18.4161
O 8.82923 -9.77418 -18.1784
H 8.73816 -8.84872 -18.4053
H 9.77426 -9.92544 -18.1623
O 13.3306 -9.21098 -19.2074
H 14.2201 -9.4235 -18.9247
H 13.2883 -8.25549 -19.1687
O 15.7865 -9.97966 -18.2892
H 16.6459 -9.82592 -18.6817
H 15.9633 -10.0717 -17.3529
O 18.4131 -9.64876 -19.0902
H 18.7197 -9.69247 -19.9959
H 18.6178 -8.7566 -18.8103
O -17.9331 -6.33229 -18.6428
H -17.0307 -6.13173 -18.3945
H -18.4443 -5.59749 -18.3037
O -15.4151 -5.56675 -18.0645
H -14.4707 -5.71906 -18.0305
H -15.5032 -4.61469 -18.1098
O -12.6567 -5.41537 -18.331
H -11.7642 -5.75084 -18.2462
H -12.5519 -4.46546 -18.385
O -10.043 -6.49042 -18.5297
H -9.10285 -6.50952 -18.7086
H -10.105 -6.45432 -17.5752
O -7.26682 -6.43057 -18.6541
H -7.12141 -5.89301 -17.8755
H -6.64777 -6.09006 -19.2999
O -3.33367 -6.00143 -18.3194
H -2.48341 -6.0436 -17.8818
H -3.67465 -5.13478 -18.0983
O -0.556362 -6.65374 -17.6091
H -0.381658 -6.07027 -16.8707
H 0.184204 -7.26016 -17.6162
O 1.78365 -8.09177 -17.6494
H 2.17626 -7.89082 -16.7999
H 2.09578 -7.39649 -18.2285
O 5.23569 -6.79468 -18.464
H 5.8117 -6.46432 -19.1534
H 5.69472 -6.59023 -17.6493
O 8.71134 -7.18557 -18.8562
H 9.13983 -6.83113 -19.6354
H 9.0887 -6.69089 -18.1288
O 13.3839 -6.48507 -18.8381
H 14.2829 -6.53009 -18.5126
H 13.0775 -5.61653 -18.5774
O 15.9174 -6.45958 -17.8795
H 15.72 -6.1904 -16.9824
H 16.8612 -6.61952 -17.8799
O 18.6099 -6.76494 -18.6468
H 18.6758 -6.3493 -19.5066
H 18.7484 -6.05138 -18.024
O -18.9708 -3.9104 -17.8541
H -18.7489 -3.49728 -18.6886
H -19.9276 -3.90187 -17.829
O -15.2864 -2.85888 -18.2318
H -14.3372 -2.82193 -18.3494
H -15.5802 -1.95794 -18.3668
O -12.5053 -2.65711 -18.452
H -12.5722 -1.81084 -18.8942
H -12.6139 -2.45187 -17.5234
O -9.77737 -2.97633 -18.0164
H -9.87899 -3.16465 -17.0834
H -10.6732 -2.89748 -18.3443
O -7.08789 -3.27457 -18.401
H -8.03972 -3.37535 -18.3915
H -6.8707 -2.96382 -17.5221
O -4.26471 -3.33327 -17.8417
H -5.12644 -3.30455 -18.2575
H -3.87599 -2.4804 -18.036
O -0.613876 -2.9193 -17.1065
H -0.674942 -2.0076 -17.3917
H -0.108743 -2.88335 -16.2943
O 1.67407 -3.66514 -18.2472
H 2.09847 -3.89622 -17.4209
H 0.770075 -3.46449 -18.0048
O 6.17289 -2.52916 -18.2388
H 7.1265 -2.52831 -18.3217
H 5.92105 -1.61308 -18.3555
O 8.96789 -2.92772 -18.7919
H 8.80869 -3.45171 -19.5769
H 9.68016 -2.33741 -19.0377
O 13.5367 -3.68241 -18.2707
H 14.4683 -3.55 -18.0952
H 13.0947 -3.03391 -17.7226
O 16.0685 -2.92584 -17.6456
H 15.8841 -2.08329 -18.0607
H 15.9425 -2.76527 -16.7104
O 18.3745 -4.32981 -17.2231
H 18.3164 -4.22601 -16.2733
H 17.6223 -3.8458 -17.5639
O -17.8634 0.843241 -17.9562
H -17.7697 1.78121 -17.7898
H -16.9799 0.549415 -18.1782
O -15.5085 -0.171187 -18.8203
H -15.6046 -0.261905 -19.7684
H -14.5709 -0.0326025 -18.6863
O -12.8507 0.16174 -18.5543
H -12.6003 0.287448 -17.639
H -12.6908 1.01111 -18.9656
O -8.93796 -0.489108 -19.3249
H -7.99758 -0.368463 -19.1932
H -9.16252 -1.24119 -18.7771
O -6.208 -0.020667 -18.9204
H -6.13675 0.904057 -19.1571
H -5.3223 -0.26972 -18.6563
O -3.64977 -0.558308 -18.0324
H -3.5405 -0.363909 -17.1015
H -3.19911 0.156891 -18.4814
O -0.116386 -0.193086 -17.4068
H -0.200254 0.029802 -16.4797
H 0.80803 -0.415429 -17.5175
O 2.41861 -1.15822 -17.639
H 2.2272 -2.02101 -18.0066
H 3.22069 -0.881175 -18.0819
O 5.49864 0.360495 -18.2135
H 6.44793 0.459565 -18.286
H 5.14456 1.17766 -18.5644
O 8.22837 0.410292 -18.4431
H 8.40278 0.363502 -17.5031
H 8.78436 1.12427 -18.7551
O 12.4529 -1.11111 -17.3627
H 13.288 -0.764239 -17.6765
H 11.8578 -1.01308 -18.106
O 14.9935 -0.38365 -18.1859
H 15.4813 -0.00507158 -17.4545
H 15.3617 0.0366686 -18.9631
O 19.2851 1.22739 -18.046
H -19.7607 1.29808 -18.0751
H 18.9743 2.12481 -18.1653
O -17.9028 3.7066 -18.9993
H -18.2626 4.495 -18.5929
H -18.3096 3.67597 -19.8652
O -15.213 3.33103 -18.4943
H -16.1576 3.48173 -18.5291
H -14.8368 4.19874 -18.3466
O -12.73 2.76719 -19.5461
H -13.6417 2.93813 -19.3099
H -12.2265 3.05862 -18.7859
O -8.67499 3.02407 -18.3578
H -9.0964 2.46088 -17.7086
H -8.98967 3.90439 -18.1522
O -6.13546 2.65217 -19.3819
H -6.91837 2.87347 -18.8776
H -5.4863 3.30312 -19.1153
O -2.69752 1.80443 -19.25
H -3.2231 2.59855 -19.1532
H -2.37636 1.83756 19.8489
O -0.832129 3.21278 -17.9348
H -0.936734 3.05241 -16.9969
H -1.43289 2.59551 -18.3523
O 1.81618 3.55645 -18.6037
H 0.87887 3.36588 -18.5668
H 1.88713 4.29595 -19.2073
O 4.59001 2.93208 -18.9654
H 3.64446 3.08101 -18.9659
H 4.90273 3.37232 -19.7557
O 9.93818 2.45935 -19.1599
H 10.8763 2.3855 -18.9848
H 9.68706 3.29799 -18.7728
O 12.7666 2.63484 -18.6967
H 13.5356 2.49689 -18.1437
H 12.5064 3.53973 -18.5245
O 15.3673 2.94766 -17.5626
H 15.3872 2.78645 -16.6192
H 16.276 3.14236 -17.7919
O 17.9017 3.7077 -18.2524
H 17.6135 3.93508 -19.1364
H 18.1434 4.54478 -17.856
O -18.7659 6.13058 -17.8404
H -18.5595 6.99882 -18.1865
H -18.3219 6.09827 -16.993
O -14.3198 5.86737 -18.0457
H -14.6143 5.71639 -17.1475
H -13.3949 6.09841 -17.9595
O -11.9014 6.74266 -17.2816
H -11.0509 6.32017 -17.4017
H -12.0361 6.74584 -16.334
O -9.53796 5.65971 -18.1607
H -9.9839 5.63264 -19.0072
H -8.74513 6.17079 -18.3233
O -7.05965 6.97288 -18.6769
H -6.64079 6.66652 -19.4812
H -6.91726 7.91944 -18.6776
O -4.03955 4.36675 -18.9394
H -3.93492 4.8513 -18.1205
H -3.72112 4.9655 -19.6149
O -1.13264 5.99618 -17.8882
H -1.06354 6.17749 -16.9509
H -1.16222 5.04121 -17.9464
O 3.79419 6.50061 -18.0319
H 4.73184 6.31073 -18.0005
H 3.73196 7.32272 -18.5182
O 6.56727 6.39636 -18.5904
H 6.50994 6.58099 -19.5279
H 7.40024 5.93627 -18.4869
O 9.22954 5.22145 -18.8591
H 10.0959 5.30436 -18.4607
H 9.34865 5.5271 -19.7584
O 12.0102 5.23909 -18.2341
H 12.6802 5.46735 -17.5897
H 12.1465 5.85796 -18.9515
O 14.3315 5.58852 -16.9197
H 14.7863 4.85438 -17.3324
H 14.7066 6.36618 -17.3329
O 18.595 6.20991 -17.2997
H 19.5395 6.15604 -17.4455
H 18.4996 6.22289 -16.3473
O -18.2522 8.65235 -18.8123
H -18.3713 8.782 -19.7532
H -17.3272 8.84495 -18.6587
O -15.6267 9.34936 -18.197
H -15.4525 10.2552 -17.9415
H -14.765 8.98909 -18.4064
O -12.9744 8.83391 -18.6055
H -12.525 8.14291 -18.1189
H -12.6465 9.64826 -18.224
O -9.25153 9.71421 -18.537
H -9.62635 10.5823 -18.6859
H -8.31687 9.82305 -18.7125
O -6.50161 9.64952 -19.2181
H -5.62804 9.6001 -18.8299
H -6.35285 9.5455 19.8421
O -3.70043 9.61892 -18.7304
H -2.83444 9.34624 -18.4272
H -3.64843 10.5735 -18.7781
O -1.08547 8.82067 -18.0993
H -1.08866 7.86611 -18.1703
H -0.606035 9.11725 -18.8728
O 3.79911 8.52231 -19.7579
H 4.68095 8.89424 -19.7417
H 3.48307 8.69278 19.3548
O 6.25487 9.72336 -19.8603
H 7.17516 9.46443 -19.8128
H 6.16165 10.402 -19.1918
O 8.99714 9.22317 -19.6501
H 9.19578 10.0648 -19.2397
H 9.03362 8.59144 -18.9319
O 13.2995 9.94502 -18.0321
H 13.7656 10.771 -18.1617
H 13.9898 9.28278 -17.9976
O 15.3095 8.0754 -17.727
H 16.1474 8.19601 -18.1738
H 15.4939 8.28324 -16.811
O 17.774 8.49587 -18.7311
H 17.9133 8.3634 -19.6688
H 18.1798 7.73363 -18.3181
O -17.6896 12.4817 -18.4026
H -18.3396 11.8696 -18.0577
H -17.9263 12.5893 -19.3238
O -15.0752 11.9129 -17.5938
H -15.9329 12.242 -17.8626
H -14.9038 12.3452 -16.7571
O -12.2628 11.2255 -17.5811
H -11.5921 11.8054 -17.9418
H -13.0876 11.6848 -17.7394
O -10.1385 12.2822 -19.2579
H -9.21488 12.5156 -19.1644
H -10.2086 11.9312 19.8544
O -7.42838 12.9589 -19.4079
H -7.30877 12.6306 19.701
H -6.86022 12.4071 -18.8705
O -3.66133 12.3257 -18.9442
H -4.02664 12.4416 -19.8213
H -3.40688 13.2074 -18.6718
O 0.205913 11.7931 -18.4128
H 0.138238 11.9764 -19.3498
H 1.14718 11.7553 -18.243
O 3.01708 12.1463 -18.2251
H 3.01317 11.8253 -17.3234
H 3.11254 13.095 -18.1417
O 5.73631 11.6601 -17.8639
H 6.03002 12.5653 -17.7613
H 4.79505 11.7298 -18.0233
O 9.31101 11.7882 -18.7091
H 10.1637 12.2001 -18.8486
H 8.80493 12.014 -19.4896
O 11.6946 13.1859 -19.0454
H 12.5347 13.0899 -18.5969
H 11.4601 14.1056 -18.9215
O 14.6616 12.2906 -18.7673
H 15.5311 11.898 -18.6909
H 14.8025 13.2215 -18.5942
O 17.2691 11.2477 -18.627
H 17.4667 10.3163 -18.5281
H 17.7208 11.5048 -19.4308
O -17.9861 15.0036 -17.4113
H -17.194 15.4516 -17.708
H -17.9135 14.1213 -17.7755
O -15.8231 16.1734 -18.6182
H -15.6166 17.1078 -18.5958
H -15.8717 15.9607 -19.5502
O -12.3555 16.2768 -19.2453
H -13.0841 16.1817 -18.6318
H -12.0016 17.1475 -19.0643
O -10.0491 15.0354 -19.8246
H -10.9146 15.437 -19.7479
H -10.1759 14.1337 -19.5294
O -6.27799 15.4854 -18.7078
H -6.88243 14.7979 -18.9875
H -6.83815 16.2426 -18.5372
O -2.72521 14.7315 -18.1123
H -1.78229 14.5713 -18.1506
H -2.91513 14.8247 -17.1788
O -0.0835392 14.4673 -18.2648
H 0.0916453 13.5359 -18.1311
H 0.0349175 14.8604 -17.4001
O 3.57079 14.8389 -18.2507
H 3.25417 14.9939 -19.1406
H 3.51097 15.693 -17.8225
O 6.0223 14.3098 -17.0528
H 5.2418 14.5808 -17.5362
H 6.6842 14.9628 -17.2803
O 8.14821 16.0161 -17.59
H 8.97404 16.1281 -18.0608
H 8.4093 15.7674 -16.7033
O 10.678 15.8037 -19.1282
H 11.3106 16.4814 -18.8897
H 10.7961 15.6863 19.9292
O 15.155 14.9361 -18.5064
H 15.5922 15.4673 -17.8409
H 15.3174 15.3995 -19.3281
O 19.398 15.6055 -18.3271
H -19.6627 15.6539 -18.1496
H 19.1219 16.5184 -18.4085
O -18.0352 19.3923 -19.3856
H -18.3669 18.962 19.8264
H -18.1689 -19.6739 -19.5476
O -15.5104 18.86 -18.5887
H -15.0838 19.7168 -18.5741
H -16.3693 19.0261 -18.977
O -11.0708 18.7455 -19.418
H -11.5196 18.6344 19.7439
H -11.5299 19.4705 -18.9941
O -8.40805 19.453 -19.2191
H -8.07094 19.1184 -18.3881
H -9.31402 19.1458 -19.2518
O -4.6893 18.3875 -18.3596
H -4.52524 19.1009 -17.7429
H -5.00852 18.8224 -19.1503
O -2.22331 17.3324 -18.5293
H -2.36798 16.3946 -18.4035
H -3.07762 17.7312 -18.3641
O 0.543631 17.7532 -18.8807
H 0.546321 17.6756 -19.8347
H -0.351772 17.5322 -18.6245
O 3.73402 17.3885 -17.3658
H 4.62442 17.6882 -17.1826
H 3.54619 17.7172 -18.2449
O 6.3518 18.2695 -16.9261
H 7.09114 17.7398 -17.2243
H 6.54923 19.1533 -17.2363
O 9.22618 18.6669 -18.6315
H 9.22016 19.6229 -18.5846
H 9.41297 18.3839 -17.7364
O 12.5831 17.7862 -18.9429
H 12.5777 18.009 -19.8738
H 13.5108 17.7092 -18.72
O 15.3794 18.0333 -17.9494
H 15.4508 18.0354 -16.9949
H 16.2834 17.9709 -18.2576
O 18.1664 18.1784 -18.5189
H 18.3241 18.6657 -17.7102
H 18.3274 18.8132 -19.2169
O -18.1275 -18.4851 -16.8232
H -18.2865 -19.4289 -16.8094
H -18.1043 -18.2591 -17.753
O -15.5698 -18.8929 -15.888
H -15.0987 -18.7235 -16.7038
H -16.4644 -18.6005 -16.0624
O -11.2798 -19.2384 -15.6464
H -10.3306 -19.1409 -15.5698
H -11.6359 -18.4518 -15.2332
O -8.51581 -19.4502 -15.3272
H -7.5819 -19.2415 -15.3054
H -8.79942 -19.377 -14.4159
O -5.7949 -18.8659 -15.1356
H -5.88563 -17.9852 -15.4995
H -5.76955 -18.7326 -14.1881
O -3.6227 -19.9336 -16.3573
H -2.82266 -19.6122 -15.9415
H -4.33169 -19.5144 -15.8696
O -1.05285 -19.1313 -15.753
H -0.848392 19.9747 -15.4787
H -0.916159 -18.6019 -14.9674
O 3.25255 -19.2965 -15.3825
H 3.71162 -18.4897 -15.1489
H 3.30784 -19.3362 -16.3373
O 6.31568 -19.0564 -13.7199
H 7.10438 -19.054 -14.2623
H 5.84059 -19.842 -13.9906
O 8.85072 -19.1099 -14.9433
H 9.24757 -19.0836 -14.0726
H 9.18644 -18.3291 -15.3837
O 13.5864 -19.4424 -14.9711
H 13.1469 -18.6939 -15.3746
H 13.3535 -19.3865 -14.0443
O 15.9062 -18.1503 -15.6542
H 15.6854 -17.2234 -15.5635
H 15.1764 -18.6123 -15.2417
O 19.2 -18.1399 -16.7019
H -19.8493 -18.2477 -16.6738
H 19.051 -17.2446 -16.3976
O -17.7899 -15.0737 -15.4047
H -17.7357 -15.2641 -16.3412
H -17.6798 -14.1246 -15.346
O -14.9541 -15.4294 -15.4719
H -14.6544 -14.5203 -15.4694
H -15.8797 -15.3776 -15.2335
O -12.5278 -16.819 -14.7528
H -12.1724 -15.9386 -14.8738
H -13.4618 -16.7289 -14.9423
O -8.78993 -16.1071 -15.2609
H -7.86335 -16.3051 -15.3967
H -8.83688 -15.1513 -15.2837
O -6.08395 -16.2783 -15.9637
H -5.15994 -16.1197 -15.7706
H -6.20274 -15.9495 -16.8548
O -3.38146 -15.8116 -15.8292
H -2.50779 -16.0686 -16.124
H -3.47631 -14.9051 -16.1216
O -0.653927 -16.3034 -16.6267
H -0.750239 -17.2255 -16.865
H -0.631126 -15.8403 -17.4641
O 4.1509 -16.7387 -15.1571
H 3.78204 -16.5344 -16.0165
H 5.09148 -16.5931 -15.259
O 7.16957 -16.0373 -15.0292
H 8.05868 -16.3895 -15.07
H 6.93942 -16.0736 -14.1008
O 9.98533 -16.5827 -15.3748
H 10.8857 -16.9005 -15.4425
H 10.0224 -15.6846 -15.7041
O 12.6151 -17.0752 -15.8818
H 13.0934 -16.4722 -15.3126
H 12.5936 -16.6363 -16.7322
O 15.4312 -15.189 -15.6646
H 15.4946 -15.1137 -16.6167
H 16.2531 -14.8217 -15.3395
O 19.5754 -15.4693 -16.1981
H -19.5575 -15.3453 -15.8122
H 19.0314 -14.7975 -15.7868
O -17.2606 -12.4137 -15.3544
H -17.7219 -12.0237 -16.0969
H -17.1888 -11.7035 -14.7166
O -14.6772 -12.6178 -16.1188
H -14.3594 -11.7149 -16.1255
H -15.5633 -12.5577 -15.7618
O -11.7919 -14.1527 -14.8301
H -10.9059 -13.854 -15.035
H -12.1826 -13.4279 -14.342
O -9.07264 -13.2982 -15.5055
H -8.12944 -13.1397 -15.5443
H -9.37618 -13.1607 -16.4028
O -6.47003 -12.7479 -16.139
H -5.54326 -12.9869 -16.1532
H -6.48042 -11.8461 -15.8181
O -3.76792 -13.1174 -16.4318
H -3.81382 -12.9127 -17.3657
H -3.59634 -12.2755 -16.0098
O 0.0876845 -10.7543 -16.3815
H -0.27639 -11.1411 -15.5852
H 1.02557 -10.9388 -16.3308
O 2.76772 -11.5092 -15.9829
H 3.39146 -10.7905 -15.8801
H 2.94832 -11.8608 -16.8547
O 6.9279 -13.1469 -15.3973
H 6.3849 -13.2068 -16.1833
H 7.25703 -14.0359 -15.2646
O 9.98265 -13.9747 -16.0918
H 10.6954 -13.3372 -16.1346
H 9.44238 -13.7824 -16.8582
O 12.0535 -12.1881 -16.2854
H 12.0076 -11.2478 -16.4588
H 12.8169 -12.2903 -15.7171
O 14.5731 -12.569 -15.0647
H 14.7866 -13.4746 -15.2897
H 15.2928 -12.0548 -15.4305
O 17.8138 -13.4699 -15.4944
H 18.0409 -13.0674 -14.6561
H 18.0694 -12.8204 -16.1495
O -18.3331 -8.50929 -15.6502
H -17.8875 -8.97229 -14.9408
H -18.3011 -7.5879 -15.3928
O -14.7313 -9.79632 -16.4307
H -14.7907 -9.59199 -17.364
H -15.6001 -9.59233 -16.0846
O -12.8035 -8.59834 -14.9534
H -13.4467 -9.05449 -15.496
H -11.9561 -8.89408 -15.286
O -10.2361 -9.07819 -15.5898
H -9.96072 -9.49945 -16.404
H -10.0612 -8.1476 -15.73
O -6.52391 -10.0702 -15.4026
H -5.57415 -10.0378 -15.5172
H -6.8737 -9.61337 -16.1676
O -3.74918 -10.2803 -15.6554
H -3.49858 -9.89556 -14.8155
H -3.28095 -9.759 -16.3074
O 0.1411 -8.30149 -14.8991
H 0.410781 -8.7016 -14.0724
H 0.117472 -9.0286 -15.5212
O 4.39573 -9.40124 -15.3037
H 5.3272 -9.25739 -15.1367
H 4.02495 -8.5212 -15.3692
O 6.79417 -8.30681 -14.4604
H 7.21695 -9.06852 -14.857
H 6.71158 -8.53339 -13.5341
O 7.177 -10.4803 -16.0879
H 7.8671 -10.3747 -16.7428
H 7.25318 -11.3911 -15.8037
O 11.8037 -9.43448 -16.9127
H 11.7727 -8.54599 -16.558
H 12.3543 -9.36254 -17.6924
O 16.5102 -10.3979 -15.7085
H 15.9595 -9.9424 -15.0717
H 17.3754 -10.002 -15.6043
O 18.9463 -8.90393 -15.332
H 19.8308 -8.87362 -15.6968
H 18.8473 -8.06977 -14.8731
O -18.3748 -5.71732 -14.7789
H -17.4269 -5.8072 -14.8771
H -18.5391 -4.78022 -14.8841
O -15.704 -5.57183 -15.351
H -15.6598 -5.63619 -16.305
H -15.6638 -4.63243 -15.1718
O -12.9957 -5.87907 -14.8695
H -12.8628 -6.82038 -14.9812
H -13.932 -5.74929 -15.0207
O -10.0223 -6.27902 -15.8201
H -9.15949 -5.86828 -15.7647
H -10.6361 -5.57901 -15.5976
O -7.52807 -5.14069 -15.7023
H -7.20878 -5.5267 -14.8867
H -7.29823 -4.21391 -15.6353
O -2.39024 -5.43235 -14.7451
H -1.45095 -5.43427 -14.9294
H -2.52713 -4.65444 -14.2044
O 0.257227 -5.60549 -15.1812
H 0.29233 -6.5419 -14.986
H 1.17283 -5.34861 -15.2904
O 3.27003 -6.8289 -15.2942
H 3.18135 -6.72392 -14.3469
H 3.27885 -5.93446 -15.635
O 6.83588 -6.22067 -16.2362
H 6.80283 -6.89339 -15.5561
H 7.77013 -6.06384 -16.3735
O 9.68586 -5.84553 -16.6912
H 10.4291 -6.25061 -16.2443
H 9.81561 -4.90512 -16.5686
O 11.9786 -6.91883 -15.6043
H 12.7973 -6.44842 -15.7614
H 11.8837 -6.92411 -14.6519
O 14.8294 -5.42101 -15.3201
H 14.7888 -5.91083 -14.4987
H 15.4834 -4.74029 -15.1615
O 19.0935 -6.52318 -13.9356
H 19.9462 -6.22762 -14.2545
H 19.2808 -6.92539 -13.0874
O -18.292 -2.91131 -15.3876
H -18.2575 -1.95531 -15.4207
H -18.4554 -3.17708 -16.2925
O -15.6384 -2.9384 -14.8339
H -15.4831 -2.85326 -13.8932
H -16.5879 -2.86198 -14.9282
O -12.9651 -2.01337 -15.8693
H -13.8676 -2.10821 -15.5648
H -12.7778 -1.07915 -15.7777
O -10.6446 -3.51205 -15.4933
H -10.197 -3.29947 -14.6743
H -11.4889 -3.06584 -15.4281
O -6.67304 -2.4333 -15.8593
H -5.79297 -2.51984 -15.493
H -6.84617 -1.49196 -15.8481
O -4.12481 -2.54492 -14.9515
H -3.85049 -1.65274 -15.1637
H -3.88037 -3.06031 -15.7202
O 1.05425 -2.36482 -14.9291
H 0.767098 -1.45188 -14.9467
H 0.64383 -2.73041 -14.1454
O 2.74298 -4.20822 -15.836
H 3.66448 -3.95192 -15.8733
H 2.29485 -3.4414 -15.4791
O 5.44734 -3.83665 -15.8875
H 5.93942 -4.65417 -15.9633
H 5.70849 -3.32734 -16.6547
O 10.0342 -3.17025 -16.1396
H 9.69601 -2.91911 -16.9991
H 10.9328 -2.84077 -16.1297
O 13.0594 -3.36035 -15.2311
H 13.721 -2.67408 -15.1442
H 13.562 -4.17343 -15.2806
O 15.781 -2.43692 -14.9708
H 16.5799 -2.90297 -14.7243
H 16.0696 -1.54078 -15.1437
O 17.7334 -4.1658 -14.422
H 17.985 -3.66127 -13.6485
H 18.0485 -5.05188 -14.2435
O -17.7796 -0.21697 -15.3425
H -16.8299 -0.206489 -15.2232
H -17.9224 0.240301 -16.1712
O -15.1359 0.239582 -14.6499
H -14.7819 0.148956 -13.7652
H -14.7077 1.02043 -15.0008
O -12.0414 0.62497 -15.9174
H -11.1345 0.849539 -16.1255
H -12.11 0.75572 -14.9716
O -9.40198 1.35799 -16.1077
H -8.51763 1.02885 -16.2684
H -9.27038 2.2415 -15.7637
O -6.96269 0.297915 -16.3453
H -6.72089 0.16433 -17.2617
H -6.6161 1.16364 -16.1294
O -3.44995 0.176985 -15.3843
H -3.39352 1.09075 -15.6637
H -3.75306 0.22162 -14.4774
O 0.0794438 0.246106 -14.6786
H 0.99693 0.514195 -14.7294
H -0.0652808 0.0603509 -13.7508
O 2.65007 1.0787 -14.6792
H 3.50554 0.891328 -15.0656
H 2.42701 1.95181 -15.002
O 5.20668 1.21772 -15.657
H 5.23594 2.16942 -15.7552
H 5.33315 0.880974 -16.5441
O 8.92543 0.861401 -15.8954
H 9.16039 1.77976 -16.0282
H 8.64815 0.814532 -14.9805
O 11.4214 0.212365 -15.157
H 10.5267 0.402245 -15.4392
H 11.811 -0.257332 -15.8944
O 16.2764 0.11078 -15.7001
H 17.1817 0.421441 -15.7104
H 15.7829 0.823043 -15.2935
O 18.7731 1.07511 -15.4335
H 19.0038 1.02549 -16.3612
H 18.8723 2.00071 -15.2107
O -18.2091 3.00098 -15.853
H -19.0497 3.12014 -15.411
H -17.6129 2.71351 -15.1615
O -14.3708 2.56566 -15.9083
H -14.7025 2.58902 -16.8059
H -14.4754 3.46243 -15.5904
O -11.7964 3.38652 -17.0713
H -12.4001 2.89641 -16.5132
H -11.1135 3.69334 -16.4749
O -9.59402 4.03005 -15.4112
H -9.54962 3.8878 -14.4657
H -9.29492 4.93118 -15.5326
O -6.27351 2.88434 -15.9408
H -5.3175 2.92173 -15.9707
H -6.55692 3.74821 -16.2402
O -3.57239 3.00421 -15.8047
H -3.32479 2.98417 -14.8803
H -3.51283 3.92775 -16.0491
O -0.41518 2.98471 -15.1326
H 0.466623 3.16135 -15.4604
H -0.411594 2.05012 -14.9258
O 2.1832 3.48724 -15.9634
H 3.12357 3.65306 -15.8967
H 2.00455 3.49299 -16.9037
O 4.85728 3.96345 -16.2478
H 5.00083 3.96467 -17.1942
H 5.34288 4.72484 -15.9305
O 9.90231 3.3953 -16.0392
H 10.8306 3.34566 -15.8111
H 9.61079 4.23228 -15.6776
O 12.439 2.73873 -15.0028
H 12.1124 1.83973 -15.0396
H 12.0281 3.11159 -14.2228
O 15.2033 2.43257 -14.7883
H 15.511 2.87209 -13.9956
H 14.2553 2.56439 -14.7832
O 19.3155 3.56184 -14.6394
H 18.9443 4.43953 -14.7298
H 19.225 3.35767 -13.7086
O -17.5309 5.57238 -15.4417
H -17.757 4.65353 -15.5861
H -17.7747 5.7393 -14.5313
O -14.8278 5.27601 -15.4656
H -14.3483 6.03539 -15.1344
H -15.75 5.51174 -15.3644
O -12.9941 7.182 -14.68
H -12.7403 6.91482 -13.7965
H -12.9227 8.1365 -14.6718
O -8.65052 6.61457 -14.9167
H -8.85773 7.47046 -15.2919
H -9.10403 6.60586 -14.0738
O -6.65576 5.56157 -16.3664
H -7.29379 5.94426 -15.7642
H -6.74709 6.07361 -17.17
O -3.93897 5.60957 -16.4193
H -3.57643 6.45801 -16.1644
H -4.88119 5.69835 -16.2759
O -0.821602 6.66598 -15.2415
H -0.793295 7.62275 -15.2464
H 0.0974118 6.39878 -15.2257
O 2.04224 6.26618 -15.8091
H 2.09389 5.31697 -15.697
H 2.61058 6.45079 -16.5569
O 6.20037 6.24143 -15.08
H 6.26003 7.16421 -15.3273
H 6.01334 6.25612 -14.1413
O 8.95279 5.81903 -14.9711
H 8.02486 5.89889 -15.192
H 9.00265 6.07187 -14.0492
O 11.5513 6.88497 -15.3845
H 10.6827 6.49214 -15.2978
H 12.0374 6.56238 -14.6257
O 15.5127 5.93848 -14.5404
H 15.6846 6.86902 -14.6844
H 15.0664 5.6508 -15.3368
O 18.1901 6.03417 -14.6611
H 17.2493 5.89918 -14.5472
H 18.3775 6.83841 -14.1771
O -19.243 10.509 -17.1061
H -19.0145 9.78683 -17.6913
H 19.9365 10.2353 -16.6961
O -15.743 9.07366 -15.3236
H -15.8323 8.94851 -16.2684
H -14.8353 9.35257 -15.2032
O -12.9924 9.90956 -14.8941
H -12.7004 10.2947 -14.0679
H -12.6338 10.487 -15.568
O -9.08708 9.20209 -15.731
H -8.1324 9.25932 -15.7702
H -9.37415 9.36202 -16.6301
O -6.33273 9.23325 -16.0031
H -5.43241 8.92765 -15.8924
H -6.25209 10.1797 -16.1213
O -3.68647 8.24344 -15.4435
H -3.36185 8.0234 -14.5703
H -3.1157 8.95229 -15.7402
O -0.434291 9.38373 -15.455
H 0.47803 9.16889 -15.2607
H -0.502693 9.30218 -16.4063
O 2.18533 8.86304 -14.7295
H 2.28584 7.94909 -14.9956
H 2.71096 8.94034 -13.9332
O 6.7275 9.01599 -15.2069
H 6.33131 9.87313 -15.3637
H 7.66364 9.15435 -15.3509
O 9.3813 9.74576 -15.2074
H 10.3019 9.55824 -15.3904
H 9.27836 10.6733 -15.4204
O 12.0724 9.49823 -15.5242
H 12.4598 9.74207 -16.3649
H 11.9761 8.54706 -15.5712
O 16.1345 8.49096 -15.1006
H 15.9635 8.78694 -14.2065
H 16.9643 8.90581 -15.3361
O 18.4739 9.91916 -15.5594
H 18.0641 10.7824 -15.5031
H 18.6397 9.67246 -14.6495
O -17.7103 11.1366 -14.9706
H -18.3106 10.9059 -15.6795
H -16.9854 10.5177 -15.059
O -14.3038 13.1687 -15.3319
H -13.3601 13.2396 -15.4757
H -14.6106 14.0749 -15.301
O -11.5794 13.5462 -15.8201
H -11.4587 13.5142 -14.871
H -11.7887 14.4619 -16.0046
O -8.90024 13.5735 -16.5377
H -8.93625 14.511 -16.7271
H -9.79124 13.3483 -16.27
O -6.61655 12.0206 -16.0487
H -7.42165 12.4739 -16.2988
H -6.62943 12.0191 -15.0916
O -2.17816 12.0167 -16.3153
H -1.22284 12.0189 -16.3753
H -2.4754 11.9454 -17.2224
O 0.45516 12.0372 -15.2764
H 0.190598 11.1209 -15.1947
H 0.417719 12.3785 -14.3829
O 3.06766 11.3039 -15.6636
H 2.27182 11.7708 -15.4088
H 2.88925 10.389 -15.446
O 5.78787 11.6367 -15.0679
H 5.90096 11.7476 -16.0119
H 4.84105 11.6771 -14.9332
O 9.52448 12.3655 -16.0348
H 10.4796 12.3853 -15.9749
H 9.34552 12.1913 -16.9589
O 12.3122 12.7234 -15.584
H 12.154 13.6589 -15.4575
H 12.4722 12.3857 -14.7027
O 15.041 13.4765 -15.3424
H 14.2317 13.0951 -15.6827
H 15.7338 12.9068 -15.6765
O 17.3321 12.2802 -16.1163
H 17.9611 12.9988 -16.0517
H 17.4018 11.981 -17.0229
O -18.475 14.0229 -14.895
H -18.1238 13.1324 -14.8998
H -18.1187 14.4257 -15.6869
O -14.834 15.8726 -15.2488
H -13.9765 16.07 -15.6254
H -15.3627 16.6483 -15.4359
O -12.2377 16.1968 -16.1691
H -11.4544 16.2158 -16.7188
H -12.0777 16.8625 -15.5002
O -9.64887 16.119 -17.2703
H -9.64147 15.9448 -18.2115
H -9.11621 16.9077 -17.168
O -5.29914 14.4977 -16.333
H -5.54374 14.8165 -17.2018
H -5.71982 13.6406 -16.2646
O -2.81021 14.4124 -15.1579
H -3.73091 14.5692 -15.3676
H -2.63136 13.5373 -15.5021
O -0.294783 15.6181 -15.8405
H 0.47891 15.4936 -15.2909
H -1.00131 15.1841 -15.3623
O 2.13807 15.6461 -14.3878
H 3.02746 15.298 -14.4513
H 2.2288 16.5758 -14.5966
O 4.96456 15.3796 -14.6071
H 5.47646 15.0895 -13.8521
H 5.35274 14.9195 -15.3514
O 8.97791 14.8695 -15.1904
H 9.01626 13.9617 -15.4914
H 8.89687 14.8036 -14.2389
O 11.6447 15.3375 -15.0807
H 11.8636 16.263 -15.1891
H 10.6912 15.3057 -15.1591
O 16.521 15.7666 -15.9437
H 15.9265 15.0561 -15.7028
H 17.3892 15.3635 -15.9431
O 18.9317 14.5439 -15.8533
H 19.7887 14.2894 -15.511
H 19.1111 14.8589 -16.7392
O -18.7992 18.8577 -16.7601
H -18.6431 18.8242 -17.7039
H -17.9901 18.5254 -16.3712
O -16.2014 18.3277 -15.9941
H -15.9171 18.396 -16.9056
H -15.969 19.1715 -15.6065
O -11.6078 18.2411 -14.4059
H -10.8258 18.0935 -13.8739
H -11.48 19.111 -14.7843
O -8.01787 18.2469 -16.798
H -7.29928 17.8284 -16.324
H -8.27402 18.9839 -16.2435
O -6.11661 16.8965 -15.3055
H -6.02884 15.9812 -15.5714
H -5.21737 17.2222 -15.2657
O -3.52592 17.6268 -15.1266
H -2.64075 17.5743 -14.7661
H -3.54887 18.4668 -15.585
O -0.493618 18.2987 -15.1716
H -0.60667 17.4498 -15.5992
H 0.452055 18.3815 -15.0488
O 2.21665 18.1927 -15.2597
H 2.61371 17.8655 -16.0668
H 2.64887 19.0323 -15.1028
O 5.49333 18.2148 -14.3463
H 5.07792 17.3528 -14.3706
H 5.87685 18.321 -15.2169
O 9.59001 18.4245 -15.8359
H 10.5169 18.3912 -15.5992
H 9.32004 19.318 -15.6236
O 12.1997 18.0884 -14.9929
H 12.237 18.0461 -14.0374
H 12.7161 18.862 -15.2192
O 16.0703 18.3474 -15.254
H 16.2699 17.4166 -15.3536
H 16.8946 18.7921 -15.4517
O 18.619 19.2877 -15.9486
H 18.6157 -19.7615 -16.059
H 19.5187 19.0264 -16.1449
O -18.2979 -18.3312 -12.3138
H -18.4226 -18.2144 -11.372
H -17.3808 -18.1019 -12.4648
O -15.641 -17.8465 -11.8739
H -15.7783 -18.0168 -10.9421
H -15.4509 -16.9096 -11.9213
O -13.1375 -18.631 -11.3308
H -12.6361 -17.8455 -11.5494
H -14.0327 -18.4275 -11.6019
O -9.62301 -19.4357 -12.8128
H -9.51707 19.6281 -12.644
H -9.80337 -19.0557 -11.953
O -5.66207 -18.2604 -12.4854
H -4.73628 -18.0656 -12.3399
H -6.11446 -17.4417 -12.2821
O -2.92242 -18.2328 -11.9212
H -3.00516 -19.1854 -11.9658
H -2.93751 -18.0342 -10.9849
O -0.699207 -17.6482 -13.4744
H -0.605962 -16.7018 -13.5834
H -1.45869 -17.75 -12.9008
O 1.53494 -19.2576 -13.1788
H 2.00975 -19.1076 -13.9963
H 0.791684 -18.6558 -13.219
O 7.29227 -19.4708 -11.2813
H 8.23153 -19.5149 -11.4604
H 6.89561 -19.269 -12.1288
O 9.84744 -18.9272 -12.4928
H 10.804 -18.9587 -12.5075
H 9.63982 -18.0025 -12.3585
O 12.5681 -18.7045 -12.4163
H 12.9292 -17.8686 -12.7115
H 12.5293 -18.6258 -11.4631
O 16.202 -18.7972 -11.95
H 17.1514 -18.9083 -12.0015
H 16.0474 -17.9057 -12.2625
O 18.9419 -18.9095 -11.9593
H 18.9718 -19.8122 -12.2763
H 19.7177 -18.4962 -12.3382
O -18.3674 -14.89 -12.5843
H -19.3167 -15.0105 -12.6068
H -18.0686 -15.1767 -13.4473
O -14.934 -15.172 -11.743
H -15.1402 -14.9312 -10.8398
H -13.9972 -15.3685 -11.731
O -12.2412 -16.1528 -12.0386
H -12.3977 -16.368 -12.958
H -11.3119 -15.9271 -11.9997
O -9.60473 -15.6204 -12.4775
H -9.48817 -15.9266 -13.3769
H -9.4928 -14.6713 -12.5307
O -7.00303 -16.0557 -11.7491
H -7.94415 -16.0305 -11.922
H -6.68329 -15.2003 -12.0359
O -2.43739 -14.6814 -13.5403
H -1.52283 -14.5965 -13.8098
H -2.85649 -15.1544 -14.2593
O 0.165592 -14.9454 -14.341
H 1.01472 -15.2446 -14.0158
H 0.0674041 -15.3783 -15.1891
O 2.53719 -15.6333 -13.1683
H 3.18753 -16.022 -13.7534
H 2.72639 -14.6952 -13.1885
O 6.21384 -15.5808 -12.5269
H 5.87988 -14.6959 -12.6741
H 5.62256 -15.9549 -11.8737
O 8.96566 -16.3037 -12.1117
H 8.02351 -16.1889 -11.9875
H 9.22061 -15.5855 -12.6909
O 13.6729 -16.341 -13.1909
H 14.6128 -16.1781 -13.2698
H 13.4496 -16.0364 -12.3113
O 16.3901 -16.0232 -12.4817
H 17.2999 -15.7808 -12.6542
H 16.2551 -15.8076 -11.5589
O 18.9214 -14.9998 -12.3641
H 18.7748 -14.071 -12.5432
H 18.9389 -15.0601 -11.409
O -17.8067 -12.2662 -12.0546
H -18.0719 -13.1528 -12.2991
H -16.8553 -12.2626 -12.1603
O -15.1106 -12.5253 -12.3327
H -14.8443 -12.1699 -11.4848
H -15.0632 -13.4748 -12.2206
O -12.671 -12.0121 -13.3636
H -12.5211 -11.127 -13.0316
H -13.57 -12.216 -13.1058
O -8.98307 -12.9378 -12.3167
H -8.03296 -12.9673 -12.4292
H -9.29769 -12.4301 -13.0647
O -6.20186 -13.4657 -12.2434
H -5.42889 -13.0918 -12.6664
H -6.07458 -13.2887 -11.3113
O -3.69761 -12.2489 -12.7811
H -3.07747 -12.7999 -13.2586
H -3.42158 -11.3532 -12.9752
O -0.397409 -11.9999 -13.6707
H -0.551785 -12.0515 -12.7275
H 0.223447 -12.7057 -13.8513
O 2.64854 -12.744 -13.5463
H 2.67191 -12.4264 -14.449
H 2.87724 -11.9799 -13.0171
O 5.34784 -13.0701 -13.1866
H 5.8473 -13.0371 -14.0025
H 4.43468 -12.9846 -13.4606
O 9.45703 -13.9472 -13.3974
H 8.77325 -13.2876 -13.2807
H 9.61124 -13.9685 -14.3418
O 11.6556 -12.3016 -12.9914
H 12.2122 -12.6402 -12.2901
H 10.9279 -12.9215 -13.0407
O 15.8013 -11.7021 -12.679
H 15.5633 -10.7933 -12.8628
H 15.315 -12.2131 -13.326
O 18.4929 -12.3685 -13.0696
H 19.1103 -11.6371 -13.0787
H 17.6381 -11.9593 -12.9345
O -16.9542 -10.0565 -13.7767
H -17.6752 -10.3685 -13.2299
H -16.2923 -9.75728 -13.1534
O -15.0103 -8.90114 -11.9649
H -14.0836 -9.12413 -12.053
H -15.0235 -7.94527 -11.9162
O -12.3309 -9.3742 -12.4094
H -12.5842 -9.03646 -13.2685
H -11.3782 -9.45546 -12.4548
O -9.70815 -9.426 -12.8541
H -9.63605 -8.48324 -12.7051
H -9.75506 -9.51555 -13.806
O -6.07258 -9.03046 -12.8274
H -6.402 -9.48888 -13.6005
H -6.2812 -9.61213 -12.0964
O -3.40242 -9.4983 -13.0673
H -4.31585 -9.26073 -12.9077
H -2.91092 -8.69716 -12.886
O 0.904319 -9.70105 -12.6918
H 0.549075 -10.513 -13.0534
H 1.85305 -9.82745 -12.7048
O 3.62139 -10.191 -12.7694
H 3.90853 -9.93277 -13.6453
H 4.31071 -9.87178 -12.187
O 5.92592 -8.96649 -11.6496
H 6.84704 -9.21059 -11.559
H 5.93473 -8.01062 -11.6993
O 8.57477 -9.32522 -11.5896
H 9.06058 -9.56858 -10.8016
H 8.89708 -8.45125 -11.8099
O 12.2627 -9.84302 -13.8564
H 12.0097 -10.7054 -13.527
H 11.9051 -9.81057 -14.7436
O 14.9243 -9.28973 -13.81
H 14.9326 -8.39729 -13.464
H 13.9963 -9.51801 -13.8628
O -19.8707 -10.1909 -13.2105
H 19.7319 -9.76702 -13.9712
H -19.8629 -9.5129 -12.5348
O -18.0275 -5.6859 -11.5697
H -17.0725 -5.74916 -11.5825
H -18.2145 -4.80919 -11.9054
O -15.2601 -5.89552 -11.2402
H -15.1732 -5.55231 -10.3508
H -14.876 -5.21854 -11.7973
O -11.8928 -5.05734 -12.5084
H -12.2974 -5.38379 -13.3121
H -11.9723 -4.10539 -12.5692
O -9.67494 -6.65461 -12.446
H -9.57264 -6.71116 -11.496
H -10.3732 -6.01255 -12.5744
O -7.05778 -6.39591 -13.2402
H -7.99589 -6.50527 -13.0845
H -6.69692 -7.27899 -13.1616
O -2.20666 -7.10338 -12.6072
H -2.35008 -6.59587 -13.4061
H -2.8105 -6.72279 -11.9695
O 0.285043 -6.03027 -11.8699
H 0.113492 -5.1117 -12.0774
H -0.507348 -6.49073 -12.1462
O 2.89478 -6.13531 -12.6493
H 3.11348 -5.20355 -12.6643
H 1.9702 -6.16086 -12.4028
O 6.54926 -6.34194 -12.1277
H 7.49852 -6.34128 -12.2507
H 6.24329 -5.57842 -12.6172
O 9.29994 -6.63404 -11.9338
H 9.32003 -6.11815 -11.1277
H 9.57845 -6.02358 -12.6164
O 12.0124 -7.29055 -12.8232
H 11.937 -8.23814 -12.9355
H 11.4117 -7.08523 -12.1068
O 14.6715 -6.70095 -12.9042
H 15.0497 -6.46332 -12.0576
H 13.737 -6.80929 -12.7277
O -19.9414 -7.73407 -11.6686
H 19.506 -7.33906 -10.9943
H -19.1647 -7.1755 -11.6999
O -18.9786 -2.95758 -11.8304
H -18.7031 -2.12338 -12.2104
H -19.9162 -3.00809 -12.0166
O -14.7737 -2.81109 -12.2282
H -13.84 -2.60889 -12.2875
H -15.1854 -1.97828 -11.9977
O -12.1044 -2.16016 -12.4514
H -11.1897 -2.34473 -12.6644
H -12.2031 -1.22137 -12.6101
O -9.56748 -2.73726 -13.0671
H -9.22242 -3.02248 -12.221
H -9.18676 -1.86935 -13.2013
O -8.82346 -3.58068 -10.5478
H -8.85501 -3.08448 -9.72988
H -8.06576 -4.1573 -10.4496
O -2.55259 -3.38535 -12.8587
H -3.27249 -2.95094 -13.3161
H -2.78146 -3.31733 -11.9317
O 0.0767963 -3.26336 -12.5405
H 0.135634 -2.36597 -12.2127
H -0.8523 -3.38761 -12.7343
O 2.78647 -3.22041 -12.1703
H 2.96324 -2.28599 -12.2791
H 1.86171 -3.31776 -12.3974
O 5.4241 -3.96287 -13.0346
H 4.64137 -3.5182 -12.7093
H 5.47012 -3.72161 -13.9597
O 10.0701 -4.61809 -13.623
H 10.7785 -4.15526 -13.1756
H 9.90852 -4.10307 -14.4135
O 12.1927 -3.13586 -12.7252
H 12.4774 -3.25663 -13.6311
H 12.9649 -2.79433 -12.2744
O 14.6243 -1.47642 -12.5691
H 15.1161 -1.81 -13.3195
H 15.0531 -0.649232 -12.3497
O 18.365 -2.65144 -12.2636
H 18.0147 -2.63598 -11.3729
H 18.3874 -1.73196 -12.5287
O -18.7673 -0.261221 -12.7403
H -18.5374 -0.161818 -13.6641
H -19.7052 -0.0732778 -12.7047
O -15.9541 -0.311912 -11.9636
H -15.8176 -0.00123049 -11.0686
H -16.8861 -0.168445 -12.1279
O -11.739 0.681932 -13.191
H -11.8016 1.4368 -12.6057
H -10.8014 0.496837 -13.2445
O -9.10278 -0.0352164 -13.6295
H -8.37699 0.410516 -13.1927
H -9.11184 0.330841 -14.5138
O -6.92837 1.23581 -12.546
H -6.80816 2.17666 -12.6748
H -6.04895 0.867613 -12.6313
O -4.30289 0.385142 -12.7932
H -3.90618 -0.0462304 -12.0363
H -3.96248 1.27934 -12.7654
O 0.440949 -0.526959 -12.0119
H 1.37631 -0.352409 -11.9076
H 0.0292551 -0.077676 -11.2737
O 3.27063 -0.514389 -12.4076
H 3.00818 -0.0100078 -13.1777
H 4.21184 -0.359189 -12.3285
O 5.88833 0.420884 -13.1744
H 6.84234 0.394159 -13.1009
H 5.72336 0.567604 -14.1058
O 8.63045 0.807333 -13.194
H 9.37341 0.314721 -12.8453
H 8.69797 1.66805 -12.7806
O 11.0599 -0.622545 -12.6085
H 11.3217 -1.54283 -12.6367
H 11.2574 -0.289865 -13.484
O 15.9831 0.751684 -11.6796
H 15.5534 0.570659 -10.8436
H 15.7938 1.67404 -11.8519
O 18.4382 -0.0288094 -12.9034
H 17.6792 0.36974 -12.4776
H 18.4539 0.359363 -13.7782
O -18.4505 2.98251 -11.9008
H -18.3251 3.9101 -12.101
H -17.8998 2.52349 -12.5351
O -16.6625 2.42115 -13.8204
H -16.2053 1.59001 -13.9484
H -16.0159 2.98869 -13.401
O -11.7497 2.97974 -11.59
H -12.0606 3.83456 -11.888
H -11.4045 3.14265 -10.7122
O -9.40622 3.63958 -12.7563
H -10.2011 3.33677 -12.3173
H -8.81118 3.87048 -12.043
O -6.05637 3.847 -13.3607
H -6.25569 3.56068 -14.2521
H -6.01083 4.80129 -13.4197
O -3.47099 2.91746 -13.0215
H -3.10603 3.20673 -12.1852
H -4.33903 3.31935 -13.0564
O 0.347426 4.29007 -12.8405
H 1.29305 4.17566 -12.935
H -0.0240234 3.86814 -13.6152
O 3.27901 4.39587 -12.611
H 4.15457 4.07226 -12.8229
H 3.08662 4.02204 -11.7511
O 5.83018 3.27239 -13.2106
H 6.72566 3.49492 -12.956
H 5.79843 2.31676 -13.166
O 8.48448 3.48639 -12.2031
H 9.25226 3.80954 -12.6746
H 8.46157 4.00416 -11.3983
O 11.1659 4.07233 -12.9938
H 11.3331 3.8312 -12.0827
H 11.7277 4.83183 -13.148
O 15.997 3.43252 -12.3699
H 16.9291 3.28775 -12.2073
H 15.8643 4.36378 -12.1927
O 18.7986 3.14117 -11.9591
H 19.7036 2.85298 -11.8404
H 18.8339 4.09206 -11.8553
O -17.7581 5.52242 -12.6534
H -16.8457 5.2333 -12.6685
H -17.9135 5.77915 -11.7445
O -15.2031 4.38906 -12.4534
H -14.3956 4.7748 -12.793
H -15.1627 4.5403 -11.5091
O -12.3732 5.59811 -12.3516
H -11.5213 5.98013 -12.5628
H -12.5101 5.8124 -11.4288
O -10.1459 7.07665 -12.6938
H -9.66609 6.946 -11.8759
H -10.0594 8.01239 -12.8759
O -5.58468 6.63549 -13.3898
H -4.66076 6.88522 -13.3743
H -6.01058 7.3231 -13.9017
O -2.94318 7.61417 -12.9792
H -2.00329 7.47785 -13.0986
H -3.00806 8.45445 -12.5254
O 0.18437 6.93024 -12.1514
H 0.105294 6.03755 -12.4877
H 1.11151 7.02285 -11.9322
O 2.82203 6.88896 -11.4983
H 3.34152 7.59006 -11.8918
H 3.07129 6.1034 -11.9851
O 6.18859 6.92375 -12.2002
H 6.3019 7.87129 -12.2748
H 6.13295 6.76208 -11.2584
O 8.89552 6.63899 -12.3349
H 9.19378 7.54817 -12.3607
H 7.94052 6.70022 -12.3134
O 13.0354 6.09479 -13.2407
H 13.9309 6.01118 -13.5682
H 13.1374 6.38494 -12.3343
O 16.077 6.14853 -11.5707
H 17.0298 6.12895 -11.6611
H 15.9275 6.27685 -10.634
O 18.7845 5.83547 -11.6689
H 19.0554 6.7058 -11.9611
H 18.8234 5.88017 -10.7135
O -18.8201 9.40192 -12.3572
H -17.8807 9.52084 -12.4972
H -19.1819 10.2874 -12.3919
O -16.1652 9.76322 -12.5811
H -16.0619 9.37761 -13.4511
H -15.9087 10.6787 -12.6924
O -12.0487 10.838 -12.3919
H -11.8355 10.9081 -11.4614
H -12.0884 11.7441 -12.6979
O -9.54787 9.71018 -13.0207
H -9.47655 9.72441 -13.9751
H -10.34 10.2132 -12.8317
O -6.81792 9.65628 -12.006
H -7.73099 9.56834 -12.2795
H -6.83664 9.51769 -11.059
O -3.78414 9.85277 -11.5158
H -3.3953 10.4798 -12.1256
H -4.7183 9.86295 -11.7243
O -0.360297 9.62601 -12.1917
H -0.0439152 9.8104 -11.3073
H -0.132423 8.70851 -12.3416
O 3.9608 9.16725 -12.5302
H 4.87264 9.40956 -12.6917
H 3.77472 9.50359 -11.6536
O 6.78278 9.56404 -12.5809
H 6.7506 9.45756 -13.5316
H 7.71693 9.59231 -12.374
O 9.52903 9.25803 -12.5139
H 9.5233 9.36552 -13.4651
H 9.94248 10.0561 -12.1847
O 13.0597 9.5166 -12.9846
H 12.7182 9.45114 -13.8764
H 13.0909 10.4569 -12.808
O 15.5745 8.7545 -12.3448
H 15.6307 7.82556 -12.1208
H 14.6477 8.89974 -12.5353
O 18.7619 8.34612 -13.1813
H 19.6332 8.6638 -12.9445
H 18.1882 8.68337 -12.4933
O 19.7938 11.7743 -11.9926
H 18.8607 11.7334 -12.2021
H 19.8294 11.6943 -11.0394
O -15.3661 12.5895 -12.8501
H -15.0321 12.664 -13.744
H -15.1463 13.4266 -12.4412
O -11.564 13.4075 -13.0578
H -10.7446 13.1752 -12.6209
H -11.8211 14.239 -12.6594
O -9.27503 12.6644 -11.7588
H -8.55197 12.3763 -12.316
H -9.07639 12.2958 -10.8981
O -6.96891 12.1615 -13.2557
H -6.75325 11.372 -12.7593
H -6.40614 12.8403 -12.8833
O -2.41734 11.2491 -13.4933
H -1.6164 10.7977 -13.2269
H -2.30518 11.4034 -14.4313
O 0.515167 13.0177 -12.7581
H 1.4689 13.0814 -12.7073
H 0.209819 13.9216 -12.6811
O 3.21778 13.4277 -12.5749
H 3.70218 12.9908 -11.8744
H 3.28479 14.3598 -12.3678
O 7.75336 12.9033 -13.1861
H 7.09546 12.4892 -13.7445
H 7.45817 12.7232 -12.2935
O 10.2205 11.9356 -12.1748
H 11.0588 12.2101 -12.5466
H 9.56317 12.3709 -12.7176
O 13.0291 12.2199 -12.5689
H 13.807 12.7742 -12.6296
H 12.8949 12.0967 -11.6292
O 15.4189 13.62 -12.7187
H 15.3005 13.6173 -13.6685
H 15.6599 14.5225 -12.5094
O 17.0999 11.488 -12.3506
H 17.0574 11.3715 -11.4015
H 16.526 12.2337 -12.5268
O -19.0997 14.3369 -12.176
H -19.4493 13.4486 -12.1061
H -18.6526 14.3529 -13.0222
O -14.7703 15.0725 -11.73
H -13.8337 15.2642 -11.6821
H -15.145 15.8207 -12.1948
O -12.1268 15.7194 -11.6919
H -12.0723 16.6744 -11.6547
H -11.9206 15.4325 -10.8023
O -8.52685 15.2146 -12.0746
H -7.60928 15.0993 -12.3216
H -8.86466 14.3236 -11.9837
O -5.57701 14.5399 -12.5321
H -5.54974 15.4966 -12.542
H -4.66525 14.2751 -12.4103
O -2.88656 13.8993 -12.4336
H -2.66615 12.9701 -12.4991
H -2.80956 14.2279 -13.3293
O 0.184542 15.6978 -12.4303
H 0.942242 15.7978 -13.0066
H -0.146667 16.5881 -12.3126
O 3.67105 15.9972 -11.6564
H 4.57211 16.0974 -11.9635
H 3.2427 16.8186 -11.8973
O 6.44458 15.2357 -12.1575
H 7.14251 14.6617 -12.4732
H 6.85392 16.0986 -12.0938
O 9.66583 15.2722 -12.3397
H 10.6125 15.1335 -12.3695
H 9.54908 16.1868 -12.5966
O 12.3913 15.2212 -12.4438
H 12.2656 15.1023 -13.3852
H 12.5571 16.1582 -12.3402
O 16.2906 16.1235 -11.9772
H 17.1848 16.0985 -12.3177
H 15.9954 17.0187 -12.1435
O 18.8501 15.984 -13.1586
H 19.5402 15.4916 -12.7143
H 18.8015 15.5947 -14.0317
O -18.1502 18.9277 -12.6985
H -19.0223 18.7405 -13.0459
H -18.1239 19.881 -12.6168
O -15.7234 17.6056 -12.2964
H -14.976 18.127 -12.5894
H -16.4877 18.0664 -12.6423
O -12.9567 18.7024 -12.1146
H -12.9691 19.6507 -11.9846
H -12.5267 18.5818 -12.9612
O -9.5972 17.7823 -12.4456
H -9.47059 18.0442 -11.5337
H -9.27313 16.8824 -12.484
O -6.0372 17.3147 -12.6517
H -5.2632 17.8774 -12.6748
H -6.26343 17.1798 -13.5719
O -3.38893 18.9303 -12.0911
H -3.66322 18.7531 -11.1913
H -2.49799 18.5842 -12.143
O -0.613973 18.2893 -11.7729
H 0.321867 18.4683 -11.8647
H -0.837969 18.6228 -10.9041
O 2.18075 18.4453 -11.887
H 2.83171 18.653 -11.2166
H 2.06622 19.2627 -12.3717
O 6.93914 17.9083 -12.1692
H 6.40698 18.0897 -12.9439
H 6.9525 18.7357 -11.6882
O 9.46146 17.7962 -13.2036
H 9.382 17.9931 -14.137
H 8.59537 17.9871 -12.8435
O 12.748 17.8791 -12.2976
H 13.6237 18.2593 -12.227
H 12.35 18.0323 -11.4407
O 15.3816 18.67 -12.5879
H 15.619 19.5669 -12.3527
H 15.533 18.6213 -13.5318
O 19.1491 18.7299 -13.277
H 18.8963 18.9289 -14.1785
H 18.9932 17.7898 -13.1861
O -18.5207 -17.8629 -9.62885
H -19.451 -17.9602 -9.42568
H -18.3705 -16.9176 -9.61937
O -15.9771 -18.5985 -9.25777
H -15.9146 -19.5344 -9.44836
H -16.9163 -18.4141 -9.26586
O -12.3519 -18.8204 -8.65792
H -12.8308 -18.5338 -9.43555
H -12.3114 -19.7733 -8.73875
O -9.98934 -18.5425 -10.1786
H -9.84219 -17.6041 -10.0606
H -10.7806 -18.7269 -9.67239
O -5.73792 -18.9342 -9.80072
H -5.59313 -18.0595 -9.43997
H -5.87219 -18.7884 -10.7372
O -2.93216 -17.4065 -9.18175
H -2.89269 -16.5598 -9.62648
H -2.01718 -17.6722 -9.08995
O -0.199432 -18.1164 -9.3702
H 0.681893 -18.4746 -9.47579
H -0.0772598 -17.1673 -9.39496
O 2.52214 -18.8208 -9.47052
H 2.82919 -18.6106 -8.58859
H 2.49437 -17.9774 -9.9223
O 6.77575 -17.1063 -10.0056
H 6.86977 -17.949 -10.4497
H 6.65892 -17.333 -9.08302
O 9.4885 -18.1102 -9.57416
H 9.37606 -17.9844 -8.63196
H 8.85882 -17.5099 -9.97333
O 12.1939 -18.0963 -9.73783
H 11.2379 -18.0496 -9.7366
H 12.4132 -18.5481 -8.92295
O 16.1875 -19.3578 -9.24012
H 17.0908 -19.0555 -9.1455
H 15.9649 -19.1674 -10.1514
O 18.6835 -18.063 -9.38516
H 18.7411 -18.4146 -10.2736
H 18.5894 -17.1182 -9.5066
O -18.0827 -15.2171 -9.80344
H -18.0083 -15.0818 -10.7481
H -17.2813 -14.8377 -9.44283
O -15.4964 -14.2438 -9.20403
H -14.7025 -14.7 -8.92498
H -15.2429 -13.3215 -9.24074
O -13.0413 -15.5669 -8.86183
H -12.1837 -15.8864 -9.14253
H -13.109 -15.8349 -7.94539
O -10.3395 -15.8961 -9.36415
H -10.0058 -15.0367 -9.62182
H -10.188 -15.9391 -8.41998
O -5.99508 -15.7154 -9.21598
H -5.82598 -14.774 -9.25404
H -6.45111 -15.9106 -10.0346
O -2.44679 -15.1525 -10.7551
H -2.48947 -15.136 -11.7112
H -2.69142 -14.2662 -10.4886
O -0.368881 -15.3739 -8.97496
H -0.99115 -15.2439 -9.69058
H 0.469537 -15.0775 -9.32916
O 2.02075 -16.3399 -10.5026
H 2.8564 -15.9863 -10.1979
H 2.07399 -16.2927 -11.4572
O 4.48654 -15.582 -9.95507
H 5.35392 -15.9755 -9.85969
H 4.65365 -14.6406 -10
O 10.0134 -15.0389 -9.92456
H 10.1179 -14.1086 -10.1243
H 9.68064 -15.4226 -10.7359
O 13.3917 -15.809 -10.5471
H 12.9469 -16.5681 -10.17
H 14.2656 -15.8246 -10.1568
O 16.0162 -15.2625 -9.81934
H 16.2921 -15.3725 -8.90938
H 16.0296 -14.316 -9.9614
O 19.1739 -15.2135 -9.59964
H 18.8784 -14.3589 -9.28571
H -19.871 -15.1676 -9.55729
O -19.2371 -11.1538 -10.0612
H -18.733 -11.572 -10.7592
H -18.6967 -10.4136 -9.78525
O -14.3566 -11.6826 -9.89164
H -13.4823 -11.9789 -9.63868
H -14.4697 -10.8499 -9.43329
O -12.1714 -13.009 -9.01638
H -11.2403 -12.9941 -9.23782
H -12.4145 -13.9336 -9.06359
O -9.54459 -13.2051 -9.6491
H -9.36644 -13.0125 -10.5696
H -9.06556 -12.5318 -9.16597
O -5.63824 -12.9875 -9.58112
H -4.69577 -12.8201 -9.58096
H -6.03467 -12.1273 -9.71978
O -2.95604 -12.5509 -10.1627
H -2.05168 -12.2375 -10.1515
H -3.26713 -12.3548 -11.0464
O -0.245754 -11.7683 -10.8332
H 0.436331 -12.2625 -10.3786
H 0.0360329 -10.8557 -10.7692
O 1.88209 -13.0902 -9.29697
H 2.70225 -13.0038 -9.78289
H 2.1474 -13.095 -8.37728
O 4.47826 -12.768 -10.5652
H 4.90681 -12.7215 -11.4199
H 4.74923 -11.9668 -10.117
O 10.7378 -12.3767 -9.7589
H 11.6471 -12.5391 -10.0099
H 10.6929 -12.636 -8.83858
O 13.2533 -13.0825 -10.7364
H 13.2738 -14.0337 -10.6315
H 14.1208 -12.7913 -10.4557
O 16.1307 -12.5745 -10.0574
H 16.1004 -12.2088 -10.9415
H 17.0468 -12.4885 -9.79345
O 18.6651 -12.5224 -8.9338
H 18.7888 -12.3662 -7.99758
H 19.4244 -12.1122 -9.34794
O -18.1641 -8.9177 -8.68092
H -17.2886 -8.5307 -8.68704
H -18.1494 -9.53274 -7.94761
O -14.8322 -8.98167 -9.14763
H -13.9317 -8.67272 -9.24637
H -15.1714 -9.02229 -10.0418
O -12.2432 -8.26951 -9.75478
H -12.1736 -8.48549 -10.6847
H -12.0231 -7.33915 -9.70737
O -9.28595 -10.0114 -10.0508
H -9.42091 -10.0455 -10.9978
H -9.26197 -9.07676 -9.84537
O -6.44166 -10.5201 -10.5131
H -7.31959 -10.3839 -10.1568
H -5.85589 -10.1338 -9.862
O -4.77147 -9.47312 -8.3387
H -4.5139 -8.56397 -8.49148
H -4.15632 -9.78882 -7.67675
O 0.311504 -9.05731 -10.1121
H 1.16543 -8.98748 -9.68534
H 0.507347 -9.01978 -11.0483
O 2.79639 -8.88749 -8.93438
H 3.58807 -9.40736 -9.07299
H 3.06331 -7.98828 -9.1252
O 5.05511 -10.3279 -9.36927
H 5.68864 -10.3954 -8.6549
H 5.4908 -9.78455 -10.0259
O 10.1398 -9.76793 -9.35675
H 10.9861 -9.32336 -9.40536
H 10.3294 -10.6727 -9.60505
O 12.6677 -8.68846 -9.20029
H 13.5882 -8.75001 -9.45561
H 12.3987 -7.81378 -9.48106
O 15.4333 -8.62591 -9.43283
H 15.4389 -8.44907 -8.49212
H 15.573 -7.77032 -9.83868
O 19.0014 -8.91839 -8.84658
H 19.9481 -8.79543 -8.77704
H 18.9007 -9.72919 -9.34528
O -18.0413 -4.80155 -8.91936
H -18.5264 -3.9772 -8.95694
H -18.1503 -5.18405 -9.79002
O -15.3002 -4.62693 -8.81537
H -15.0958 -5.12299 -8.02268
H -16.2567 -4.60495 -8.84477
O -11.5995 -5.50188 -9.75775
H -11.6117 -4.60672 -9.41897
H -11.786 -5.40752 -10.6919
O -9.16565 -7.0865 -9.78087
H -8.35501 -6.58543 -9.87044
H -9.81406 -6.44432 -9.49209
O -6.79617 -5.65055 -10.5681
H -6.81781 -5.82673 -11.5086
H -5.89396 -5.83853 -10.3094
O -3.72935 -6.14818 -10.4474
H -2.96879 -6.47583 -9.96736
H -3.60692 -5.19917 -10.4722
O -1.31004 -6.75548 -9.21296
H -0.775753 -7.37398 -9.71118
H -0.814845 -5.93669 -9.2373
O 3.47995 -6.32451 -9.81471
H 3.41777 -6.36168 -10.7692
H 3.00079 -5.53171 -9.57368
O 6.31861 -4.86655 -9.84323
H 6.39206 -5.30921 -10.6887
H 5.55294 -5.26501 -9.42945
O 9.16757 -4.88011 -9.6954
H 8.21742 -4.88112 -9.5794
H 9.39044 -3.96086 -9.84222
O 11.648 -6.27026 -9.97986
H 10.8291 -5.8944 -9.65685
H 12.2464 -5.52557 -10.0406
O 15.8637 -6.06759 -10.4808
H 16.7893 -6.08154 -10.2369
H 15.525 -5.26172 -10.0908
O 18.4281 -6.41361 -9.68519
H 18.7294 -5.91854 -8.9234
H 18.4525 -7.32773 -9.40232
O -19.3068 -2.38043 -9.20857
H -19.1549 -2.50241 -10.1457
H -18.9145 -1.53007 -9.01053
O -14.2316 -2.1225 -8.45077
H -14.609 -2.9769 -8.65998
H -14.1051 -2.14179 -7.50216
O -11.761 -2.76283 -9.48567
H -11.8166 -2.47763 -10.3977
H -12.5875 -2.47928 -9.09476
O -2.77726 -3.46777 -10.1896
H -2.01579 -3.61998 -9.62999
H -2.96666 -2.53494 -10.0887
O -0.463678 -3.88906 -8.54104
H 0.431322 -3.92925 -8.87807
H -0.418165 -4.31945 -7.68726
O 2.1376 -3.69638 -9.50357
H 2.41978 -3.5206 -10.4012
H 2.51951 -2.98574 -8.98843
O 13.2928 -4.06657 -10.0176
H 14.0592 -3.83408 -9.49342
H 12.8167 -3.24313 -10.1249
O 15.558 -3.41891 -8.537
H 16.3561 -3.04272 -8.90815
H 15.17 -2.70593 -8.02968
O 17.8814 -2.27141 -9.48014
H 18.8046 -2.40955 -9.26858
H 17.6966 -1.38183 -9.17887
O -18.0559 -0.00680603 -8.34637
H -18.2327 0.106701 -7.41252
H -18.2969 0.831784 -8.73993
O -15.5119 0.184149 -9.21334
H -15.023 -0.605201 -8.98056
H -16.3871 0.0391024 -8.85395
O -3.24206 -0.723372 -10.426
H -3.89507 -0.30615 -9.86409
H -2.43356 -0.240878 -10.2535
O -0.836873 0.581326 -9.86311
H -0.69664 1.49963 -9.63228
H -0.472919 0.0904102 -9.12637
O 0.0639538 -1.13135 -7.94634
H -0.170464 -2.02822 -8.18489
H -0.0647939 -1.09365 -6.99859
O 12.4716 -1.36467 -10.0705
H 13.2839 -0.893539 -9.88518
H 12.0906 -0.901861 -10.8167
O 14.7332 0.103298 -9.2511
H 15.5385 0.224841 -8.74805
H 14.1597 0.812629 -8.96105
O 17.3685 0.155237 -8.2685
H 17.738 0.0209153 -7.39578
H 17.7974 0.947671 -8.59139
O -18.5032 2.70059 -9.16417
H -17.5943 2.81773 -8.88751
H -18.4708 2.74551 -10.1198
O -15.8462 2.8304 -8.61284
H -15.7522 3.13809 -7.71132
H -15.466 1.95197 -8.60747
O -10.6175 3.88536 -9.30296
H -9.71274 4.08272 -9.54529
H -11.0549 4.73673 -9.2947
O -8.08242 4.43278 -10.448
H -7.12743 4.37437 -10.4196
H -8.26859 5.36707 -10.3548
O -2.79084 3.74127 -10.4997
H -1.93285 3.6618 -10.0829
H -3.03101 4.66024 -10.3813
O -0.251272 3.46912 -9.27701
H 0.600513 3.49816 -9.71273
H -0.0601994 3.67707 -8.36242
O 2.39889 3.56177 -10.1343
H 2.88301 2.79319 -9.83242
H 2.81674 4.29882 -9.68891
O 11.5615 3.90226 -10.2157
H 10.7228 4.31853 -10.0168
H 12.1942 4.62038 -10.2054
O 12.6803 1.90996 -8.61609
H 11.9457 1.3506 -8.36361
H 12.2811 2.61417 -9.12699
O 18.7321 2.54431 -8.68782
H 19.6815 2.58435 -8.80314
H 18.4157 3.38942 -9.00709
O -18.0035 5.6375 -9.88448
H -18.4614 4.96502 -9.38017
H -18.5377 6.4243 -9.77588
O -15.0991 5.1632 -9.7583
H -15.9121 5.66547 -9.7043
H -15.2988 4.33556 -9.32084
O -12.5464 6.08492 -9.75378
H -12.5982 7.03038 -9.61361
H -13.4429 5.77414 -9.62805
O -8.6956 7.06886 -10.3138
H -9.0299 7.72284 -9.69995
H -7.7482 7.20546 -10.3176
O -5.95515 6.78199 -10.7128
H -5.04834 6.80222 -10.407
H -5.88638 6.77555 -11.6675
O -3.07376 6.66785 -10.2252
H -2.9667 6.95391 -11.1324
H -2.18129 6.61543 -9.88317
O -0.478737 6.3932 -9.51281
H -0.161152 6.60772 -10.3899
H -0.335051 5.45052 -9.42944
O 3.78423 5.73079 -9.16302
H 4.7076 5.96685 -9.07418
H 3.45457 6.30679 -9.8528
O 6.52633 6.65657 -9.44017
H 7.42627 6.35237 -9.32266
H 6.53956 7.56603 -9.14196
O 9.45933 5.72848 -9.88867
H 9.99 6.36806 -9.41374
H 9.35409 6.10533 -10.7623
O 13.0516 6.23975 -10.1872
H 13.8833 6.17896 -9.71717
H 12.6218 7.0102 -9.81583
O 15.5877 6.59995 -8.91534
H 15.4216 7.521 -9.11607
H 15.5418 6.55036 -7.96052
O 18.173 5.32986 -8.98976
H 18.3378 5.35824 -8.04728
H 17.3266 5.76352 -9.09852
O -19.4386 8.00091 -10.0109
H -19.0892 8.57677 -10.691
H -19.3828 8.51752 -9.20697
O -15.3879 8.25654 -10.2513
H -15.6033 8.7419 -11.0477
H -14.4724 8.4752 -10.0773
O -12.6291 8.87007 -9.25361
H -12.7328 8.83343 -8.30275
H -12.4919 9.79796 -9.44449
O -9.86433 8.95143 -8.74071
H -10.7996 8.80038 -8.87764
H -9.78123 9.10451 -7.79949
O -6.48649 9.64834 -9.08876
H -5.60455 9.3044 -8.94688
H -6.3752 10.599 -9.09498
O -3.78244 8.93318 -8.73962
H -3.58824 9.48896 -9.49436
H -3.52414 8.05398 -9.01623
O 0.943098 9.89742 -9.57423
H 1.88751 9.84995 -9.72278
H 0.847007 9.84853 -8.62312
O 3.70483 9.98951 -9.93294
H 4.48705 9.6286 -9.51567
H 3.88917 10.9247 -10.0201
O 6.34537 9.44646 -8.94607
H 6.40949 9.79276 -8.05602
H 7.07941 9.84619 -9.41258
O 9.6247 9.90374 -8.54224
H 10.4734 9.4999 -8.72337
H 9.72209 10.8093 -8.83669
O 12.1303 8.57007 -8.82688
H 12.9575 8.96165 -9.10744
H 12.196 8.52828 -7.87285
O 14.7897 9.18122 -9.59167
H 15.2241 9.23711 -10.4428
H 15.4063 9.58442 -8.98058
O 17.9057 8.54293 -10.2684
H 18.8173 8.30639 -10.0972
H 17.806 9.41156 -9.8789
O -19.4812 11.6157 -9.28246
H -18.6226 11.6792 -9.70069
H -19.7048 12.5182 -9.05513
O -17.1103 12.499 -10.5017
H -16.7262 12.4059 -11.3735
H -17.1794 13.4445 -10.3697
O -11.7508 11.5486 -9.54661
H -10.8097 11.4125 -9.4364
H -11.8471 12.4966 -9.63785
O -8.95872 11.4776 -9.33145
H -8.96021 10.5482 -9.10263
H -8.97279 11.9322 -8.48917
O -5.85487 12.4046 -9.02567
H -4.89834 12.3877 -8.99387
H -6.08251 13.3273 -8.91147
O -3.01322 12.578 -8.92286
H -2.17524 12.1732 -9.14695
H -2.90489 13.4997 -9.15741
O -0.237782 12.2921 -10.19
H 0.234337 11.5117 -9.8997
H -0.016584 12.3752 -11.1176
O 4.50274 12.5377 -10.2997
H 5.455 12.5224 -10.3956
H 4.32178 13.3524 -9.83094
O 7.13471 12.9322 -10.4962
H 7.96422 12.708 -10.0745
H 7.00923 13.8607 -10.3003
O 9.58692 12.4504 -9.56897
H 9.82091 13.3657 -9.41546
H 9.90992 12.2647 -10.4507
O 12.7145 12.2207 -9.74463
H 12.6267 13.1732 -9.71067
H 12.3605 11.9171 -8.90874
O 15.2854 12.8721 -8.75993
H 15.4664 13.7511 -9.09281
H 14.4496 12.6315 -9.15975
O 17.4515 11.4606 -9.49063
H 18.1468 11.7126 -8.88299
H 16.6818 11.9424 -9.18769
O -19.7268 14.3974 -9.34895
H -19.3046 14.5861 -10.187
H -19.079 14.6508 -8.69145
O -16.941 15.2721 -9.97523
H -17.3612 16.1186 -10.1268
H -16.1394 15.305 -10.4974
O -11.633 14.324 -9.34993
H -10.6979 14.5245 -9.30856
H -11.9903 14.6764 -8.53482
O -9.00066 15.0537 -9.35286
H -8.76365 15.2406 -10.2612
H -8.1627 14.9877 -8.89493
O -6.48883 15.0609 -8.25844
H -6.62741 15.3969 -7.37294
H -6.41607 15.8442 -8.80373
O -2.45588 15.1247 -9.84679
H -1.49928 15.1299 -9.8132
H -2.66323 14.8392 -10.7366
O 0.266104 14.9187 -9.77044
H 0.17197 13.9708 -9.86514
H 0.402896 15.2366 -10.6629
O 4.35042 15.0595 -9.19925
H 5.28819 15.2368 -9.12595
H 4.09062 15.4774 -10.0203
O 7.17387 15.4549 -8.76524
H 7.32966 15.2851 -7.83619
H 7.05968 16.4037 -8.81995
O 9.92149 15.2535 -9.59703
H 9.79034 15.2931 -10.5444
H 9.06847 15.4807 -9.22696
O 13.0357 14.8649 -9.79185
H 12.8291 14.9441 -10.7231
H 13.9355 15.1829 -9.7177
O 15.7054 15.5243 -9.3994
H 16.5189 15.5999 -8.90065
H 15.9584 15.7179 -10.302
O 18.202 15.7875 -8.32851
H 18.2734 15.6098 -7.39068
H 18.9205 15.2924 -8.72205
O -18.6421 18.1005 -10.0729
H -18.5996 18.3787 -10.9878
H -19.5515 18.2549 -9.81713
O -15.9566 18.6578 -9.72744
H -15.6957 18.2742 -10.5647
H -16.9042 18.5282 -9.68898
O -12.0445 18.5082 -9.3609
H -12.4292 18.5762 -10.2348
H -11.1007 18.4714 -9.51635
O -9.18798 18.6829 -9.89075
H -8.32589 18.3225 -9.683
H -9.06979 19.6314 -9.84136
O -6.58497 17.3281 -9.89974
H -5.77927 17.7922 -9.67225
H -6.57388 17.2825 -10.8558
O -4.1845 18.8721 -9.50639
H -3.27081 19.1288 -9.38194
H -4.65126 19.6985 -9.63023
O -1.43009 19.4304 -9.42001
H -0.861471 18.968 -8.80436
H -1.01766 -19.7129 -9.53054
O 4.17886 18.8993 -10.0253
H 3.87656 19.8075 -10.0183
H 3.81443 18.5189 -9.22613
O 6.72456 18.196 -8.76876
H 7.46959 18.6424 -9.17117
H 5.96427 18.5078 -9.25961
O 9.26106 19.169 -9.62851
H 10.1146 18.8009 -9.85699
H 9.37967 -19.8843 -9.70513
O 11.671 17.7951 -9.78816
H 11.4092 16.8967 -9.58679
H 12.5556 17.873 -9.43086
O 14.4379 18.079 -9.19781
H 15.038 17.3337 -9.1716
H 15.0088 18.8472 -9.1849
O 18.6467 18.3966 -9.31192
H 18.6251 18.7482 -8.42188
H 18.4614 17.4636 -9.20597
O -18.3811 -18.8549 -5.85724
H -17.4747 -18.9737 -6.14116
H -18.4257 -19.293 -5.00735
O -15.7606 -18.9662 -6.56725
H -15.6804 -18.1363 -6.09717
H -15.7264 -18.7224 -7.49224
O -12.5579 -18.2208 -5.86457
H -11.6224 -18.3882 -5.75093
H -12.7435 -18.4953 -6.7626
O -9.99328 -18.9834 -5.54609
H -9.13566 -18.7208 -5.88041
H -9.96935 -19.9403 -5.5492
O -7.30528 -18.2087 -5.79503
H -6.35123 -18.227 -5.87033
H -7.47096 -18.1694 -4.85309
O -4.45008 -17.6271 -6.79319
H -3.94995 -17.432 -7.58568
H -4.53033 -16.7843 -6.3465
O 0.118852 -19.3021 -6.1253
H -0.123547 -18.4735 -6.53882
H -0.0629427 -19.965 -6.79144
O 2.78965 -19.2396 -6.37496
H 3.105 -19.2573 -5.47137
H 1.84043 -19.3373 -6.29983
O 6.45188 -17.4689 -7.29167
H 6.14195 -17.8824 -6.48593
H 7.40448 -17.4489 -7.20008
O 9.15625 -17.6688 -6.95694
H 9.8374 -16.9986 -6.9021
H 9.08124 -18.0083 -6.0651
O 12.7502 -19.3375 -7.33603
H 12.6011 19.7197 -7.26425
H 12.5569 -18.9968 -6.46266
O 15.3711 -19.0805 -6.59985
H 15.8054 -19.0965 -7.45271
H 14.4378 -19.1377 -6.80465
O 19.0606 -18.5181 -6.63686
H 19.9984 -18.6017 -6.46423
H 19.0061 -18.3043 -7.56827
O -18.6868 -16.1884 -5.45381
H -18.7408 -16.0525 -4.50785
H -18.6588 -17.1395 -5.55839
O -15.9616 -16.5482 -5.23461
H -15.8329 -16.3855 -4.30016
H -16.8668 -16.2855 -5.40141
O -13.5459 -15.697 -6.09945
H -14.4476 -15.9064 -5.85577
H -13.0539 -16.4952 -5.90748
O -9.9362 -15.6226 -6.71938
H -8.97986 -15.6529 -6.74615
H -10.1465 -14.6889 -6.70502
O -7.22331 -15.625 -6.75381
H -6.81578 -15.6953 -7.61706
H -7.26241 -16.526 -6.43279
O -4.66869 -15.5266 -5.09111
H -4.27767 -15.677 -4.23046
H -5.61137 -15.5066 -4.92625
O -0.206475 -16.61 -6.53831
H 0.701035 -16.4641 -6.27114
H -0.281211 -16.1694 -7.38481
O 2.46091 -16.6275 -5.79841
H 2.6306 -17.5466 -6.00467
H 2.54405 -16.5759 -4.84622
O 4.79473 -15.3454 -6.47816
H 5.30702 -16.0411 -6.89015
H 3.91342 -15.7106 -6.39969
O 11.0056 -15.7335 -7.49296
H 11.9532 -15.5989 -7.48094
H 10.7605 -15.6322 -8.41268
O 13.6089 -14.9325 -6.84493
H 14.5432 -15.0111 -7.03764
H 13.4872 -14.0103 -6.61912
O 16.5259 -14.8224 -7.08387
H 16.4762 -13.8712 -7.17863
H 17.3978 -14.9823 -6.72265
O 18.966 -14.7369 -5.72642
H 19.7504 -15.2806 -5.79951
H 18.6462 -14.8951 -4.8382
O -18.252 -10.793 -6.58223
H -17.3883 -11.1804 -6.72437
H -18.0835 -10.0248 -6.03655
O -15.6364 -11.4566 -7.00507
H -14.9481 -12.1059 -6.86105
H -15.2724 -10.6407 -6.66153
O -13.4578 -13.0635 -6.64363
H -12.9108 -12.9751 -7.42411
H -13.4589 -14.0023 -6.45647
O -10.1504 -12.9733 -6.39953
H -9.97569 -12.7751 -5.47952
H -10.2133 -12.1166 -6.82186
O -6.76034 -12.8447 -5.99449
H -5.80536 -12.8453 -5.9294
H -6.97842 -13.7138 -6.33137
O -3.99759 -12.7114 -5.71109
H -3.59952 -12.6299 -4.84441
H -3.53506 -13.443 -6.11978
O -1.37794 -13.7227 -6.78077
H -1.12655 -14.2958 -7.50508
H -1.2009 -12.8385 -7.10178
O 2.83196 -12.7618 -6.59758
H 3.76885 -12.6302 -6.45215
H 2.52932 -13.2194 -5.81325
O 5.5884 -12.7526 -5.87039
H 5.43449 -13.6441 -6.18304
H 6.0125 -12.8664 -5.01985
O 10.3477 -13.1077 -7.06423
H 11.1966 -12.8527 -6.7029
H 10.4258 -14.0491 -7.21925
O 12.6995 -12.4276 -6.03012
H 12.6118 -12.4698 -5.07787
H 12.913 -11.5122 -6.21112
O 16.2878 -12.1364 -7.02797
H 16.9789 -11.6445 -6.58449
H 16.2179 -11.7275 -7.89059
O 19.2756 -12.0756 -6.24145
H 19.3675 -13.0135 -6.0737
H -19.8304 -11.7707 -6.39612
O -17.5546 -8.37609 -5.5151
H -16.6058 -8.45961 -5.60948
H -17.7479 -7.48669 -5.81149
O -14.7855 -8.89711 -6.32778
H -14.7211 -8.87301 -7.2825
H -13.948 -9.26009 -6.03979
O -12.4695 -10.5857 -5.76649
H -11.7124 -10.3804 -6.31501
H -12.7391 -11.4602 -6.04731
O -10.2615 -10.4339 -7.43208
H -10.4323 -10.2565 -8.35707
H -9.30996 -10.3736 -7.34782
O -7.43611 -10.7908 -7.65822
H -7.17868 -11.5211 -7.09551
H -6.66895 -10.2186 -7.67477
O -2.86887 -10.325 -6.41948
H -2.1134 -10.561 -6.95784
H -3.26474 -11.1632 -6.18094
O -0.817589 -11.2079 -7.94777
H -0.774931 -10.9247 -8.86113
H 0.0428512 -10.991 -7.58884
O 1.52267 -10.2868 -7.04815
H 2.01769 -9.73145 -7.65043
H 2.05607 -11.0763 -6.95634
O 6.81289 -10.6866 -7.34319
H 7.6909 -10.5195 -7.00052
H 6.47767 -11.4037 -6.80498
O 9.61412 -10.4358 -6.75395
H 9.69522 -10.1089 -7.64995
H 9.74104 -11.3814 -6.83105
O 12.3916 -9.54137 -6.56763
H 12.5021 -9.26591 -7.47765
H 11.4542 -9.71499 -6.48164
O 15.2461 -8.02379 -6.73017
H 14.3305 -8.13861 -6.47587
H 15.3863 -7.07734 -6.70151
O 17.9662 -8.38806 -6.28671
H 18.3394 -8.60275 -7.1416
H 17.0195 -8.40344 -6.42744
O -17.9557 -5.63185 -6.33903
H -17.9708 -5.41495 -7.27122
H -18.0403 -4.78814 -5.89493
O -15.1217 -6.00112 -6.4931
H -16.0369 -5.90809 -6.22845
H -14.8984 -6.90502 -6.27103
O -0.313945 -7.97381 -6.94561
H 0.0328324 -8.84454 -7.14006
H -0.765527 -7.71075 -7.74755
O 16.2407 -5.40176 -6.54976
H 16.0599 -4.71357 -7.19002
H 17.1785 -5.57157 -6.63835
O 19.1281 -5.4574 -7.1948
H 19.9926 -5.70718 -6.86866
H 19.0269 -4.54297 -6.93056
O -18.5577 -2.84486 -5.92371
H -18.2804 -2.24443 -6.61569
H -19.514 -2.82653 -5.95904
O -0.24434 -5.33219 -6.16164
H -0.208977 -6.26295 -6.38229
H -0.357016 -5.31497 -5.21126
O 18.7449 -2.91072 -6.08046
H 18.6812 -3.1767 -5.16316
H 18.5025 -1.98472 -6.07922
O -18.8044 0.424094 -5.79734
H -18.706 1.37254 -5.71368
H -18.5015 0.0764717 -4.9585
O 18.519 -0.049058 -5.78
H 19.4625 0.104259 -5.83041
H 18.138 0.82499 -5.69566
O -18.5106 3.18715 -5.62234
H -18.4448 3.21845 -4.66792
H -19.0218 3.96277 -5.85319
O -16.1377 4.28396 -6.36511
H -16.3647 5.21091 -6.4389
H -16.936 3.8663 -6.04199
O 0.441755 4.39078 -6.78348
H 0.104116 4.28039 -5.89464
H 0.730026 5.30285 -6.81914
O 17.8055 2.60946 -6.09172
H 18.1071 2.51237 -6.99496
H 17.6858 3.55239 -5.97873
O -19.5064 5.92287 -5.30221
H -18.7733 6.38296 -5.71108
H -19.3515 6.0124 -4.36188
O -17.1375 6.91056 -6.21024
H -16.7246 7.08443 -5.36437
H -16.8717 7.64568 -6.76267
O 0.840228 7.17361 -7.00666
H 0.422605 7.13361 -7.86702
H 0.950651 8.10912 -6.83676
O 15.9026 7.15869 -6.09585
H 15.8829 7.26207 -5.14445
H 15.9522 8.05301 -6.43345
O 18.0183 5.31458 -6.27455
H 18.815 5.64115 -5.85643
H 17.365 5.99469 -6.11037
O -19.4864 9.38717 -7.6288
H -18.5459 9.22561 -7.55297
H -19.5495 10.2362 -8.06631
O -16.7217 9.01451 -7.97921
H -16.471 9.9377 -7.94688
H -16.3249 8.68612 -8.78599
O -12.5645 9.27441 -6.57856
H -11.6629 9.39839 -6.28185
H -12.8826 10.1596 -6.75603
O -9.70471 9.88253 -6.10382
H -8.80144 9.60218 -5.95633
H -9.65272 10.8362 -6.16699
O -6.95753 9.32262 -6.32663
H -6.13789 9.70698 -6.01567
H -6.87914 9.32958 -7.28059
O -3.93808 10.2979 -6.31575
H -3.23018 10.0735 -5.71183
H -3.74996 9.79043 -7.10525
O 1.16095 10.0613 -6.6595
H 2.11037 10.0968 -6.54294
H 0.888956 10.9784 -6.69408
O 3.8172 10.247 -5.94768
H 4.73603 10.1264 -6.18739
H 3.80525 10.1651 -4.99406
O 6.59924 10.4917 -6.34049
H 7.43338 10.1306 -6.04039
H 6.58228 11.3815 -5.98815
O 9.37763 10.0409 -5.82864
H 10.1132 9.47561 -5.59301
H 9.38783 10.0617 -6.78556
O 11.9603 8.97579 -6.07849
H 12.3594 9.02675 -5.20995
H 12.0388 9.86222 -6.43107
O 16.1535 9.67935 -7.0863
H 17.0163 9.77132 -6.68228
H 15.6336 10.3873 -6.70583
O 18.4298 9.8549 -5.6897
H 19.1361 9.4925 -6.22449
H 18.521 10.8032 -5.78236
O -18.4579 12.5724 -5.59787
H -17.7748 12.0539 -6.02304
H -18.3624 13.4482 -5.97221
O -16.0575 11.7021 -7.96549
H -15.1067 11.6445 -7.87094
H -16.1925 11.9684 -8.87492
O -13.4062 11.7781 -7.27336
H -12.7149 11.9067 -7.92285
H -13.0731 12.2004 -6.48153
O -9.23415 12.5778 -6.80374
H -8.31113 12.5643 -6.55057
H -9.56465 13.4085 -6.46179
O -6.47567 12.4737 -6.27744
H -6.33965 12.3187 -7.21215
H -5.6102 12.7123 -5.94532
O -3.83708 12.95 -5.59345
H -3.71841 12.1038 -6.02488
H -3.35828 13.5694 -6.14419
O 0.382034 12.7574 -6.52767
H 0.0507652 12.9063 -5.64205
H 0.486156 13.6349 -6.89562
O 3.78009 13.0627 -5.75318
H 3.70946 12.1377 -5.98923
H 3.27359 13.1434 -4.94499
O 6.49133 13.0216 -5.12457
H 6.96701 13.8025 -5.40765
H 5.5901 13.1732 -5.40923
O 10.468 12.4492 -4.91398
H 10.3553 12.4918 -3.96439
H 9.96183 11.6822 -5.18161
O 12.1805 11.5366 -7.00826
H 13.0691 11.6675 -6.67735
H 11.6176 11.9528 -6.35554
O 14.7709 11.8822 -6.15026
H 14.9786 12.3786 -5.35865
H 15.0858 12.4319 -6.86781
O 18.9738 12.4003 -6.56442
H 19.8769 12.4211 -6.24783
H 18.5961 13.2281 -6.26717
O -18.2475 14.9653 -7.04702
H -17.3068 14.9764 -7.2237
H -18.4771 15.8847 -6.91184
O -15.4118 14.2641 -7.03473
H -15.5985 13.389 -7.37483
H -14.5106 14.4396 -7.30566
O -12.5203 15.1657 -6.87916
H -11.6684 15.041 -6.46091
H -12.7096 16.0971 -6.76514
O -9.91301 15.1178 -5.81522
H -9.03392 15.4239 -6.03821
H -9.97742 15.2421 -4.86831
O -7.38834 16.3037 -5.80796
H -7.11654 16.2247 -4.89356
H -7.31033 17.2379 -6.00168
O -2.44347 15.0274 -6.96485
H -1.50887 15.2052 -6.8593
H -2.62628 15.2398 -7.88013
O 0.504486 15.582 -7.13523
H 0.473873 15.4041 -8.07526
H 1.43743 15.5812 -6.92111
O 3.26272 15.5413 -6.79758
H 3.43599 14.7062 -6.36302
H 3.5907 15.4207 -7.68872
O 7.70206 15.3371 -6.08453
H 8.65796 15.3361 -6.03468
H 7.45614 16.2536 -5.9593
O 10.4006 15.054 -5.7575
H 10.4137 14.1302 -5.50704
H 11.204 15.177 -6.26312
O 12.7769 15.4094 -7.02917
H 13.679 15.4119 -6.70913
H 12.8489 15.1502 -7.94781
O 15.285 15.737 -5.84811
H 15.0714 15.6446 -4.91963
H 15.5481 16.6524 -5.94389
O 17.9065 14.8663 -5.68077
H 18.1158 15.0156 -4.75873
H 16.9759 15.0782 -5.75299
O -18.7849 17.6388 -6.59053
H -17.9265 17.9802 -6.84105
H -18.7129 17.4748 -5.65024
O -16.0801 18.3377 -6.85423
H -15.7865 18.1911 -7.75343
H -15.8637 19.2533 -6.67747
O -12.6922 17.9229 -6.57005
H -12.5224 18.1426 -7.48612
H -11.8721 18.1239 -6.11914
O -10.2694 18.2632 -5.27985
H -10.1692 18.116 -4.33935
H -9.78671 17.5443 -5.68798
O -7.12076 18.9617 -6.27833
H -6.23496 19.0688 -6.62496
H -7.4042 19.8509 -6.06537
O -4.60442 19.5362 -6.98639
H -4.44242 19.1989 -7.86743
H -4.52181 -19.5143 -7.074
O 0.380682 18.3709 -7.65458
H 1.32215 18.4099 -7.82298
H 0.226559 17.4733 -7.3599
O 3.14221 18.2191 -7.63757
H 3.27233 17.4283 -7.11419
H 3.24089 18.9386 -7.01396
O 7.01506 18.0478 -5.91445
H 7.91799 18.3436 -6.03035
H 6.61531 18.1532 -6.77777
O 9.59514 18.5482 -6.99611
H 10.5079 18.2601 -7.00425
H 9.421 18.8193 -7.89745
O 12.2384 18.0395 -6.66099
H 12.5109 18.1447 -5.74944
H 12.5014 17.1477 -6.8887
O 16.1402 18.3868 -5.64829
H 15.775 19.2046 -5.98612
H 17.0628 18.4131 -5.90199
O 18.6974 18.8065 -6.59984
H 18.8367 19.7516 -6.53893
H 19.5785 18.4328 -6.58843
O -18.3428 19.9077 -3.34356
H -17.4831 -19.7682 -3.07497
H -18.8843 19.9841 -2.55795
O -15.9256 -18.9699 -2.52779
H -15.9204 -18.0161 -2.44687
H -15.0978 -19.1785 -2.96061
O -13.028 -19.171 -3.26924
H -12.1386 -19.2596 -2.92653
H -12.9088 -18.9807 -4.19974
O -10.5588 -19.4294 -1.9978
H -10.217 19.6783 -1.94172
H -9.82942 -18.9143 -2.34266
O -8.20664 -18.2558 -3.07778
H -7.58823 -18.9411 -2.82436
H -7.73302 -17.4377 -2.92768
O -3.43116 -18.3442 -4.06611
H -2.50579 -18.5117 -3.88754
H -3.44877 -18.0358 -4.97211
O -0.853532 -18.8995 -3.55677
H -0.481825 -18.9995 -4.43316
H -0.544885 -18.0429 -3.2615
O 3.50273 -18.9395 -3.74157
H 4.42175 -18.8012 -3.97071
H 3.23361 -18.1211 -3.32442
O 5.90803 -18.1982 -4.70129
H 6.81663 -18.4577 -4.54854
H 5.83647 -17.3301 -4.30453
O 8.53866 -18.6289 -4.46102
H 9.06285 -19.3915 -4.21611
H 8.95458 -17.896 -4.00711
O 13.0776 -18.5441 -4.63941
H 13.9946 -18.3436 -4.45177
H 12.9628 -19.4457 -4.33925
O 15.7393 -17.4282 -4.22698
H 15.9222 -17.8529 -5.0651
H 15.5986 -16.508 -4.44985
O 16.8001 -17.7116 -1.65872
H 17.0015 -18.6446 -1.58674
H 16.2803 -17.6393 -2.45924
O -19.057 -15.6828 -2.80378
H -18.7081 -14.8118 -2.61407
H -19.9941 -15.5419 -2.93841
O -15.4336 -16.2101 -2.51776
H -14.4796 -16.1467 -2.56348
H -15.6536 -15.8917 -1.64228
O -12.7344 -16.6085 -2.42202
H -12.889 -17.5015 -2.7302
H -12.1115 -16.2424 -3.04983
O -10.5891 -16.0758 -4.13162
H -10.0811 -16.8405 -3.86068
H -10.4449 -16.0142 -5.0759
O -6.84976 -15.9229 -3.25276
H -5.99889 -16.0159 -2.82425
H -7.03775 -14.9852 -3.21222
O -4.26461 -16.3712 -2.47322
H -3.97586 -16.4897 -1.56833
H -3.94864 -17.1508 -2.92998
O -0.171205 -16.4123 -2.63363
H -0.375065 -15.6993 -3.23885
H -0.409541 -16.071 -1.77169
O 2.60677 -16.4566 -2.95535
H 2.83839 -15.5672 -3.22279
H 1.66352 -16.4215 -2.79637
O 5.44042 -15.6508 -3.84823
H 5.16144 -15.4708 -4.746
H 6.00612 -14.913 -3.62022
O 9.69245 -16.2037 -3.73945
H 10.6099 -16.216 -4.01231
H 9.39929 -15.3113 -3.92348
O 12.3083 -15.9626 -4.5097
H 12.5496 -16.8868 -4.57042
H 12.74 -15.5521 -5.25894
O 15.6318 -14.1037 -4.49506
H 15.9196 -13.2042 -4.33936
H 15.8976 -14.2882 -5.39592
O 18.2839 -15.5021 -3.19066
H 17.8778 -16.3653 -3.26877
H 17.9943 -15.1768 -2.33827
O -18.3286 -13.0732 -2.29317
H -17.4344 -12.7922 -2.48758
H -18.4616 -12.8329 -1.37621
O -15.7419 -12.1444 -2.36257
H -15.111 -12.6524 -2.8725
H -15.294 -11.3183 -2.18081
O -13.7053 -13.4185 -3.66919
H -13.7049 -13.4418 -4.6261
H -13.0459 -12.762 -3.44478
O -10.0693 -13.421 -3.40177
H -10.1454 -13.5325 -2.45413
H -10.268 -14.2854 -3.7618
O -7.34643 -13.2319 -3.36142
H -7.09426 -13.0173 -4.25953
H -8.30352 -13.2356 -3.37525
O -2.42208 -12.4451 -3.43861
H -2.12102 -11.5378 -3.39066
H -2.80991 -12.615 -2.58015
O -0.495054 -14.2139 -4.14662
H -1.1094 -13.561 -3.81122
H -0.713417 -14.2943 -5.07511
O 2.29891 -13.9465 -4.11669
H 1.34266 -13.9266 -4.07914
H 2.57573 -13.2063 -3.57648
O 6.90498 -13.3733 -3.42097
H 6.89158 -13.4315 -2.46563
H 7.83486 -13.3541 -3.64721
O 9.49656 -13.5245 -4.34943
H 9.6638 -13.4282 -5.28697
H 10.2558 -13.1223 -3.92763
O 11.8682 -12.4189 -3.3187
H 11.7476 -12.6485 -2.39728
H 12.2734 -11.552 -3.29898
O 16.6434 -11.6463 -3.67718
H 17.5976 -11.61 -3.60988
H 16.3638 -10.7327 -3.61896
O 19.4239 -11.8123 -3.39612
H -19.7315 -12.1774 -3.13238
H 19.4594 -11.7917 -4.35244
O -18.9128 -7.99656 -3.1166
H -18.807 -8.70887 -2.486
H -18.3896 -8.26496 -3.87185
O -13.9969 -10.2332 -1.44866
H -13.1537 -10.5274 -1.79335
H -13.8066 -9.95774 -0.551911
O -11.9101 -11.4353 -3.14803
H -11.2036 -12.0714 -3.25917
H -11.9988 -11.0226 -4.00712
O -1.5396 -9.87315 -3.66595
H -0.600621 -9.98609 -3.81361
H -1.90616 -9.74323 -4.54059
O 1.1987 -10.4404 -4.1527
H 2.01109 -10.7312 -3.73838
H 1.45425 -10.2087 -5.04558
O 3.38982 -11.6979 -2.63227
H 3.23079 -11.4043 -1.73518
H 4.34283 -11.6915 -2.72146
O 13.2047 -10.0465 -3.86434
H 14.0717 -9.66437 -3.72762
H 12.9229 -9.70457 -4.71279
O 15.8455 -8.96554 -3.29907
H 16.7317 -8.61199 -3.37571
H 15.6812 -8.99915 -2.35667
O 18.3801 -7.86437 -3.63446
H 19.3142 -7.93996 -3.4394
H 18.3222 -7.98595 -4.58214
O -17.7455 -6.05797 -1.51958
H -18.0992 -6.69851 -2.13669
H -17.9079 -5.2105 -1.93389
O 15.3252 -5.76155 -3.85174
H 15.2375 -6.71455 -3.87022
H 15.6312 -5.53164 -4.72909
O 17.5743 -5.60116 -2.22152
H 16.7129 -5.49564 -2.62549
H 17.973 -6.33203 -2.69386
O -18.4549 -3.65484 -2.65133
H -19.2968 -3.72224 -3.10181
H -18.6639 -3.24414 -1.81234
O 18.871 -3.46375 -3.43597
H 18.663 -2.65539 -2.96743
H 18.4085 -4.14768 -2.95156
O -18.3335 -0.758739 -3.26381
H -18.1643 -1.69983 -3.21964
H -18.0128 -0.417815 -2.42883
O 18.9691 -0.595385 -3.14003
H 19.9243 -0.628817 -3.19169
H 18.6891 -0.359236 -4.02436
O -18.6577 3.43839 -2.96118
H -19.5579 3.11947 -3.02612
H -18.7454 4.3866 -2.86407
O 18.7704 2.69515 -3.38513
H 18.4216 3.54402 -3.11311
H 18.4817 2.59664 -4.29242
O -18.609 6.19579 -2.73789
H -17.6985 6.35897 -2.98418
H -19.0002 7.06707 -2.67399
O -16.1283 7.02403 -3.66347
H -15.2805 6.58056 -3.63395
H -15.9425 7.9165 -3.37154
O 18.1669 5.32109 -2.70572
H 18.4534 5.50842 -1.81183
H 17.8539 6.16218 -3.03864
O -18.8866 9.02382 -2.91527
H -17.9621 9.20635 -3.0833
H -19.2788 9.88494 -2.77079
O -16.0882 9.86765 -2.99559
H -15.2381 9.91024 -3.43354
H -16.3786 10.7784 -2.94622
O -13.6632 9.88367 -4.16335
H -13.3194 9.45536 -4.94729
H -13.2753 10.7586 -4.17824
O -1.96118 10.1602 -4.3228
H -1.07339 9.98673 -4.00979
H -2.28534 10.8564 -3.75151
O 0.867111 10.3437 -3.82915
H 0.95852 10.0896 -4.74749
H 0.559051 11.2494 -3.86022
O 3.74609 10.3258 -3.24059
H 4.17348 11.0627 -2.80399
H 2.80983 10.5003 -3.14473
O 12.9761 9.81347 -3.67908
H 13.8706 9.69702 -3.35894
H 12.7106 10.6696 -3.34329
O 15.5522 9.95488 -2.74728
H 16.1423 9.29837 -3.11742
H 15.9046 10.7919 -3.04962
O 17.3974 8.17367 -3.64214
H 17.8604 8.70832 -4.28715
H 17.8714 8.32093 -2.8237
O -19.474 11.6257 -2.30414
H 19.7505 11.9108 -2.78734
H -18.7534 12.1216 -2.69269
O -16.6843 12.5655 -2.79306
H -16.4777 13.2064 -3.47334
H -16.0513 12.7418 -2.09703
O -12.6503 12.4467 -4.61033
H -11.8033 12.5752 -4.18337
H -13.1972 13.1584 -4.27779
O -10.1542 12.7205 -3.29903
H -10.1261 12.4652 -2.37693
H -9.25133 12.9582 -3.50988
O -7.43712 13.3971 -3.59208
H -7.03335 12.9044 -4.30652
H -7.15739 12.9414 -2.79816
O -2.78039 12.4727 -3.06817
H -1.87897 12.7738 -3.18227
H -3.21386 12.6953 -3.89206
O -0.166872 13.268 -3.85152
H 0.745036 13.3539 -3.57354
H -0.508538 14.162 -3.83338
O 2.54223 13.321 -3.36048
H 3.34087 12.9806 -2.95737
H 2.47702 14.221 -3.04107
O 5.14852 12.6637 -2.58416
H 5.70709 12.6495 -3.36135
H 5.1792 13.5718 -2.28313
O 9.9606 12.3038 -2.05956
H 9.93342 12.798 -1.24029
H 9.13983 11.8114 -2.07011
O 12.6927 12.4547 -2.3042
H 11.7894 12.1621 -2.18275
H 12.6338 13.4096 -2.33301
O 15.2182 12.849 -3.56619
H 15.2035 13.7892 -3.38749
H 14.412 12.5169 -3.17124
O 17.7979 12.2739 -3.00974
H 17.7969 12.1351 -2.06267
H 16.8964 12.5199 -3.2172
O -19.0806 14.9659 -2.58904
H -18.7964 15.7218 -3.10285
H -18.8386 15.1829 -1.68873
O -14.9548 14.5393 -4.38106
H -15.0873 14.3621 -5.31235
H -15.286 15.4286 -4.25647
O -12.7681 15.7895 -3.09696
H -13.102 16.6836 -3.02455
H -13.444 15.3198 -3.58569
O -9.98506 15.9388 -3.22422
H -9.67873 15.4284 -2.47461
H -10.9398 15.9002 -3.16683
O -6.65575 15.9767 -3.10376
H -6.85793 15.0589 -3.28501
H -5.69945 16.0177 -3.11034
O -3.94971 16.4513 -2.83982
H -3.81313 16.6625 -1.91624
H -3.98367 17.3017 -3.27794
O -1.29368 15.7733 -3.42728
H -2.23962 15.9182 -3.40678
H -0.915262 16.6512 -3.38022
O 2.36778 15.8263 -2.31491
H 2.31132 15.8808 -1.36093
H 2.49262 16.7315 -2.60005
O 5.16366 15.3154 -1.91849
H 5.42507 15.9547 -2.58116
H 4.23479 15.4913 -1.76854
O 10.3711 16.6501 -3.57057
H 10.3114 16.0545 -4.31758
H 9.77079 16.2824 -2.92195
O 12.3181 15.2022 -2.22921
H 12.286 15.6392 -1.37817
H 11.7257 15.711 -2.78275
O 14.8955 15.5421 -3.12511
H 15.294 16.3846 -2.9069
H 14.0078 15.5976 -2.77115
O 18.2561 14.9334 -2.94414
H 18.0952 13.9898 -2.95009
H 19.2078 15.0141 -2.88066
O -18.3712 17.2108 -3.96721
H -17.421 17.1391 -4.05851
H -18.5176 18.1131 -3.6835
O -15.6832 17.2179 -4.3106
H -15.0651 17.7307 -3.78984
H -15.6048 17.5742 -5.19556
O -13.7135 18.2979 -2.63508
H -13.4852 18.2566 -1.70644
H -13.4175 19.1636 -2.91668
O -8.99649 18.2655 -2.23095
H -9.15262 17.3861 -2.57544
H -8.14039 18.5119 -2.5811
O -6.48606 19.5688 -2.65441
H -5.8408 19.2923 -3.30516
H -6.06071 19.4092 -1.81188
O -4.30355 19.0187 -4.3165
H -4.33826 18.9844 -5.27246
H -3.9439 19.8838 -4.12029
O -0.145026 18.453 -2.81329
H -0.480805 19.3321 -2.9882
H 0.791438 18.5117 -3.00255
O 3.05459 18.5296 -2.86924
H 3.8968 18.1463 -3.1142
H 3.12159 19.4465 -3.13576
O 5.5547 17.5902 -3.54318
H 6.03404 17.8093 -4.34222
H 6.03802 18.0316 -2.84473
O 10.009 19.1392 -4.36184
H 9.98616 18.2405 -4.0332
H 9.90394 19.0511 -5.30917
O 12.6178 18.806 -3.99922
H 11.669 18.9288 -4.0313
H 12.8376 18.8762 -3.07024
O 15.8617 18.102 -2.84877
H 15.9331 18.2797 -3.78662
H 15.097 18.604 -2.56691
O 17.4831 19.6534 -1.29184
H 17.3995 19.1677 -0.471264
H 17.0028 19.128 -1.93171
O -19.7843 -19.9714 -0.970406
H 19.3053 19.785 -1.13794
H -19.8144 -19.0288 -0.806579
O -14.8809 -19.3547 0.0965277
H -13.9473 -19.4899 -0.065375
H -15.2704 -19.3003 -0.776155
O -11.8385 -18.8664 0.802503
H -11.2664 -19.0456 0.0563033
H -12.2062 -18.0015 0.620757
O -8.61987 -19.1453 0.559398
H -8.57015 19.9015 0.487975
H -7.71296 -18.8665 0.685952
O -6.01932 -18.2391 0.686471
H -5.15597 -18.1607 1.09231
H -6.23722 -17.3484 0.411825
O -3.46596 -18.4396 1.69135
H -2.6088 -18.087 1.45215
H -3.43577 -18.5176 2.64489
O -0.778232 -17.5232 1.37048
H -0.693906 -17.5258 2.32396
H 0.0674495 -17.8408 1.05392
O 1.89335 -18.1017 1.03555
H 2.07995 -18.2035 1.96885
H 2.08909 -18.9587 0.656777
O 6.70648 -18.9311 0.0431027
H 6.61897 -19.7962 -0.35709
H 7.3257 -19.0605 0.761469
O 10.1427 -19.0622 -0.12101
H 11.0394 -18.7471 -0.23479
H 9.60318 -18.4247 -0.588627
O 12.5674 -18.0815 -0.607391
H 13.0737 -17.9704 0.197322
H 12.5631 -17.2131 -1.00998
O 14.3059 -18.2334 1.61294
H 14.4879 -19.1473 1.394
H 15.1223 -17.7729 1.41898
O 16.7672 -16.9504 1.03079
H 16.6692 -17.2571 0.129359
H 17.2322 -16.1176 0.951731
O 19.8808 -17.3129 -0.711952
H -19.6247 -16.7599 -1.31685
H 18.9635 -17.1332 -0.917869
O -15.4868 -15.3474 0.116224
H -15.9513 -15.4627 0.945198
H -15.2612 -14.4174 0.094835
O -12.9813 -16.4118 0.311107
H -12.772 -16.4289 -0.622773
H -13.9114 -16.188 0.344533
O -9.37787 -16.4739 0.196271
H -9.48907 -16.3161 1.1338
H -9.27653 -17.4229 0.123016
O -6.67871 -15.6103 0.0735724
H -6.65216 -14.6987 -0.21727
H -7.61122 -15.8229 0.111864
O -3.87688 -15.6886 0.318523
H -4.83399 -15.7005 0.323037
H -3.63383 -15.5842 1.23845
O -0.98274 -15.3075 -0.157449
H -0.767611 -16.0214 0.442889
H -1.92763 -15.3826 -0.29079
O 3.33794 -16.1702 -0.21498
H 2.83431 -16.8463 0.238323
H 3.16651 -16.3255 -1.14381
O 5.99622 -16.3226 0.323937
H 5.06321 -16.3748 0.116604
H 6.34934 -17.1711 0.0564483
O 8.8716 -16.9843 -1.27437
H 9.19152 -16.6857 -2.12566
H 8.81886 -16.1885 -0.745164
O 12.6752 -15.5869 -1.79795
H 12.4999 -15.6476 -2.73699
H 13.5603 -15.2266 -1.74185
O 15.1314 -14.4452 -1.83779
H 15.0924 -13.5707 -1.45051
H 15.2925 -14.2886 -2.76826
O 17.5037 -14.7537 -0.644605
H 16.619 -14.6859 -1.00372
H 17.8027 -13.8474 -0.570494
O -18.8739 -12.0202 0.297937
H -19.8181 -12.1682 0.245363
H -18.6522 -12.2065 1.2103
O -14.8343 -12.6835 0.222607
H -15.12 -12.4401 -0.657934
H -13.8922 -12.5141 0.224598
O -12.1182 -12.4759 0.721928
H -11.582 -12.9977 0.124795
H -11.5851 -11.7036 0.910531
O -10.2962 -13.9924 -0.78729
H -10.2249 -14.9384 -0.659574
H -9.67938 -13.6181 -0.158326
O -6.25279 -12.9292 -0.726257
H -6.69802 -12.8741 -1.57181
H -5.3209 -12.9223 -0.944829
O -3.50833 -13.323 -0.994997
H -2.84585 -12.973 -0.399288
H -3.70274 -14.1952 -0.651984
O -1.58894 -12.7952 0.891446
H -1.15458 -13.6032 0.61801
H -0.948515 -12.1064 0.713551
O 3.83701 -13.5179 0.471403
H 3.54506 -14.3923 0.213728
H 4.72904 -13.4525 0.130444
O 6.39973 -13.7717 -0.643837
H 6.23616 -14.7064 -0.518353
H 7.28084 -13.6334 -0.296312
O 9.01839 -14.5037 0.17548
H 9.13278 -14.4153 1.1217
H 9.80648 -14.1104 -0.199306
O 11.3827 -13.359 -0.866506
H 11.818 -14.1689 -1.1326
H 11.6889 -13.2044 0.0271458
O 15.5779 -12.2134 -0.371773
H 15.3036 -11.307 -0.511084
H 16.5011 -12.2262 -0.623996
O 18.3863 -12.1076 -0.723876
H 18.3001 -11.1981 -0.437982
H 18.6773 -12.0465 -1.63371
O -18.9667 -9.53933 -0.79333
H -18.7379 -10.3401 -0.32141
H -18.774 -8.8336 -0.176054
O -13.3428 -9.10063 0.933605
H -12.4231 -9.34917 1.02594
H -13.3189 -8.25257 0.490379
O -10.7285 -10.1812 1.37556
H -9.79317 -10.3812 1.33983
H -10.9485 -10.2275 2.306
O 0.131807 -10.6854 0.515621
H 0.0990873 -10.3908 1.42576
H -0.130205 -9.91894 0.00566036
O 2.84888 -10.989 0.134545
H 3.08696 -11.9003 0.305065
H 1.89377 -10.975 0.196196
O 15.5659 -9.48133 -0.506056
H 16.515 -9.43379 -0.391005
H 15.2138 -9.43566 0.382867
O 18.3413 -9.40099 -0.242076
H 19.2467 -9.48035 -0.542413
H 18.2398 -8.47353 -0.028164
O -18.8601 -7.16958 0.661905
H -18.375 -6.69265 -0.0115187
H -19.7794 -6.97812 0.476454
O 18.3928 -6.74196 0.232915
H 18.0383 -6.22936 -0.49363
H 18.1215 -6.26553 1.01756
O -19.3903 -2.36563 -0.476233
H -19.1564 -1.43756 -0.491534
H 19.6581 -2.37505 -0.579097
O 17.886 -2.22599 -0.867426
H 17.0733 -2.4796 -0.429938
H 17.8421 -1.27129 -0.920749
O -17.7754 0.301836 -0.719958
H -17.5354 1.22837 -0.707578
H -17.8012 0.0482802 0.202688
O 18.534 0.623488 -0.631446
H 18.9012 1.4818 -0.419985
H 18.6546 0.537247 -1.5771
O -17.5388 3.17471 -0.559309
H -17.8602 3.23955 -1.45861
H -17.4537 4.08278 -0.268796
O 19.8207 3.0227 0.329458
H -19.2553 2.99021 0.0816297
H 19.5342 3.89933 0.0732151
O -18.0292 5.87909 0.404631
H -18.0945 5.95688 1.35643
H -18.0202 6.78307 0.0900212
O 19.246 5.7572 -0.136323
H 19.0258 5.82533 0.792696
H -19.7998 5.82898 -0.162638
O -18.4614 8.57249 -0.179386
H -17.762 9.22418 -0.130764
H -18.8953 8.74799 -1.01435
O -16.1151 10.2942 -0.125594
H -15.7602 9.94181 -0.941753
H -15.5413 9.94472 0.556241
O -2.90038 9.56898 -0.204399
H -2.02645 9.85084 -0.47466
H -2.87703 9.59867 0.752057
O -0.250695 10.5243 -0.720249
H 0.24478 9.99182 -1.34246
H 0.0157125 10.1989 0.139608
O 16.3664 9.74604 -0.102093
H 16.9114 10.5329 -0.109418
H 15.9291 9.74904 -0.953568
O 18.5378 8.3131 -1.00032
H 17.7961 8.67366 -0.514408
H 18.7379 7.48911 -0.556211
O -19.3608 12.6576 0.305536
H -19.298 12.2998 -0.58007
H -19.2007 13.5951 0.197547
O -14.879 12.6786 -0.588798
H -14.0065 12.6095 -0.201259
H -15.3355 11.8905 -0.294444
O -12.2975 12.743 0.632841
H -12.3135 13.6813 0.444248
H -11.4894 12.4302 0.226154
O -9.76566 12.4151 -0.582604
H -8.87342 12.0696 -0.554899
H -9.65801 13.3637 -0.512224
O -6.84651 12.6624 -0.91966
H -5.983 12.2619 -0.818797
H -6.72573 13.5682 -0.634622
O -4.14804 11.9279 -0.679969
H -3.82254 11.036 -0.558385
H -3.70595 12.2391 -1.46986
O 0.389679 13.0939 -0.115414
H 0.0980308 12.2299 -0.406241
H 0.359621 13.0483 0.840225
O 3.14503 13.0699 -0.000779603
H 2.20373 13.0032 -0.161272
H 3.25307 12.7969 0.910267
O 6.60748 12.8165 0.27408
H 6.73277 13.761 0.182062
H 5.98197 12.5892 -0.413902
O 10.1666 13.7601 0.33086
H 11.1184 13.7371 0.430202
H 9.83145 13.3763 1.14117
O 12.8483 13.1749 0.47058
H 13.7632 13.4231 0.603369
H 12.844 12.714 -0.368341
O 15.7021 13.287 0.887442
H 15.5817 12.9662 1.78122
H 15.5197 14.225 0.942554
O 17.9046 12.0492 -0.300363
H 18.7477 12.25 0.105891
H 17.2776 12.6073 0.159717
O -18.7981 15.453 0.112788
H -17.8877 15.1861 0.2395
H -18.7975 16.3955 0.280233
O -16.1558 14.8962 0.539047
H -15.6622 14.2195 0.0757603
H -16.2109 14.5785 1.4403
O -12.2362 15.303 -0.376521
H -12.4903 15.3237 -1.29915
H -12.5825 16.1183 -0.0138476
O -9.49076 15.1289 -0.5183
H -10.4212 15.2881 -0.35993
H -9.04392 15.5935 0.189302
O -6.2477 15.4372 -0.340643
H -5.32209 15.6769 -0.295465
H -6.53361 15.7451 -1.20071
O -3.56081 16.4443 0.00736784
H -2.75929 15.9532 -0.173288
H -3.25527 17.3 0.308351
O -1.21014 15.2097 -0.673674
H -0.678182 14.4386 -0.477226
H -1.17086 15.292 -1.62653
O 2.91823 15.7091 0.322204
H 3.23396 15.9023 1.20494
H 3.04073 14.7648 0.224798
O 6.88051 15.5903 0.248139
H 7.68323 15.7037 -0.260794
H 6.17653 15.649 -0.397774
O 9.08312 15.9579 -1.19721
H 9.57211 15.2982 -0.705482
H 9.27021 16.7811 -0.745921
O 11.9682 16.7921 0.0874497
H 11.9897 16.4003 0.960556
H 11.2164 17.3842 0.108498
O 14.7101 15.7521 1.28312
H 14.286 16.5564 0.983939
H 15.14 15.9978 2.10227
O 18.3 15.6914 -0.0827437
H 18.0233 15.514 -0.981736
H 19.256 15.6559 -0.114455
O -18.6649 18.1506 0.622085
H -18.8937 18.3756 1.52387
H -19.0205 18.8683 0.0979968
O -15.9324 17.6301 1.00272
H -16.794 17.9443 0.728629
H -15.958 16.6872 0.840269
O -13.1944 17.94 0.0605061
H -12.6992 18.1561 0.850666
H -14.1114 17.9942 0.329617
O -8.05021 18.1814 0.365421
H -8.36456 18.091 -0.534163
H -7.11325 18.3556 0.275874
O -5.50802 19.2035 -0.0241105
H -4.75089 18.927 0.492134
H -5.6529 -19.8855 0.231414
O -2.9215 18.9462 1.06996
H -2.63663 18.7027 1.95077
H -3.0608 19.8921 1.11562
O 0.296657 17.5827 -0.173105
H -0.0492857 16.6911 -0.212712
H 0.00871657 17.9884 -0.990875
O 2.35008 19.5126 -0.251035
H 2.80245 19.2073 -1.03742
H 1.72581 18.8161 -0.0476448
O 6.66605 18.5171 -0.898342
H 6.18945 18.3179 -0.0924821
H 7.58737 18.3969 -0.668223
O 9.44187 18.2588 0.186121
H 9.17645 18.2122 1.10461
H 9.72244 19.1656 0.0631062
O 13.7722 19.4714 -1.52358
H 13.8972 19.1125 -0.645053
H 13.3952 -19.6611 -1.37702
O 14.5806 18.9729 1.17734
H 15.4589 18.6517 0.973407
H 14.482 18.8217 2.11735
O 17.1362 18.0425 0.854787
H 17.4897 17.2007 0.567314
H 17.4692 18.151 1.74561
O -18.1458 -18.5799 3.44447
H -17.2201 -18.561 3.20158
H -18.4462 -17.6803 3.31519
O -15.243 -18.9848 2.96191
H -14.3254 -18.9685 3.23385
H -15.2095 -19.0724 2.00931
O -12.5798 -19.2437 3.36637
H -12.1607 -19.011 2.53781
H -11.884 -19.1618 4.01855
O -9.15104 -19.0989 3.25119
H -8.21327 -19.0611 3.4393
H -9.20699 -19.0412 2.29737
O -6.49321 -19.2091 3.67496
H -6.5502 -18.9776 4.60201
H -6.23432 -18.3966 3.24022
O -2.82285 -18.7622 4.39773
H -1.95691 -18.3544 4.40608
H -3.17816 -18.5889 5.26948
O -0.366069 -17.5985 4.04004
H 0.563076 -17.8284 4.05001
H -0.378295 -16.6449 4.12212
O 2.34764 -17.9938 3.792
H 3.14361 -18.512 3.67305
H 2.66076 -17.1341 4.07313
O 4.87536 -19.1082 3.49841
H 5.38453 -18.3323 3.26422
H 5.0476 -19.2358 4.43132
O 8.55266 -18.9448 2.14737
H 8.51108 -18.0882 2.57241
H 9.18721 -18.8311 1.4398
O 10.6665 -19.1551 3.95743
H 9.93398 -18.9972 3.36189
H 10.8936 19.9252 3.82008
O 13.3929 -18.7772 4.23874
H 13.7302 -18.4018 3.42538
H 12.4422 -18.776 4.12748
O 18.2919 -18.5832 2.86345
H 17.7677 -18.0111 2.30294
H 19.1981 -18.3881 2.625
O -19.1648 -16.0327 3.36992
H -18.4058 -15.6707 2.91267
H -18.9307 -15.9871 4.29694
O -16.6008 -15.162 2.7421
H -16.589 -14.2119 2.85773
H -16.0529 -15.4969 3.45195
O -12.2797 -14.811 2.41946
H -12.3117 -13.9214 2.06752
H -12.5592 -15.367 1.69217
O -9.66137 -15.7036 2.74174
H -10.5794 -15.4464 2.65585
H -9.56115 -15.9302 3.6663
O -5.86784 -16.5011 3.12624
H -4.98821 -16.1281 3.18417
H -6.42411 -15.7654 2.87025
O -3.40559 -15.1663 2.99614
H -2.51843 -15.1908 3.35472
H -3.67639 -14.2528 3.08801
O -0.890407 -14.8932 4.1531
H -0.990569 -14.9834 5.10077
H -0.290479 -14.1553 4.04431
O 3.55647 -15.6583 4.5354
H 4.37523 -15.9724 4.15173
H 3.38854 -14.8257 4.09406
O 5.91402 -16.2123 3.07998
H 5.92192 -16.2311 2.12299
H 6.01862 -15.2872 3.30265
O 8.53296 -16.6737 3.69416
H 7.60526 -16.5028 3.53168
H 8.66518 -16.4293 4.61013
O 12.3638 -15.6941 3.43257
H 13.3157 -15.7236 3.33704
H 12.0897 -14.9619 2.88028
O 15.115 -15.4275 3.1943
H 15.7711 -15.879 2.66346
H 15.4725 -15.4428 4.08208
O 18.2778 -15.2055 3.04145
H 19.2067 -15.4311 2.9915
H 18.2679 -14.2898 3.32008
O -18.095 -12.3196 3.14275
H -17.1593 -12.1515 3.03102
H -18.1784 -12.6203 4.04764
O -15.449 -12.0504 2.77455
H -15.2264 -12.1784 1.85243
H -15.1489 -11.1633 2.97297
O -13.2389 -12.5734 4.32663
H -13.983 -12.5666 3.72463
H -13.6337 -12.5191 5.19691
O -8.78193 -13.1702 1.3263
H -9.08786 -13.8404 1.93738
H -7.87062 -13.0163 1.57542
O -5.84109 -12.9554 2.03431
H -5.0601 -12.5098 2.36254
H -5.84794 -12.7676 1.09575
O -3.12299 -12.3669 3.28023
H -2.5143 -12.4803 2.55024
H -3.04267 -11.4433 3.51846
O 0.790523 -12.7612 4.13536
H 1.70193 -12.8663 3.86235
H 0.829827 -12.7163 5.0907
O 3.45022 -13.2343 3.21354
H 3.51488 -13.3426 2.26469
H 4.35197 -13.0908 3.5007
O 6.14077 -13.5634 3.93627
H 5.98572 -13.402 4.86695
H 6.99669 -13.171 3.76401
O 9.30826 -14.181 2.96818
H 9.53359 -13.7373 3.78583
H 9.14842 -15.0894 3.22427
O 11.7537 -13.3567 1.97119
H 12.1005 -12.652 2.51827
H 10.8691 -13.5065 2.30496
O 15.7876 -12.7053 2.39706
H 15.7091 -12.6361 1.4456
H 15.3931 -13.5511 2.60953
O 17.7922 -12.5669 4.33423
H 18.1468 -11.6814 4.25432
H 17.0904 -12.604 3.68438
O -18.7218 -9.73673 3.92899
H -18.4958 -10.609 3.60591
H -18.4442 -9.74077 4.84505
O -14.3806 -9.58705 3.51464
H -13.474 -9.80512 3.73087
H -14.337 -9.23313 2.62634
O -11.7425 -10.3322 3.89236
H -12.0866 -11.2053 4.08051
H -11.4036 -10.0217 4.732
O -2.67797 -9.78714 4.16928
H -2.83125 -9.83262 5.11304
H -3.14965 -9.00351 3.88703
O 0.0553703 -10.2627 3.30432
H 0.244041 -11.1441 3.62642
H -0.792231 -10.0424 3.69064
O 2.96442 -9.9121 3.23841
H 3.16397 -10.1754 2.34004
H 2.00961 -9.84938 3.26364
O 12.6553 -11.2671 3.52238
H 13.2467 -10.749 2.97642
H 12.7661 -10.9088 4.40307
O 14.8874 -10.005 2.26152
H 15.0452 -9.53375 3.07959
H 15.2116 -10.8901 2.42809
O 18.6032 -9.98538 4.10138
H 19.545 -9.84028 4.01083
H 18.2063 -9.38765 3.46781
O -19.139 -5.82656 3.01072
H -18.899 -6.39379 2.278
H -18.9551 -4.94057 2.69857
O 18.125 -5.51625 2.67106
H 19.0642 -5.65736 2.79098
H 18.0394 -4.57235 2.53708
O -19.0825 -3.24046 2.15505
H -19.0656 -3.07831 1.21183
H -19.989 -3.07081 2.41149
O 18.2197 -2.77807 2.65948
H 18.1601 -2.65183 3.60645
H 18.3441 -1.89677 2.30725
O -18.3529 -0.487499 1.84106
H -18.329 -1.36756 2.21677
H -18.1908 0.0947962 2.58329
O 18.9705 -0.330093 1.86902
H 19.9273 -0.321075 1.84092
H 18.7022 0.0266904 1.02229
O -18.1688 1.31652 3.81519
H -17.8979 1.35912 4.73227
H -18.7631 2.05891 3.70573
O 19.8981 3.30978 3.06719
H 19.6273 4.22782 3.0775
H 19.8451 3.05425 2.14625
O -18.1896 6.75974 3.13443
H -17.2491 6.91519 3.04854
H -18.322 6.59945 4.06877
O -15.4172 6.99136 3.04685
H -14.9804 6.40156 2.43238
H -15.1463 7.86744 2.77237
O 19.1207 5.98963 2.57423
H -19.9987 6.32869 2.73519
H 18.5367 6.6651 2.91909
O -19.6018 9.07156 2.33541
H -19.4111 9.02528 1.39855
H -19.0383 8.40499 2.72826
O -14.7409 9.51473 2.14416
H -15.152 10.1871 2.68741
H -13.8079 9.5784 2.3486
O -12.1835 9.69338 2.98706
H -11.4637 9.12104 3.2527
H -11.8003 10.5704 2.97348
O -2.72654 10.1429 2.48064
H -3.05059 9.76439 3.29792
H -3.22614 10.9527 2.37654
O 0.038033 10.2038 2.10644
H 0.523356 9.83074 2.84234
H -0.881874 10.1132 2.35504
O 1.59295 9.38179 4.19925
H 1.87371 9.88654 4.96256
H 1.93475 8.50133 4.3548
O 12.9101 9.79384 3.34244
H 13.7493 9.52134 2.97136
H 12.9727 9.56648 4.27013
O 15.568 9.52705 2.54779
H 15.5728 10.4304 2.86421
H 15.763 9.59901 1.61343
O 17.906 8.32694 3.5265
H 17.1005 8.71624 3.18598
H 18.6084 8.8333 3.11855
O -18.6607 11.6296 2.83252
H -19.0665 10.7644 2.77774
H -18.8006 12.0155 1.96775
O -16.0614 11.4443 3.66985
H -15.9876 11.4053 4.6234
H -17.0034 11.4227 3.50099
O -11.2912 12.1864 3.1328
H -11.7201 12.5326 2.35022
H -10.3771 12.4566 3.04485
O -8.68392 13.1629 3.2429
H -7.75064 13.1118 3.44928
H -8.82367 14.0748 2.98763
O -6.06592 13.3406 3.87967
H -5.5161 12.8456 3.27224
H -6.07949 14.2284 3.52215
O -4.17127 12.378 2.05262
H -3.70768 13.1885 2.2634
H -4.14847 12.3301 1.09689
O 0.609815 12.8499 2.5474
H 1.554 12.9152 2.6905
H 0.435707 11.909 2.52058
O 3.35301 13.1673 2.91219
H 3.26155 13.0074 3.8515
H 3.45064 14.1166 2.83875
O 6.09958 12.7464 3.01379
H 5.1482 12.8347 2.95622
H 6.38129 12.5921 2.11209
O 9.64224 12.7204 2.8369
H 10.5662 12.5542 3.02396
H 9.19607 11.9142 3.0963
O 12.3944 12.4432 3.17146
H 12.573 11.5035 3.13426
H 12.6204 12.7651 2.29882
O 15.5037 12.4018 3.50379
H 16.4375 12.1963 3.54849
H 15.4188 13.2349 3.96747
O 18.117 11.8902 3.34314
H 18.3859 12.0835 4.24123
H 18.2068 12.7237 2.88109
O -19.1952 14.2463 3.78497
H -19.326 13.3008 3.71384
H -18.3033 14.3897 3.4686
O -16.5003 14.076 3.11577
H -16.2291 13.1763 3.29805
H -15.9888 14.6088 3.72456
O -11.706 15.5801 2.82982
H -11.936 16.5005 2.70289
H -10.7634 15.5437 2.66733
O -8.91637 15.8336 2.50258
H -7.96514 15.8107 2.39832
H -9.09617 16.6963 2.87611
O -6.20791 15.706 2.38926
H -6.20861 15.6712 1.43269
H -5.95657 16.606 2.59648
O -3.09429 14.7766 2.867
H -3.21057 15.4215 2.1693
H -3.59175 15.129 3.60494
O -0.811953 14.2662 4.40891
H -1.61603 14.409 3.90959
H -0.208848 13.8652 3.78308
O 3.84582 15.8022 2.87866
H 4.79779 15.8671 2.9547
H 3.52793 16.6805 3.08791
O 6.5616 15.4695 2.9573
H 6.45859 14.5221 3.047
H 6.6909 15.6091 2.01921
O 9.23148 15.3322 3.60109
H 9.29418 14.3953 3.41537
H 8.32088 15.5548 3.4075
O 11.7398 15.8762 2.75357
H 12.2145 15.5389 3.51326
H 10.8204 15.6884 2.94221
O 16.1939 16.2405 3.60992
H 16.9485 15.6995 3.37728
H 16.5355 17.1345 3.62638
O 18.24 14.5853 2.58015
H 19.1387 14.6923 2.89193
H 18.27 14.8586 1.66328
O -18.6841 18.6631 3.47851
H -17.746 18.4766 3.5178
H -18.7357 19.6136 3.37725
O -15.9557 18.442 3.53102
H -15.8808 18.1104 2.6362
H -15.6265 19.3395 3.48274
O -11.9332 18.2517 2.55436
H -12.3023 19.0703 2.88593
H -11.0281 18.2531 2.86582
O -9.46664 18.2312 3.63354
H -9.49818 18.2044 4.58985
H -9.22429 19.1338 3.42658
O -5.43433 18.2233 3.09739
H -4.66941 18.3425 3.66035
H -5.88844 19.0653 3.12805
O -2.17163 18.669 3.72003
H -1.2517 18.5432 3.48739
H -2.24105 19.6005 3.92906
O 0.356004 18.1944 2.66544
H 0.286041 17.9723 1.737
H 1.29769 18.2303 2.8333
O 3.0925 18.3425 3.19042
H 3.92196 18.634 2.81187
H 3.06287 18.758 4.05223
O 5.75425 18.6839 1.97544
H 6.55946 18.3703 2.38717
H 5.61389 19.5521 2.35328
O 8.41386 18.3159 2.80957
H 8.57032 18.1424 3.73782
H 8.40815 19.2707 2.74156
O 11.6927 18.3526 3.85718
H 11.5406 17.5088 3.43168
H 12.6427 18.4668 3.83113
O 14.4187 18.7722 3.89555
H 14.174 19.6772 4.08856
H 14.715 18.4196 4.73463
O 17.846 18.713 3.42976
H 18.0498 18.6118 4.35954
H 17.932 19.6521 3.26602
O -18.039 -18.8809 6.17342
H -17.0903 -18.9731 6.2611
H -18.1929 -18.8715 5.22873
O -15.168 -18.4549 6.35738
H -14.232 -18.2561 6.33474
H -15.4542 -18.1641 7.22324
O -12.64 -17.6817 6.709
H -11.952 -18.2265 6.32681
H -12.6071 -16.8669 6.20774
O -10.817 -19.319 5.47974
H -10.5594 19.8257 5.82359
H -10.1228 -19.0897 4.86185
O -6.56309 -18.069 6.17901
H -6.86432 -18.2835 7.06191
H -6.76076 -17.138 6.07754
O -3.90805 -18.154 6.84396
H -4.81216 -18.2355 6.54038
H -3.78001 -17.2134 6.9667
O -0.228707 -18.229 7.18773
H -0.642948 -17.4121 6.90961
H -0.50676 -18.3417 8.0967
O 2.59262 -17.9829 7.26337
H 2.8707 -17.0671 7.28014
H 1.64247 -17.9432 7.15437
O 5.32064 -19.211 6.23289
H 4.65115 -18.7309 6.72022
H 6.14892 -18.927 6.61958
O 7.97464 -18.659 7.09339
H 8.04662 -18.6791 8.04767
H 8.82413 -18.3338 6.79542
O 10.7363 -18.2995 6.52688
H 11.1816 -17.4646 6.38274
H 10.6651 -18.6872 5.65463
O 14.6848 -17.8543 6.53849
H 14.1236 -18.1428 5.81869
H 15.5225 -18.2889 6.37869
O 17.3822 -18.7824 6.34029
H 17.623 -18.6994 7.26299
H 17.8383 -18.0606 5.90746
O -17.9857 -16.143 5.82251
H -17.993 -17.0844 5.99542
H -17.0709 -15.9425 5.62455
O -15.2781 -16.0291 5.00708
H -14.3743 -15.7192 5.06497
H -15.2461 -16.9259 5.34012
O -12.4274 -15.5728 5.08086
H -12.5139 -15.1485 4.22721
H -11.4834 -15.6145 5.23361
O -9.68437 -15.8042 5.51146
H -9.73703 -16.091 6.42314
H -9.40819 -14.8891 5.56337
O -6.63273 -15.1849 6.74477
H -6.96126 -15.4426 7.60609
H -6.81262 -14.2463 6.69028
O -3.94491 -15.4492 7.35644
H -3.95821 -15.4475 8.31355
H -4.8579 -15.3124 7.1035
O -1.26079 -15.5954 6.75424
H -0.940262 -15.371 7.62779
H -2.20334 -15.4338 6.79559
O 3.5623 -15.4747 7.351
H 4.48481 -15.6425 7.54346
H 3.53366 -15.3513 6.40222
O 6.2519 -16.1673 7.67941
H 6.35922 -16.0342 8.62122
H 7.04986 -16.6214 7.40875
O 9.00285 -15.7039 6.16293
H 8.7037 -14.9086 6.60371
H 9.95801 -15.655 6.20173
O 11.8985 -15.7812 6.17544
H 12.0711 -15.847 5.23623
H 12.1123 -14.8745 6.39572
O 15.8252 -15.416 5.89409
H 16.7472 -15.6732 5.89107
H 15.3568 -16.2053 6.16591
O 18.4524 -16.1605 5.64701
H 18.4329 -15.9728 4.70858
H 18.8639 -15.3895 6.03745
O -18.2908 -12.8037 5.97236
H -18.2276 -11.8991 6.27888
H -19.1862 -13.0671 6.1848
O -14.2489 -11.8489 6.71636
H -13.3142 -11.9048 6.91472
H -14.3825 -10.9411 6.44365
O -11.4934 -12.2176 6.99807
H -11.2126 -12.571 7.84218
H -10.9224 -12.6426 6.35808
O -9.09134 -13.1043 5.76973
H -8.68016 -13.0406 6.63177
H -8.84287 -12.294 5.32488
O -7.37162 -12.3851 7.94895
H -6.74563 -12.7632 8.56652
H -6.93878 -11.5969 7.62081
O -2.35241 -12.7379 5.9849
H -1.40103 -12.7381 6.09034
H -2.48909 -12.7986 5.03945
O 0.27444 -12.5924 6.97544
H -0.16599 -12.4829 7.81821
H 1.18846 -12.3693 7.15153
O 2.92884 -11.8609 7.43403
H 3.63922 -12.5007 7.38644
H 3.24333 -11.1147 6.92363
O 5.58638 -13.0802 6.55103
H 6.15321 -13.6761 7.04067
H 6.03003 -12.2334 6.59898
O 8.40735 -13.3409 7.39083
H 8.82924 -12.8254 6.70344
H 9.00004 -13.2733 8.13942
O 12.4397 -13.1943 6.64637
H 13.2914 -12.8894 6.33349
H 12.4259 -12.9574 7.57371
O 15.287 -12.7028 6.69087
H 15.546 -13.5711 6.3823
H 15.7674 -12.0951 6.12858
O 19.1377 -13.6418 6.55921
H 18.6003 -13.1929 5.90657
H 18.96 -13.1773 7.37705
O -17.8168 -10.1288 6.64391
H -16.934 -9.82777 6.42836
H -17.9976 -9.74666 7.50271
O -15.3135 -9.15776 6.13692
H -15.4337 -8.21851 6.27681
H -15.0449 -9.23156 5.22114
O -10.8362 -9.69976 6.46607
H -11.0023 -10.6179 6.67976
H -11.0568 -9.2234 7.2665
O -8.30559 -10.3786 5.48714
H -7.56925 -10.05 6.00297
H -9.07426 -9.95518 5.8694
O -6.09141 -9.85299 7.233
H -5.13906 -9.89504 7.14649
H -6.23954 -9.25961 7.96934
O -3.26635 -10.1893 6.86494
H -3.10387 -11.1139 6.67805
H -2.95722 -10.068 7.76269
O 4.01596 -9.83703 5.81732
H 3.73313 -9.93721 4.90836
H 3.81695 -8.92557 6.0315
O 6.74096 -10.635 6.62016
H 5.90833 -10.219 6.39685
H 6.81179 -10.5358 7.56957
O 10.0498 -12.6058 5.13033
H 10.1542 -11.7118 4.80456
H 10.8795 -12.8009 5.56601
O 13.1568 -10.1314 5.94282
H 13.0703 -10.0336 6.89107
H 13.8871 -9.55881 5.70814
O 15.3423 -8.73275 4.91859
H 15.1936 -7.84212 5.23622
H 16.0423 -9.07259 5.47606
O 17.4516 -9.50308 6.57575
H 18.0138 -9.60011 5.80716
H 17.8095 -8.74697 7.04098
O -19.4029 -5.66574 5.82282
H -19.1651 -5.86878 4.91815
H 19.6435 -5.74593 5.84399
O -15.6565 -6.38384 6.33462
H -15.7973 -6.33202 5.38926
H -16.0057 -5.5601 6.67479
O 15.5942 -6.40038 6.51435
H 16.3814 -6.01306 6.13164
H 15.6977 -6.27217 7.45726
O 17.8262 -5.36706 5.38779
H 17.8058 -4.41654 5.49891
H 17.8018 -5.49844 4.43996
O -19.0961 -3.12695 6.63646
H -19.1659 -3.99704 6.24363
H -19.2241 -3.27564 7.57333
O -16.3314 -3.65976 7.00912
H -17.2481 -3.44717 6.83375
H -15.8349 -3.01254 6.50831
O 18.3108 -2.64922 5.47011
H 19.1618 -2.74594 5.89747
H 18.1572 -1.70459 5.45224
O -19.824 -0.382441 6.99789
H -19.48 -1.24378 6.76134
H 19.6485 -0.119313 6.2437
O 18.5578 0.15764 4.78147
H 18.7195 0.104789 3.83952
H 18.1808 1.02778 4.91178
O -17.6131 1.2487 6.44893
H -18.374 0.705757 6.655
H -17.6694 1.98282 7.06059
O 17.7749 2.81542 4.67501
H 17.6087 3.67189 5.06884
H 18.504 2.96535 4.07328
O -18.1884 6.6944 5.94456
H -18.428 6.20507 6.73158
H -17.2318 6.72227 5.96119
O -15.4772 6.80691 6.04649
H -15.275 6.74781 5.11275
H -15.4789 7.74583 6.2327
O 15.2264 5.41767 7.79745
H 14.6782 5.3245 8.57657
H 15.1326 6.33661 7.54649
O 17.4501 5.26635 6.09842
H 16.6608 5.1948 6.63516
H 17.6551 6.20133 6.09661
O -19.5405 8.87768 6.94086
H -19.0125 8.21486 6.4957
H 19.5543 8.62478 6.75982
O -15.6754 9.60386 6.50705
H -14.9113 9.99526 6.08381
H -16.2926 10.3288 6.60601
O -13.6223 10.9184 5.1562
H -13.0724 10.5325 4.47434
H -13.1634 11.7192 5.40993
O -8.96573 10.521 6.78226
H -8.11153 10.2171 6.47529
H -9.11966 10.0293 7.58898
O -6.49984 10.1614 5.5613
H -6.71881 10.4487 4.67487
H -6.08593 10.9241 5.96535
O -3.74509 9.39921 4.89327
H -3.29012 9.94791 5.53215
H -4.6583 9.40383 5.18007
O 2.43991 10.6439 6.51482
H 1.53797 10.7036 6.82973
H 2.662 11.5372 6.25222
O 5.29605 9.94901 6.92464
H 5.3984 9.99166 7.87539
H 4.34919 9.95765 6.78456
O 7.80416 8.46675 7.56025
H 7.47518 7.57061 7.63062
H 7.04902 8.97738 7.2683
O 13.1515 9.7436 6.14031
H 13.2829 10.6905 6.09226
H 12.3636 9.63739 6.67335
O 15.3227 8.13217 7.09975
H 14.6244 8.59573 6.63734
H 15.2743 8.4597 7.99787
O 17.9002 8.0391 6.28221
H 17.0032 8.16749 6.59066
H 17.8549 8.19852 5.33947
O -19.5344 11.6241 7.34777
H -19.5867 10.6855 7.16757
H -18.6649 11.8795 7.03946
O -17.0756 12.2787 6.61967
H -16.5282 12.4391 7.38836
H -17.3156 13.1519 6.30954
O -12.3583 13.0983 6.2947
H -11.4361 12.942 6.09159
H -12.5384 13.9684 5.93868
O -9.71532 12.9364 5.81445
H -9.45789 12.0869 6.17255
H -9.45382 12.8982 4.89445
O -5.2101 12.3285 6.66321
H -4.29143 12.0764 6.56987
H -5.38485 12.8841 5.90362
O -2.64805 11.3731 6.66858
H -1.76569 11.5849 6.36397
H -2.64497 11.6096 7.5961
O -0.091383 12.229 6.33024
H 0.17228 12.6348 7.15613
H -0.268603 12.9665 5.74636
O 3.27683 13.1582 5.59643
H 4.19533 12.9598 5.77861
H 3.18403 14.0858 5.81392
O 5.87087 12.4892 5.83917
H 6.0842 12.311 4.92323
H 5.7875 11.6236 6.23904
O 10.9769 12.2056 7.18009
H 10.3935 12.9203 6.92492
H 11.7396 12.3032 6.61
O 13.2974 12.5879 5.77193
H 14.2399 12.6214 5.93522
H 13.221 12.5195 4.82024
O 15.8545 12.8838 6.61534
H 16.7674 12.7409 6.36539
H 15.7963 13.8241 6.7844
O 18.5819 13.0027 5.81566
H 19.2016 12.6076 6.42888
H 18.6961 13.9458 5.93327
O -17.8996 14.9933 6.0953
H -18.5145 14.8266 5.38092
H -18.3892 15.5387 6.71096
O -15.4384 15.868 4.89156
H -15.549 16.7542 4.54693
H -16.2075 15.7276 5.44379
O -12.6883 15.5879 5.36352
H -13.6257 15.6807 5.19347
H -12.2927 15.5164 4.49482
O -8.88111 15.5159 6.35796
H -7.93183 15.5604 6.47252
H -9.04824 14.6128 6.08843
O -6.32847 16.1109 6.9305
H -6.42256 17.0496 6.76843
H -5.56965 15.852 6.40765
O -4.02344 15.7645 5.23924
H -3.16362 15.6271 5.63681
H -4.15819 16.7112 5.27995
O -1.3165 16.4503 6.03873
H -0.921819 15.8573 5.39935
H -0.875044 17.2873 5.89428
O 3.38497 15.8616 6.33221
H 3.32684 15.9983 7.2778
H 3.996 16.5334 6.02966
O 6.89416 15.2006 6.4371
H 6.47497 14.4143 6.08751
H 6.33268 15.9203 6.14882
O 9.6966 14.4905 6.7075
H 9.7321 14.8384 7.59855
H 8.81907 14.7141 6.39737
O 12.1638 15.229 5.65393
H 11.2434 15.019 5.81176
H 12.6199 14.3924 5.74505
O 15.863 15.5643 7.11474
H 16.7513 15.6533 6.76926
H 15.4084 16.3508 6.81336
O 18.4738 15.7505 6.4471
H 18.449 16.7053 6.38395
H 18.6115 15.575 7.37795
O -19.042 18.5577 6.32191
H -18.9185 18.345 5.39684
H -18.699 19.4468 6.41158
O -14.6997 18.9952 7.33092
H -14.8129 19.822 6.86212
H -15.3891 18.9995 7.99502
O -12.7519 17.1136 7.6799
H -13.4536 17.7176 7.43697
H -12.5875 16.6048 6.88593
O -9.52272 18.2854 6.34854
H -8.60231 18.5441 6.3945
H -9.50286 17.3284 6.34042
O -6.80106 18.882 6.38733
H -6.69202 19.5082 7.10299
H -5.976 18.924 5.90386
O -4.04931 18.4642 5.72089
H -3.21817 18.5122 5.24851
H -3.80439 18.5245 6.64426
O -0.0583844 19.0469 6.46329
H -0.254466 19.9787 6.56144
H 0.845832 19.0237 6.1501
O 2.6156 19.4819 5.65104
H 2.54437 -19.5639 5.67794
H 2.99706 19.2458 6.4966
O 5.55318 17.854 6.21747
H 5.15645 18.6918 6.45606
H 6.44435 18.0782 5.9495
O 8.17182 18.7517 5.77975
H 8.44768 18.295 6.57447
H 8.06862 19.6639 6.05072
O 12.0173 17.7936 6.49671
H 11.7279 18.1285 5.64801
H 12.0739 16.846 6.37411
O 14.744 17.9992 6.61426
H 13.7877 17.9614 6.62717
H 14.9854 18.2715 7.49959
O 18.2661 18.5822 6.11877
H 19.2147 18.701 6.1668
H 17.9098 19.4683 6.18319
O -18.6788 -18.1299 9.52261
H -19.0163 -18.9577 9.18057
H -17.7364 -18.1692 9.35953
O -15.943 -17.7762 8.90202
H -15.1461 -18.222 9.18905
H -15.7339 -16.8445 8.96833
O -13.3619 -18.6424 9.26753
H -13.0965 -18.4822 8.36191
H -12.9897 -17.9107 9.75972
O -9.06794 -18.5999 9.98361
H -9.47884 -19.3685 9.58779
H -9.30001 -18.6544 10.9107
O -6.80247 -19.1248 8.67106
H -6.03907 -18.7845 9.13757
H -7.55081 -18.8405 9.1958
O -4.076 -18.8018 9.48142
H -3.97685 -18.5755 8.55666
H -4.01038 -19.7565 9.50322
O -1.108 -18.868 9.75653
H -0.960279 -19.8025 9.61096
H -2.05936 -18.7821 9.81782
O 2.47852 -19.0879 9.80393
H 3.2657 -18.7911 10.2606
H 2.48427 -18.6052 8.97735
O 4.91833 -18.2039 10.7711
H 5.02508 -17.261 10.6453
H 5.38554 -18.3918 11.5852
O 8.44108 -18.5195 9.77241
H 9.38484 -18.6789 9.7843
H 8.35311 -17.5853 9.96124
O 11.212 -18.6761 9.18303
H 11.7995 -17.9609 9.42706
H 11.0429 -18.5402 8.25073
O 14.9614 -18.6931 9.25431
H 14.8484 -19.6362 9.13563
H 14.6209 -18.3072 8.44722
O 17.7083 -18.3147 9.12553
H 17.9161 -17.3854 9.02852
H 16.7517 -18.3471 9.13447
O -18.9778 -15.6646 8.34034
H -18.8339 -16.5329 8.71665
H -18.6251 -15.7263 7.45264
O -14.8714 -15.2053 9.34117
H -13.9402 -15.3969 9.45279
H -14.9125 -14.2523 9.26211
O -12.322 -16.2209 9.92475
H -11.5272 -16.2595 9.39276
H -12.0342 -15.8519 10.7598
O -9.94377 -15.9854 8.31442
H -9.15413 -16.2208 8.80156
H -10.1199 -15.0789 8.56636
O -7.1835 -15.7999 9.39628
H -7.20597 -16.2191 10.2565
H -6.67794 -14.9987 9.53291
O -3.45451 -15.857 10.1072
H -3.84589 -15.3973 10.85
H -3.70257 -16.7727 10.234
O -0.861567 -15.1377 9.41329
H -0.240996 -15.5314 10.0266
H -1.72108 -15.415 9.7304
O 2.76793 -14.2653 9.75452
H 2.12257 -14.7287 10.2885
H 2.75541 -14.7217 8.91318
O 5.18275 -15.3802 10.3226
H 5.78138 -14.6541 10.4976
H 4.33891 -14.9605 10.1551
O 8.47344 -15.7562 10.276
H 8.69578 -15.7352 11.2068
H 9.09219 -15.1507 9.86776
O 13.0557 -16.1603 9.08195
H 13.9761 -15.9144 9.17549
H 12.8733 -16.0566 8.14803
O 15.7207 -15.4089 9.8272
H 15.881 -15.279 10.7619
H 16.5919 -15.3999 9.43073
O 18.426 -15.5649 9.17407
H 18.6714 -15.7008 10.0893
H 19.2525 -15.6163 8.69388
O -17.8919 -12.7408 8.78679
H -18.8237 -12.7367 9.00597
H -17.8613 -13.0284 7.87433
O -15.2806 -12.1771 9.24662
H -16.2242 -12.3273 9.18976
H -14.9863 -12.1522 8.33614
O -12.838 -12.7675 10.5496
H -12.7887 -12.6175 11.4937
H -13.7336 -12.5251 10.3145
O -10.5833 -13.5017 9.19676
H -9.91719 -13.4182 9.87907
H -11.4127 -13.3562 9.65198
O -5.6713 -13.4934 9.67773
H -5.81882 -13.0588 10.5177
H -4.81558 -13.1753 9.38999
O -3.3234 -12.5558 8.63023
H -2.47482 -12.49 9.06818
H -3.12089 -12.9183 7.76778
O -0.818509 -12.445 9.69995
H -0.75833 -13.3998 9.6671
H -0.86996 -12.2398 10.6335
O 1.73604 -11.4449 10.0097
H 0.879077 -11.8426 9.85572
H 2.25795 -11.697 9.24793
O 6.76704 -12.9522 10.7466
H 7.59307 -13.4343 10.707
H 6.89785 -12.2037 10.1645
O 10.0226 -13.2229 9.57692
H 10.973 -13.3367 9.57109
H 9.89342 -12.293 9.76353
O 12.7052 -12.5455 9.30627
H 12.6153 -11.6026 9.16773
H 13.6459 -12.6829 9.4181
O 15.3777 -12.7743 9.44959
H 15.4958 -13.7183 9.55539
H 15.4054 -12.6336 8.5032
O 19.3362 -12.8385 9.38815
H 19.441 -12.5896 10.3065
H 19.0258 -13.7434 9.41867
O -17.5628 -8.58275 9.23671
H -17.7377 -8.91714 10.1164
H -16.6211 -8.70458 9.11645
O -14.9551 -9.36148 8.92726
H -14.9578 -9.43792 7.97312
H -15.0328 -10.2627 9.24043
O -11.3206 -8.95882 9.00145
H -10.484 -9.37524 9.20867
H -11.1577 -8.02264 9.11676
O -8.98661 -10.4757 9.62068
H -8.60603 -11.2241 9.16101
H -8.30262 -9.80651 9.59714
O -7.01579 -8.55986 9.59081
H -7.66718 -7.90965 9.85377
H -6.60532 -8.83366 10.411
O 7.24359 -10.6042 9.45297
H 6.96876 -10.0485 10.1823
H 8.20005 -10.5909 9.48832
O 9.92506 -10.5419 10.131
H 10.2815 -9.7052 9.83258
H 9.90021 -10.4657 11.0848
O 12.744 -9.94445 8.7228
H 13.4339 -9.5926 9.28543
H 12.0716 -9.26331 8.71303
O 14.7395 -9.03347 10.4839
H 14.839 -8.94051 11.4314
H 15.6254 -9.20671 10.1654
O 17.479 -9.72696 9.94671
H 17.5697 -10.4846 9.36885
H 17.839 -8.99674 9.44332
O -19.107 -6.3987 9.56324
H -18.5028 -7.08384 9.27725
H -18.9162 -6.28379 10.4942
O -14.0635 -6.66432 8.89332
H -14.4818 -6.4705 8.05447
H -14.2776 -7.5819 9.06194
O -11.444 -6.18202 9.45329
H -11.3108 -5.25121 9.63239
H -12.381 -6.26017 9.27379
O -9.12859 -7.15781 10.7368
H -9.86627 -6.70745 10.3254
H -9.20771 -6.94752 11.6673
O 10.8116 -8.05906 9.14171
H 10.0028 -7.59354 9.35474
H 11.4839 -7.62445 9.66638
O 12.8152 -7.01322 10.7637
H 13.0541 -6.10827 10.5632
H 13.6162 -7.51324 10.6073
O 16.2846 -5.8505 9.16594
H 16.1079 -4.9104 9.13142
H 16.2291 -6.07116 10.0957
O 18.4054 -7.55452 8.4353
H 19.2307 -7.16399 8.72253
H 17.7463 -6.88514 8.61922
O -19.2392 -3.71549 9.26979
H -18.3721 -3.4095 9.53581
H -19.1658 -4.66986 9.26468
O -16.6221 -2.94445 9.66122
H -16.3622 -3.25972 8.7956
H -16.4676 -2.00034 9.62913
O -10.8381 -3.64755 10.4926
H -11.0481 -2.7305 10.3161
H -10.1237 -3.61201 11.1286
O 13.2393 -4.33168 10.2007
H 14.1281 -4.00015 10.0734
H 12.7611 -4.04073 9.42424
O 15.698 -3.15404 9.47861
H 15.2882 -2.29208 9.55181
H 16.6368 -2.98004 9.54657
O 18.3023 -2.61288 9.8
H 19.1504 -2.99162 9.56879
H 18.3322 -2.52064 10.7523
O -18.9859 0.537868 9.51654
H -19.4108 0.242735 8.71121
H -18.7294 1.44205 9.3351
O -16.2785 -0.161002 9.69906
H -15.8616 0.670388 9.47268
H -17.2152 0.0357716 9.71161
O -11.6527 -1.01274 10.4987
H -11.9864 -1.16827 11.3822
H -11.8611 -0.0954831 10.3214
O 14.792 -0.453321 10.0497
H 15.7263 -0.265363 9.95971
H 14.3665 0.400049 9.96678
O 17.4402 -0.00712709 9.8079
H 17.8021 -0.82526 9.46746
H 17.9706 0.186666 10.5808
O -17.7638 2.97297 9.2226
H -16.8107 2.90507 9.27921
H -17.9246 3.87907 8.95923
O -15.0259 2.35947 9.57698
H -14.1859 2.0788 9.94008
H -14.9032 3.28769 9.37799
O -12.6373 1.72743 10.6921
H -12.7994 2.08398 11.5655
H -12.0608 2.36756 10.2748
O 12.392 2.64088 12.4665
H 12.9727 2.50815 11.7173
H 11.8382 3.37933 12.213
O 14.3041 2.37292 10.3458
H 14.9625 2.27105 11.0331
H 14.1793 3.31903 10.2713
O 17.4826 2.70807 9.35784
H 17.4338 1.75233 9.33716
H 16.5896 2.99797 9.17135
O -18.5658 5.56813 8.45931
H -18.7607 6.32658 9.0098
H -19.4128 5.1411 8.33064
O -15.002 5.14983 9.0926
H -14.1804 5.64007 9.12425
H -15.455 5.49016 8.3211
O -12.6718 6.64385 9.35727
H -11.7198 6.70581 9.43495
H -12.9518 7.52936 9.12553
O -9.97318 6.86614 10.1812
H -10.1167 6.72097 11.1163
H -9.02925 7.00366 10.1017
O 9.17469 6.94254 11.3628
H 9.14554 7.15495 12.2956
H 9.19533 7.79279 10.9236
O 11.2635 5.1172 11.5568
H 11.6296 5.64074 12.2697
H 10.4667 5.58248 11.302
O 13.8012 5.07602 10.3231
H 14.2674 5.5145 11.0349
H 12.8794 5.11949 10.5774
O 19.2324 4.11563 7.87092
H 18.6674 4.5005 7.20095
H 18.6557 3.53383 8.36599
O -19.0583 8.248 9.48874
H -19.249 8.41343 8.56543
H -18.4199 8.92048 9.72616
O -14.8165 9.10349 9.1324
H -13.941 9.4886 9.09382
H -15.1813 9.24883 8.25945
O -12.2997 10.0574 9.07151
H -11.3507 9.98216 9.17154
H -12.4629 10.9998 9.03225
O -9.52796 9.97764 9.6138
H -8.68987 9.52477 9.70731
H -9.29193 10.8985 9.50138
O -7.10039 8.81097 9.99393
H -6.82041 8.72363 10.9051
H -6.57998 9.53774 9.65157
O 5.70524 10.2329 9.6268
H 6.17349 10.0608 10.4437
H 5.55237 11.1778 9.63229
O 9.38086 9.13853 9.70446
H 8.81945 8.93372 8.95673
H 10.2713 9.08847 9.35683
O 12.2022 9.52558 9.47936
H 13.1039 9.22878 9.3563
H 12.036 9.40685 10.4145
O 14.9528 9.16383 9.52454
H 15.3028 8.95018 10.3895
H 15.2416 10.0622 9.36398
O 18.6399 9.70053 10.1587
H 19.4372 9.26969 9.85053
H 18.7887 10.6307 9.98861
O -17.822 10.9153 9.78762
H -18.5101 11.2794 9.23071
H -17.0391 11.4173 9.56094
O -15.7283 12.8705 8.74719
H -14.7792 12.7677 8.67739
H -15.8562 13.8023 8.92499
O -13.0457 12.7042 8.87685
H -12.7972 12.7889 7.95635
H -12.7024 13.4955 9.29189
O -8.72102 12.5096 9.60648
H -9.00311 13.342 9.22732
H -9.06264 12.5251 10.5005
O -6.13019 11.5071 9.39924
H -5.76012 11.7743 8.55786
H -6.98466 11.9372 9.43299
O -2.37401 12.6642 9.15144
H -1.4215 12.7303 9.08359
H -2.53298 12.4138 10.0615
O 0.397114 13.2165 8.7867
H 0.103887 14.1274 8.76442
H 1.28122 13.2578 9.15123
O 2.90203 13.8209 9.76054
H 3.77127 13.4285 9.67881
H 3.02058 14.7277 9.47804
O 5.45678 12.9478 9.91818
H 5.67403 12.9547 10.8504
H 6.11051 13.5192 9.51518
O 9.72375 11.8678 9.88065
H 10.0857 12.0087 9.00581
H 9.44738 10.9513 9.88125
O 12.748 12.2427 9.38014
H 12.229 12.5965 8.65782
H 12.5079 11.3169 9.41715
O 15.3376 11.8728 9.19505
H 15.6407 12.181 8.34103
H 14.4061 12.0923 9.21273
O 19.0965 12.403 10.0112
H 18.9205 13.2488 9.59897
H 18.8089 12.5133 10.9175
O -18.7259 16.0037 9.13536
H -18.9398 15.9214 10.0647
H -17.7792 15.8688 9.09411
O -16.0291 15.4656 9.52116
H -15.3817 16.1642 9.42614
H -16.1384 15.3667 10.4669
O -12.0161 15.2636 9.64582
H -11.0747 15.1968 9.48618
H -12.3254 15.8948 8.99614
O -9.43973 15.0361 8.98156
H -8.6061 15.3315 9.34771
H -9.36092 15.2008 8.04193
O -6.86165 15.7118 9.70153
H -6.89827 16.667 9.74984
H -6.43042 15.5301 8.86651
O -3.47446 15.4438 8.98619
H -3.51033 14.5521 8.63994
H -3.25485 15.3334 9.91128
O -0.742904 15.696 8.61255
H -1.64806 15.5127 8.86424
H -0.795676 15.9417 7.68893
O 3.52169 16.4369 9.21661
H 3.01738 16.5634 10.0203
H 4.43151 16.3861 9.50968
O 7.1615 14.8732 9.1031
H 8.10766 14.9556 9.22228
H 7.01858 15.0665 8.17658
O 9.81227 15.5816 9.23765
H 10.712 15.669 9.55256
H 9.56855 16.4644 8.95938
O 12.3263 16.0308 10.0956
H 13.2398 15.8794 9.85292
H 12.1587 16.9392 9.84462
O 15.0392 15.6628 9.8021
H 15.4408 15.3023 9.0115
H 15.5043 15.2377 10.5227
O 18.7476 14.8758 9.03175
H 19.6957 15.0079 9.02603
H 18.4063 15.6084 9.5446
O -19.6339 19.1384 9.21122
H -19.3314 18.6857 9.99851
H -19.4644 18.5212 8.49947
O -16.6921 19.1326 9.11736
H -16.5217 19.2764 10.0482
H -17.6454 19.0741 9.05412
O -12.4481 18.7816 9.88842
H -12.7646 19.668 9.71425
H -12.5946 18.3091 9.06891
O -9.78089 18.7739 9.0819
H -9.92125 18.5332 8.16616
H -10.6407 18.6746 9.49065
O -7.12956 18.4573 9.88454
H -6.8252 19.2526 9.44743
H -8.07956 18.4679 9.76786
O -3.6359 18.481 8.54507
H -2.68672 18.485 8.66872
H -3.89963 17.582 8.74098
O -0.965581 18.4711 8.95747
H -0.819006 17.5374 9.1094
H -0.569133 18.6403 8.10282
O 3.69692 19.028 8.19403
H 3.22504 19.5857 8.81254
H 3.6001 18.1433 8.54643
O 6.34952 19.2735 9.17297
H 5.47665 19.3051 8.78138
H 6.45914 -19.8692 9.58442
O 8.75486 18.0012 8.44641
H 7.98221 18.4796 8.747
H 9.49548 18.5223 8.75654
O 11.5238 18.5366 9.05265
H 11.6694 18.3712 8.12117
H 11.5661 19.4892 9.13665
O 15.5111 18.3226 9.33197
H 15.39 18.6603 10.2194
H 15.3263 17.3862 9.40427
O 18.142 17.6831 9.86982
H 18.7922 18.2995 9.5329
H 17.3099 17.9928 9.51225
O -19.2153 -18.9317 12.152
H -19.0362 -19.8703 12.0954
H -18.924 -18.5807 11.3105
O -15.0348 -18.3362 12.5785
H -14.091 -18.1973 12.6582
H -15.3834 -17.4795 12.3318
O -12.3928 -17.8805 13.1342
H -11.6096 -18.3359 12.8253
H -12.2061 -16.9536 12.9846
O -9.99592 -19.1374 12.5537
H -10.0083 19.9137 12.4279
H -9.49358 -19.0085 13.3582
O -5.90946 -18.7988 13.0894
H -4.98675 -18.8122 12.8351
H -6.24122 -19.6596 12.8343
O -3.25349 -18.0408 12.9544
H -2.37462 -17.8348 12.636
H -3.45717 -17.3364 13.5697
O -0.563543 -17.161 12.742
H -0.0708708 -17.976 12.6453
H -0.0189068 -16.4993 12.3156
O 0.874627 -19.6151 12.387
H 0.802214 -19.4783 11.4424
H 1.73981 19.9934 12.5071
O 6.46606 -18.3703 13.1091
H 7.36589 -18.5944 12.8718
H 6.35385 -18.7285 13.9897
O 9.21517 -19.1429 13.1001
H 10.0111 -18.619 13.009
H 9.47145 19.9798 12.8158
O 11.6158 -17.8236 13.1414
H 12.1327 -18.0104 13.9251
H 12.1075 -17.1395 12.687
O 15.2239 -18.1777 11.9369
H 16.1801 -18.1752 11.9791
H 15.025 -18.2836 11.0066
O 18.1322 -18.4965 11.7823
H 18.0229 -18.5553 10.8332
H 19.0399 -18.7583 11.9361
O -18.379 -14.9801 11.4692
H -18.3101 -14.6652 10.5679
H -19.2471 -15.3803 11.5179
O -15.7837 -15.782 11.8481
H -15.4254 -15.6069 10.9779
H -16.7163 -15.5817 11.7684
O -11.6837 -15.2997 12.4313
H -10.7558 -15.4268 12.6293
H -11.8705 -14.4065 12.7203
O -9.09878 -15.3931 13.0583
H -8.24938 -15.8192 12.9437
H -9.14138 -15.1902 13.9928
O -6.74325 -16.3748 12.1315
H -6.46777 -17.2171 12.4933
H -6.02262 -15.7787 12.3356
O -4.56535 -14.6456 12.5502
H -4.17771 -14.8411 13.4033
H -4.58557 -13.6895 12.5093
O 1.11216 -15.3378 11.5094
H 0.760785 -14.5095 11.836
H 1.93492 -15.4535 11.9847
O 3.49 -14.8947 12.9046
H 4.38193 -15.0976 12.6226
H 3.40041 -13.953 12.7584
O 6.30451 -15.6401 13.4029
H 7.21744 -15.399 13.2459
H 6.29076 -16.5938 13.3216
O 9.05265 -15.3458 13.0303
H 9.1668 -15.7985 13.8659
H 9.55467 -14.5364 13.1252
O 13.3144 -15.9636 11.9515
H 14.0162 -16.6024 12.0763
H 13.1255 -15.9946 11.0137
O 16.767 -14.5657 12.3354
H 16.6097 -14.7732 13.2565
H 16.546 -13.6377 12.2573
O 19.0789 -15.9477 11.7084
H 18.7693 -16.8417 11.8536
H 18.3954 -15.393 12.0845
O -17.5521 -12.0645 12.7512
H -16.6857 -12.4497 12.6196
H -17.484 -11.1868 12.3754
O -15.0735 -13.2075 12.7399
H -15.2065 -14.1266 12.5077
H -14.4368 -13.2302 13.4542
O -11.9036 -12.6195 13.2159
H -12.3239 -12.3903 14.0448
H -11.3178 -11.885 13.0328
O -8.9976 -13.2215 11.3762
H -8.99905 -14.0017 11.9307
H -9.62596 -12.6308 11.7914
O -6.60109 -12.2401 12.0638
H -7.49312 -12.4581 11.7937
H -6.53551 -11.294 11.9341
O -3.72056 -11.8191 12.937
H -3.34473 -12.0441 13.7881
H -3.65858 -10.8649 12.892
O 0.313256 -12.9751 12.5626
H 1.17049 -12.5565 12.4842
H 0.133554 -12.9798 13.5028
O 2.96278 -12.0812 12.3864
H 2.67743 -11.8322 11.5073
H 3.85064 -11.7309 12.4587
O 5.5514 -11.3308 12.5645
H 5.96064 -11.5413 13.4038
H 5.97769 -11.9142 11.9367
O 10.4938 -12.9921 13.5809
H 11.4397 -13.1209 13.5105
H 10.332 -12.9111 14.5209
O 13.2308 -13.519 13.2812
H 13.2848 -14.3474 12.8046
H 13.9966 -13.0241 12.9898
O 15.5871 -11.974 12.1485
H 15.896 -11.0877 12.3361
H 15.5164 -12.0066 11.1945
O 19.79 -12.2213 12.0657
H -19.2655 -12.2233 12.2206
H 19.5265 -11.3111 12.201
O -17.4915 -9.46955 11.8171
H -16.5703 -9.27636 11.9912
H -17.9531 -9.15965 12.5963
O -14.9122 -8.79717 12.6691
H -14.0764 -8.9833 12.2412
H -15.066 -7.86746 12.5011
O -12.4377 -9.21495 11.6343
H -12.2677 -9.16463 10.6936
H -12.2937 -8.32366 11.9522
O -10.271 -10.7228 12.1413
H -9.79949 -10.6403 11.3123
H -11.0579 -10.1906 12.0238
O -6.24924 -9.5135 12.0451
H -5.45876 -9.20344 12.487
H -6.96291 -9.28201 12.6395
O -3.55312 -9.10024 13.1517
H -3.56653 -9.2246 14.1007
H -2.7112 -8.67981 12.9767
O 7.43866 -9.03346 11.7799
H 8.11968 -9.65292 12.042
H 7.91893 -8.2786 11.4397
O 9.52676 -10.5836 12.8262
H 9.79439 -11.4809 13.0248
H 9.71297 -10.0946 13.6278
O 12.5234 -9.65499 13.7521
H 12.4581 -10.2308 12.9903
H 13.3444 -9.1798 13.6241
O 14.9909 -8.54344 13.1967
H 15.4302 -7.72792 12.9554
H 15.5012 -8.88237 13.9322
O 18.7193 -9.68572 12.3558
H 18.2863 -9.68698 11.5021
H 18.8461 -8.75902 12.5592
O -18.5832 -5.82042 12.2637
H -17.6439 -5.97902 12.3573
H -18.6722 -4.86875 12.315
O -15.9244 -6.23208 12.7113
H -15.8323 -6.18349 13.6628
H -15.7027 -5.35324 12.4035
O -12.273 -6.79755 12.8741
H -12.6167 -6.91279 13.76
H -12.4436 -5.87848 12.6681
O -9.74543 -6.94027 13.7642
H -9.83008 -6.59211 14.6518
H -10.6329 -6.90574 13.4072
O 8.93941 -6.88569 10.8405
H 9.62285 -7.07177 11.4844
H 8.62589 -6.01073 11.0694
O 10.9292 -7.65614 12.6105
H 11.3502 -8.3003 13.1798
H 11.637 -7.32631 12.0569
O 16.331 -6.34715 11.939
H 17.2404 -6.54837 12.1596
H 16.1779 -5.48167 12.3182
O 18.8846 -6.98029 12.8358
H 19.7047 -6.63928 12.4789
H 18.7547 -6.49124 13.6483
O -19.0681 -3.15082 12.7645
H -18.677 -2.35574 12.4023
H -18.9021 -3.09283 13.7054
O -15.4966 -3.62134 12.0318
H -15.8809 -3.42698 11.177
H -15.6425 -2.82765 12.5466
O -12.8204 -4.21308 12.3501
H -12.2546 -4.00377 11.607
H -13.7089 -4.07565 12.0214
O 11.5487 -3.77527 12.3774
H 12.1404 -3.97936 11.6531
H 11.5472 -2.8192 12.4239
O 16.04 -3.80986 13.0311
H 16.9089 -3.45202 12.8488
H 15.4372 -3.09852 12.8146
O 18.3912 -2.27393 12.508
H 19.2729 -2.63567 12.5972
H 18.5263 -1.32995 12.4251
O -18.0208 -0.638868 12.2906
H -18.2312 -0.310478 13.1647
H -17.0688 -0.561438 12.2279
O -15.286 -0.468699 12.3222
H -15.3626 -0.332315 11.3778
H -15.3963 0.40367 12.7004
O -12.7884 -1.47147 12.8989
H -13.6788 -1.15855 12.7397
H -12.8688 -2.42511 12.9175
O 12.0583 -1.16284 12.9948
H 11.8643 -0.243318 12.813
H 12.996 -1.24886 12.8224
O 14.7424 -1.44557 12.6225
H 14.8584 -0.899666 11.8448
H 15.0434 -0.897684 13.3473
O 19.223 0.314001 11.9427
H 19.133 1.25669 12.0823
H -19.9377 0.217034 11.4928
O -17.8662 3.61543 11.964
H -18.2448 4.49225 11.9001
H -17.9261 3.26287 11.0761
O -15.8615 2.13603 13.2437
H -16.0139 2.27687 14.1781
H -16.5343 2.66009 12.8091
O -13.2899 3.10796 12.9597
H -14.2202 2.8829 12.9505
H -13.2563 4.00354 12.6235
O 13.0788 1.48399 14.8421
H 14.0305 1.57837 14.801
H 12.7562 1.97464 14.0862
O 16.1487 1.94452 12.2997
H 15.8751 2.26462 13.1593
H 17.028 2.30301 12.1789
O 18.6945 3.03979 11.8022
H 18.3822 3.03032 10.8974
H 18.3853 3.87459 12.1541
O -19.0733 6.0447 11.8923
H -19.104 6.08349 12.8482
H -19.9834 5.91019 11.6282
O -15.7425 6.36423 12.1268
H -16.0466 6.0567 11.2729
H -14.798 6.2093 12.1152
O -13.0528 5.73829 11.9458
H -12.3328 6.16783 12.4076
H -12.9481 6.00884 11.0336
O -10.6637 6.86973 12.8253
H -10.5286 6.70662 13.7588
H -10.4513 7.79599 12.7104
O 9.71469 7.08124 14.1013
H 10.6192 7.09944 13.7886
H 9.70961 6.40814 14.7819
O 12.3616 6.88991 13.4242
H 12.533 7.02814 14.3558
H 12.3497 7.77049 13.0492
O 15.0367 6.28029 12.4757
H 15.2292 7.20883 12.3453
H 14.2204 6.27231 12.9756
O 17.6523 5.46184 12.633
H 17.947 6.36056 12.4858
H 16.6974 5.51212 12.5885
O -19.065 8.70876 12.9467
H -18.8797 8.1419 12.198
H -19.054 9.59502 12.5852
O -15.3641 9.34108 11.853
H -15.2616 9.22662 10.9082
H -15.6956 8.49811 12.1623
O -12.8178 9.63882 12.7582
H -12.8267 9.4242 13.691
H -13.7011 9.42872 12.4552
O -10.1794 9.42739 12.2469
H -10.048 9.40519 11.2991
H -11.1274 9.5018 12.3561
O -6.74419 9.21863 12.7996
H -6.16159 9.95319 12.6067
H -7.62321 9.59676 12.7755
O 6.83032 10.6009 12.2294
H 6.35575 10.1446 12.9242
H 6.63445 11.5267 12.373
O 9.49431 10.3337 12.7993
H 8.56737 10.2935 12.564
H 9.76284 11.2223 12.5659
O 11.9584 9.29651 12.2019
H 12.423 10.11 12.3985
H 11.0365 9.50358 12.3551
O 15.7143 8.95734 12.1386
H 16.6291 8.75648 12.3361
H 15.6482 9.90609 12.2469
O 18.329 8.09349 12.3349
H 18.3817 8.5898 11.5181
H 19.1176 8.34124 12.8175
O -19.1768 11.2819 12.2341
H -18.774 11.8307 12.9069
H -18.617 11.3944 11.4658
O -15.4103 12.238 11.8755
H -15.5421 11.29 11.8833
H -15.0681 12.4255 11.0014
O -12.5252 12.3617 12.996
H -12.8465 11.4721 12.8491
H -11.6322 12.3543 12.6514
O -9.9366 12.1419 12.0886
H -9.97469 11.1882 12.1615
H -9.59082 12.4334 12.9322
O -5.29408 11.5093 12.1498
H -4.36059 11.7165 12.1931
H -5.51953 11.6096 11.225
O -2.65552 12.3164 12.0087
H -1.81838 12.0575 12.3939
H -2.59788 13.2683 11.9269
O 0.134316 12.2526 13.2181
H 0.157119 13.1206 12.8153
H 1.00974 12.1362 13.5873
O 3.55825 14.0823 12.4317
H 3.08792 13.5318 13.0578
H 3.17917 13.8572 11.5821
O 6.07455 13.2432 12.6601
H 6.57353 14.0469 12.5144
H 5.16006 13.5259 12.6644
O 10.4503 12.9644 12.25
H 11.3794 12.7352 12.271
H 10.1657 12.7321 11.3661
O 13.0001 11.9793 12.1015
H 13.9414 11.9216 12.2653
H 12.9308 12.1799 11.1682
O 15.7338 11.77 12.0207
H 15.7591 11.8378 11.0663
H 16.6507 11.826 12.2897
O 18.3139 12.3379 12.6315
H 19.1663 11.9026 12.6479
H 18.4951 13.2314 12.9231
O -19.1452 15.6787 11.841
H -19.8244 15.3401 12.4243
H -18.3501 15.215 12.104
O -16.5584 14.9501 12.2146
H -16.1837 14.0786 12.342
H -16.3371 15.4259 13.0152
O -12.6144 15.1 12.4049
H -12.4275 15.1752 11.4692
H -12.7453 14.1628 12.5489
O -9.93425 15.4984 12.8733
H -9.82793 15.5062 13.8245
H -10.8692 15.3443 12.7376
O -7.1168 15.8101 12.5471
H -6.8998 15.6647 11.6263
H -8.05297 15.6194 12.6061
O -2.35428 14.9061 11.4365
H -2.61947 15.6754 11.9406
H -1.40672 14.8525 11.561
O 0.225572 14.9155 12.4502
H 0.129753 15.1259 13.3791
H 0.92946 15.4883 12.1458
O 2.4406 16.4575 11.7048
H 3.00083 15.799 12.1157
H 2.74272 17.29 12.0679
O 7.14413 15.7336 11.7829
H 8.05509 15.6632 12.0682
H 7.17286 15.557 10.8426
O 9.62592 15.5793 12.9574
H 9.95549 16.4113 12.6177
H 10.1269 14.9128 12.4873
O 13.1965 15.4915 12.632
H 12.8146 15.6231 11.7642
H 14.0835 15.1763 12.4586
O 15.8068 14.5911 12.2606
H 15.8335 13.6364 12.3234
H 16.0163 14.8957 13.1435
O 18.651 15.0535 13.3032
H 18.0991 15.7028 12.8672
H 18.6498 15.3166 14.2235
O -18.6402 18.3699 11.6519
H -18.7784 17.4444 11.8531
H -17.7011 18.5055 11.7788
O -16.1008 19.2542 11.8168
H -15.6765 -19.9016 11.9701
H -15.3781 18.6292 11.7598
O -14.1376 17.4242 11.5256
H -13.4732 17.8981 11.0253
H -13.6556 16.7181 11.956
O -9.59853 18.1446 12.2282
H -8.67177 18.2866 12.4211
H -9.74877 17.2227 12.4377
O -6.946 18.7926 12.5146
H -6.92815 18.6526 11.5679
H -6.63594 17.9663 12.8852
O -2.79166 17.0558 12.9668
H -2.04018 17.6214 13.1445
H -2.92393 16.5696 13.7806
O -0.700841 18.6959 13.8587
H -0.186128 19.2343 13.2575
H -1.24292 19.3226 14.3379
O 3.2511 18.9295 12.5696
H 3.43003 18.9753 13.5088
H 4.09805 18.7243 12.1736
O 5.55102 18.0801 11.5368
H 5.93983 18.4625 10.7502
H 6.15301 17.3786 11.7854
O 10.245 18.2448 12.7673
H 11.1957 18.346 12.7211
H 10.055 18.1871 13.7037
O 12.9501 18.162 13.1522
H 13.0769 17.2187 13.0498
H 13.6696 18.5558 12.6589
O 15.0873 19.0868 11.8615
H 15.8054 18.6526 12.322
H 15.1667 -19.9916 12.1079
O 17.4613 17.5243 12.49
H 18.0625 17.9874 13.0733
H 17.8287 17.6529 11.6155
O -19.553 -17.9341 14.6732
H -19.2028 -17.0433 14.6679
H -19.2971 -18.2976 13.8254
O -15.0012 -18.8323 15.3241
H -14.108 -19.1674 15.4032
H -15.0748 -18.559 14.4097
O -12.3312 -19.3905 15.432
H -12.247 -18.9402 16.2725
H -12.2273 -18.6993 14.778
O -8.69269 -19.0717 15.1242
H -7.75124 -19.1568 15.2747
H -9.03442 -18.7079 15.9409
O -6.03186 -19.5353 15.6676
H -5.8995 -19.204 14.7794
H -6.00638 19.5123 15.5747
O -2.28895 -19.5475 15.1449
H -1.87198 -18.7813 15.539
H -2.73858 -19.2053 14.3723
O -1.27744 -16.8895 15.5003
H -0.55028 -16.4652 15.9558
H -0.9899 -16.9456 14.5891
O 4.05984 -18.6357 16.5601
H 4.9892 -18.7156 16.3453
H 3.80558 -17.7813 16.2115
O 6.57284 -19.2939 15.6869
H 6.45855 19.759 15.7657
H 7.50992 -19.1532 15.8223
O 9.28563 -19.2609 15.8921
H 9.30643 -19.0181 14.9664
H 9.4766 19.8012 15.8985
O 13.0733 -18.2804 15.4735
H 13.9861 -18.006 15.5616
H 12.5774 -17.6257 15.9651
O 15.6464 -17.3923 15.8997
H 16.2991 -17.8598 15.3786
H 15.7625 -16.4726 15.661
O 17.7014 -18.5968 14.5566
H 18.521 -18.1985 14.8496
H 17.7587 -18.5885 13.6011
O -18.6003 -15.3246 14.2476
H -18.5203 -15.1265 13.3146
H -18.1537 -14.6003 14.6859
O -14.6034 -16.6872 17.0139
H -13.9101 -16.1943 16.5751
H -14.8262 -17.3867 16.3997
O -12.6476 -15.101 16.0007
H -13.0416 -14.2418 15.8495
H -11.7407 -15.0037 15.7103
O -9.96798 -14.565 15.5589
H -9.8627 -13.6137 15.5689
H -9.48797 -14.8677 16.3297
O -6.34379 -14.8258 15.8893
H -6.58747 -13.9638 15.5518
H -5.43511 -14.9438 15.6125
O -3.52826 -15.1506 15.0588
H -2.8263 -15.6913 15.4209
H -3.25155 -14.2507 15.2318
O 0.867721 -15.485 16.4896
H 1.76058 -15.5943 16.1624
H 0.622879 -14.5976 16.2274
O 3.46593 -16.1607 15.5583
H 3.35623 -16.0059 14.6201
H 4.17775 -15.5751 15.8165
O 5.24306 -14.0532 15.2954
H 5.59194 -14.6241 14.6109
H 5.8108 -13.2827 15.2777
O 9.1941 -15.7094 15.9153
H 8.52187 -15.9619 16.5482
H 9.19356 -14.7524 15.9337
O 11.7985 -16.2584 16.8193
H 12.2444 -15.4529 16.5577
H 10.8882 -16.1255 16.5549
O 16.3937 -14.9098 15.0065
H 17.2785 -15.0829 15.3281
H 16.1665 -14.0568 15.3768
O 18.9007 -15.6425 15.8251
H 19.6792 -15.3695 15.3397
H 19.2013 -15.7339 16.7292
O -17.9957 -12.8174 15.3116
H -18.9426 -12.9115 15.2084
H -17.6934 -12.4885 14.4651
O -15.7979 -11.3945 16.3448
H -16.5018 -11.9974 16.1056
H -15.683 -11.5212 17.2866
O -13.4768 -12.5791 15.4695
H -14.3663 -12.2732 15.6466
H -12.9499 -12.2075 16.177
O -9.60504 -11.8276 15.6303
H -8.77131 -11.676 15.1851
H -10.0944 -11.0142 15.5067
O -6.95633 -12.2822 14.8392
H -6.64011 -11.446 15.1812
H -6.71009 -12.2717 13.9143
O -2.76768 -12.6442 15.544
H -1.81684 -12.6615 15.4352
H -2.9045 -12.7814 16.4814
O 0.163245 -12.9122 15.3033
H 1.11135 -13.0074 15.3942
H -0.00726056 -11.9945 15.5158
O 2.76396 -13.0123 15.872
H 3.55297 -13.4184 15.5132
H 2.83925 -12.0886 15.6323
O 6.88352 -11.7606 15.2003
H 7.01471 -10.8494 14.9379
H 6.68056 -11.7144 16.1346
O 9.20385 -12.9352 16.0677
H 9.03744 -13.0533 17.0029
H 8.41413 -12.5084 15.7355
O 12.9964 -13.8625 15.9621
H 12.5392 -13.0438 16.1543
H 13.0773 -13.8741 15.0084
O 15.3797 -12.487 15.8934
H 14.5319 -12.9304 15.9215
H 15.5774 -12.2889 16.8088
O 19.3516 -12.7906 14.6998
H 19.3987 -12.7806 13.7438
H 19.3183 -11.8668 14.9482
O -18.3926 -8.8738 14.3928
H -17.5266 -9.0449 14.7628
H -18.5593 -7.95174 14.5884
O -15.7171 -8.93354 15.2871
H -15.318 -8.99223 14.4191
H -15.6782 -9.82637 15.63
O -11.3686 -9.79335 15.7321
H -11.9235 -9.09926 15.3764
H -11.2107 -9.53293 16.6396
O -8.42662 -9.27074 13.6561
H -9.05965 -9.78501 13.1551
H -8.83839 -8.41216 13.7536
O -6.62638 -9.61045 15.8477
H -6.79083 -9.0162 16.5799
H -7.27753 -9.36664 15.1898
O -3.91428 -9.9012 15.8135
H -3.66001 -10.8223 15.869
H -4.87038 -9.91305 15.8581
O -0.140735 -10.2726 15.7245
H 0.758172 -10.1192 15.4335
H -0.193005 -9.84387 16.5787
O 2.69479 -10.2929 15.2458
H 3.16983 -9.8164 14.565
H 2.9514 -9.86428 16.0623
O 7.11255 -9.09116 14.5749
H 8.0422 -9.09124 14.8029
H 7.0988 -8.98792 13.6234
O 9.73973 -9.48079 15.5173
H 10.4653 -10.083 15.6821
H 10.1361 -8.61047 15.5586
O 11.9507 -11.1914 16.001
H 12.3812 -10.6423 15.3457
H 12.2622 -10.8525 16.8402
O 16.2781 -9.84944 15.299
H 16.2837 -9.53507 16.203
H 15.9852 -10.7585 15.3628
O 19.3442 -10.1848 15.4181
H -19.9128 -9.74309 15.007
H 18.585 -9.90247 14.9079
O -18.3366 -6.07773 14.9451
H -18.5651 -5.86026 14.0413
H -19.0225 -5.66704 15.4715
O -15.594 -6.17517 15.5613
H -15.6861 -7.12783 15.5758
H -16.4912 -5.84648 15.6182
O -12.8419 -7.23991 15.4902
H -12.0943 -6.75486 15.8398
H -13.596 -6.67671 15.6643
O -10.4407 -6.03463 16.2189
H -10.0464 -5.98772 17.0899
H -10.3763 -5.14254 15.878
O 5.47846 -8.06582 16.6159
H 6.03765 -7.5037 17.1522
H 6.03934 -8.34037 15.8905
O 10.5339 -6.86279 15.8567
H 11.4686 -6.67031 15.7821
H 10.1095 -6.21164 15.298
O 13.1543 -6.18082 15.8336
H 12.948 -5.33308 15.4399
H 13.2139 -6.00147 16.772
O 15.998 -6.3416 16.1701
H 15.1038 -6.45091 15.8467
H 16.0906 -7.00896 16.85
O 18.5501 -5.41507 15.0643
H 17.743 -5.68542 15.5022
H 18.5982 -4.4705 15.2117
O -18.5145 -2.72443 15.3174
H -17.5954 -2.88739 15.5297
H -18.6068 -1.7729 15.3655
O -15.8447 -2.99679 15.8643
H -14.9883 -3.36556 15.6479
H -15.7242 -2.05016 15.7894
O -13.1117 -3.29628 15.5513
H -13.0218 -2.34525 15.4905
H -12.8562 -3.50449 16.45
O -10.4327 -3.57866 15.061
H -10.0939 -3.17746 15.8613
H -11.3795 -3.44617 15.1084
O 9.77321 -3.44982 15.8837
H 9.68391 -2.51575 15.6946
H 10.648 -3.67605 15.5679
O 12.3835 -3.84902 14.9025
H 12.5429 -2.96254 15.2265
H 12.1484 -3.72955 13.9823
O 15.7517 -3.6366 15.989
H 15.4769 -3.63741 15.0721
H 15.8473 -4.56261 16.2117
O 18.2762 -2.65926 15.2708
H 17.3969 -2.93685 15.5276
H 18.2049 -2.47174 14.3348
O -18.3194 0.170854 14.9122
H -18.5931 1.08667 14.8615
H -17.4084 0.208476 15.2036
O -15.6481 -0.270575 15.8613
H -14.7044 -0.211589 15.7125
H -15.7434 -0.237887 16.8132
O -12.8762 -0.509962 15.8977
H -12.0907 0.0061273 15.7168
H -12.8391 -0.681689 16.8387
O -10.4307 1.09518 16.0158
H -9.83569 0.874256 15.2993
H -10.4081 2.05107 16.0605
O 10.0695 -0.503179 16.8847
H 9.45203 -0.5326 17.6155
H 10.0209 0.397978 16.5656
O 12.5498 -1.44549 15.9005
H 12.498 -1.01749 15.0459
H 11.7068 -1.25924 16.3137
O 15.2386 -0.356589 15.1038
H 14.5938 -0.688765 15.7284
H 16.0408 -0.257817 15.6167
O 17.7626 -0.197142 16.3096
H 18.1138 -0.993387 15.911
H 18.0657 0.510079 15.7402
O -19.206 2.9016 14.4174
H -19.1605 3.79164 14.7667
H -18.9749 2.99441 13.4932
O -15.9796 2.90822 15.8996
H -16.1607 2.87749 16.839
H -16.2113 3.79985 15.6395
O -13.3052 3.19883 15.6954
H -13.1611 3.05371 14.7603
H -14.2451 3.06453 15.817
O -10.7099 3.808 16.4121
H -10.4955 3.53389 17.3038
H -11.6409 3.60718 16.3166
O 10.1423 2.3583 16.6509
H 11.0012 2.18117 17.0344
H 10.2389 3.21247 16.2299
O 12.5881 1.65345 17.4859
H 12.4926 0.731955 17.7267
H 12.7764 1.63804 16.5476
O 15.6095 2.96997 14.7706
H 16.5168 2.83466 15.0439
H 15.3418 3.77348 15.2167
O 18.2382 2.44546 15.3477
H 19.0883 2.61506 14.9418
H 18.3696 2.64864 16.2738
O -18.9282 5.87921 14.6837
H -17.9832 5.77039 14.7902
H -19.1132 6.74328 15.0516
O -16.2201 5.37868 14.7201
H -15.6293 5.99491 15.1532
H -16.128 5.57312 13.7874
O -13.3268 6.03066 15.4356
H -12.3915 6.22422 15.3731
H -13.3743 5.07464 15.4394
O -10.6051 6.44976 15.5114
H -10.1379 7.09256 16.0451
H -10.4174 5.6092 15.9291
O 10.5213 5.22648 16.0322
H 11.3715 5.66601 16.0405
H 10.1036 5.4965 16.8501
O 12.8021 7.06583 16.0793
H 13.637 6.59819 16.0594
H 13.0458 7.98965 16.1378
O 14.9744 5.47314 15.974
H 15.8717 5.70818 15.7376
H 14.9486 5.55323 16.9275
O 17.5372 6.01989 15.3557
H 18.2671 5.72017 15.8977
H 17.7241 5.66764 14.4855
O -19.3101 8.46164 15.6701
H -19.0321 8.73934 14.7973
H 19.7479 8.63099 15.6871
O -15.3262 9.53872 15.9373
H -14.3822 9.40064 15.8601
H -15.4903 9.55367 16.8802
O -12.4964 9.58587 15.5214
H -12.3617 10.5294 15.6103
H -11.6935 9.19524 15.8663
O -9.74197 9.03994 16.5262
H -8.83538 9.16979 16.2479
H -9.6747 8.75382 17.4372
O -7.08491 9.48469 15.7981
H -6.87043 10.4024 15.6308
H -6.84323 9.03074 14.9908
O -2.43411 10.0385 16.1625
H -2.64303 9.70572 17.0354
H -2.73426 10.9474 16.174
O 0.339528 9.8639 16.449
H 0.896766 9.58095 15.724
H -0.550847 9.81322 16.1013
O 3.00111 9.83067 15.0101
H 3.84655 9.58296 14.6358
H 3.09449 9.66034 15.9474
O 5.57505 9.21174 14.2746
H 5.81149 8.3161 14.0335
H 5.86841 9.30155 15.1813
O 10.3185 9.98846 15.4228
H 9.95468 9.79323 14.5592
H 11.2502 9.78433 15.3424
O 13.1249 9.90413 15.2956
H 12.8958 10.7966 15.555
H 14.0733 9.92709 15.1686
O 15.7984 10.4167 15.6475
H 16.6247 9.9408 15.5641
H 16.0533 11.3392 15.6636
O 17.9428 8.6593 15.789
H 17.7485 7.75218 15.5532
H 17.9104 8.67086 16.7456
O -18.5816 12.7114 14.4972
H -17.7111 12.3961 14.7402
H -18.6179 13.6042 14.8406
O -15.8704 12.0898 14.9572
H -15.7105 11.193 15.2512
H -15.5117 12.1191 14.0702
O -11.9473 12.3088 15.6616
H -11.0089 12.4732 15.5688
H -12.3017 12.438 14.7818
O -9.21408 12.7212 14.7229
H -9.1541 13.6509 14.9428
H -8.31038 12.4076 14.7577
O -6.48235 12.0798 14.649
H -6.07668 11.865 13.8091
H -6.19161 12.9728 14.8345
O -2.92008 12.9244 16.5237
H -1.97354 12.7916 16.4722
H -3.05944 13.8001 16.1632
O -0.285007 12.6119 15.9278
H -0.241766 12.4048 14.9943
H 0.119033 11.8592 16.3596
O 2.60518 12.5294 14.5533
H 2.80325 11.6065 14.7122
H 3.24627 13.0067 15.08
O 5.40595 13.0565 15.33
H 5.52097 13.9748 15.5744
H 5.78078 12.9932 14.4515
O 9.91734 12.6833 15.0947
H 9.8716 11.7314 15.1835
H 9.91276 12.8367 14.1499
O 12.4157 12.415 16.0222
H 12.8835 13.2216 15.8055
H 11.5441 12.5344 15.6449
O 16.467 13.036 15.9674
H 16.3267 13.9194 15.6265
H 16.1253 13.0666 16.861
O 19.1116 11.9075 16.1467
H 18.3613 12.3989 15.8125
H 19.8315 12.1404 15.5604
O -18.56 15.2311 15.5868
H -17.8166 15.7608 15.2986
H -19.321 15.7987 15.4642
O -16.2171 16.446 14.6211
H -15.3113 16.288 14.8871
H -16.3232 17.3953 14.6828
O -13.4833 15.9105 15.0734
H -13.1796 15.5591 14.2365
H -12.9323 16.6783 15.2254
O -9.18058 15.4088 15.4575
H -9.4331 15.0857 16.3224
H -8.97865 16.334 15.5965
O -5.81178 14.8897 14.7884
H -4.86687 14.9513 14.6485
H -6.1957 15.1434 13.949
O -2.93741 15.4339 15.2124
H -1.998 15.282 15.1091
H -2.99548 16.2562 15.699
O -0.227972 15.2597 15.1319
H -0.0102141 14.4483 15.5907
H 0.296211 15.9307 15.5691
O 2.95296 15.6768 16.3043
H 2.81296 15.5982 17.248
H 2.40351 16.4151 16.041
O 5.56491 15.5621 16.0513
H 4.61398 15.6712 16.0594
H 5.90791 16.4522 15.9716
O 10.4844 15.5072 15.6279
H 10.187 15.4756 14.7186
H 10.1357 14.7078 16.0224
O 13.2084 14.9162 15.2916
H 12.381 15.2285 15.6578
H 13.0971 14.9964 14.3443
O 15.8046 15.5408 14.9089
H 15.9157 16.4821 15.0423
H 14.8944 15.3698 15.1506
O 18.8014 16.2501 15.7928
H 18.5338 16.1957 16.7102
H 18.6095 17.1532 15.5401
O -18.9438 19.5867 16.0122
H -19.0412 -19.4639 15.9387
H -18.1622 19.3851 15.4977
O -16.7121 19.1458 14.5386
H -16.5082 19.2537 13.6096
H -16.1253 19.7559 14.9855
O -11.626 17.9819 15.6126
H -10.6688 17.9875 15.616
H -11.8706 18.8849 15.4103
O -8.93974 18.1643 15.7786
H -8.87976 19.0233 15.3605
H -8.46671 18.2659 16.6046
O -5.72516 17.733 15.2266
H -5.91533 16.7951 15.2077
H -4.8248 17.789 15.5467
O -3.09548 17.9647 16.1726
H -2.81971 18.8448 15.9166
H -2.92416 17.9237 17.1135
O 1.1106 17.7641 15.7844
H 0.707861 17.9773 16.6262
H 0.482452 18.0746 15.1323
O 3.58742 19 15.2432
H 2.72841 18.6825 15.5217
H 3.66217 19.8684 15.6389
O 6.0675 18.1548 16.0882
H 5.17032 18.3256 15.8017
H 6.02501 18.1898 17.0438
O 10.1446 18.2009 15.5974
H 11.0539 18.4806 15.7028
H 10.166 17.2551 15.7431
O 12.758 19.0083 15.6774
H 12.8512 19.9594 15.6236
H 12.779 18.7132 14.7671
O 15.5295 18.2805 15.3756
H 15.6679 18.3806 16.3174
H 14.6146 18.5272 15.24
O 18.7715 18.7897 14.7242
H 19.6003 19.0547 15.1231
H 18.2142 19.5651 14.7912
O -17.664 -17.7718 17.8338
H -16.8106 -18.1847 17.9661
H -17.4622 -16.9271 17.4315
O -15.243 -19.0686 18.727
H -15.0996 -18.8849 19.6554
H -14.5138 -18.6372 18.2816
O -12.3406 -18.5298 18.0393
H -11.9223 -19.0097 18.7541
H -12.1603 -17.6093 18.2305
O -8.43243 -18.4692 18.1242
H -8.22001 -19.4014 18.0799
H -8.90853 -18.3704 18.9487
O -5.71751 -18.2736 18.095
H -5.60294 -18.6423 17.2191
H -6.66568 -18.1957 18.2004
O -2.068 -18.4357 18.7929
H -2.38921 -17.5806 18.5068
H -2.39317 -18.5268 19.6886
O 0.534416 -18.9029 19.2672
H 0.491054 -19.1122 -19.7998
H -0.371112 -18.7137 19.0214
O 3.23363 -19.4263 19.1214
H 2.29535 -19.2457 19.0642
H 3.5954 -19.0763 18.3072
O 6.52729 -19.2264 19.4876
H 7.37564 -18.9621 19.1316
H 5.95487 -18.4766 19.3253
O 8.9854 -18.4161 18.542
H 9.18312 -18.6509 17.6353
H 9.78404 -18.6291 19.0247
O 11.3625 -19.1293 19.6635
H 11.5308 -19.3262 -19.415
H 11.898 -18.3571 19.4814
O 14.7195 -19.2116 19.3945
H 14.1299 -18.4796 19.2135
H 14.8113 -19.2159 -19.6528
O 17.1038 -18.3557 18.4013
H 16.8825 -17.9945 17.5429
H 16.261 -18.6023 18.7824
O -18.6259 -14.6664 18.0386
H -19.4456 -14.9782 18.4222
H -18.6841 -13.7124 18.0908
O -15.911 -14.384 17.6895
H -15.5092 -15.2338 17.5086
H -16.8362 -14.582 17.8342
O -11.6743 -15.8747 18.4683
H -10.7349 -15.7458 18.3371
H -12.0795 -15.5001 17.6862
O -8.95144 -15.6991 17.9474
H -8.70361 -16.6204 17.8707
H -8.16993 -15.2684 18.2938
O -6.3632 -14.9638 18.583
H -6.37372 -15.0389 17.6289
H -6.17237 -14.0406 18.749
O -3.26461 -15.9797 18.372
H -3.15424 -15.0392 18.2318
H -4.19149 -16.1414 18.196
O 0.751774 -16.116 19.1261
H 0.777896 -17.0725 19.151
H 0.716986 -15.901 18.194
O 3.08038 -14.9538 19.9837
H 3.06913 -15.3372 -19.1393
H 2.2836 -15.2829 19.5677
O 5.17198 -16.8387 19.4157
H 5.88918 -16.4277 18.9331
H 4.46983 -16.1883 19.4021
O 7.51488 -16.0936 18.1597
H 8.11824 -16.7575 18.4936
H 7.88658 -15.2619 18.4536
O 13.067 -16.9676 19.1526
H 13.9071 -16.5098 19.1221
H 12.5904 -16.6456 18.3875
O 15.5439 -15.8479 19.2853
H 16.407 -16.0929 18.9518
H 15.716 -15.4888 -19.8443
O 18.7881 -15.0656 18.8138
H 18.5597 -14.2688 18.3351
H 18.7865 -14.8017 19.7338
O -18.9345 -12.0198 17.8149
H -18.5354 -12.1308 16.952
H -18.5692 -11.1988 18.1446
O -15.1965 -12.096 18.9596
H -15.3886 -12.9609 18.5971
H -15.4713 -12.153 19.8747
O -12.7276 -11.616 17.9081
H -12.5332 -10.6788 17.9103
H -13.5906 -11.6831 18.3168
O -8.38781 -11.8942 18.0883
H -8.88934 -11.8627 17.2736
H -8.6292 -11.0911 18.5498
O -5.8191 -12.3798 18.8987
H -5.96606 -12.2057 19.8284
H -6.6482 -12.1522 18.478
O -3.00859 -13.1938 18.2326
H -2.23397 -12.7036 18.5081
H -3.72288 -12.8261 18.753
O -0.772391 -11.7907 18.9027
H -0.800248 -11.8119 19.8593
H -0.442331 -10.9173 18.6916
O 4.15084 -12.9657 18.3349
H 3.58371 -12.9642 17.5638
H 3.82279 -13.6865 18.8726
O 6.52871 -11.7719 17.8782
H 5.65349 -12.0711 18.1245
H 6.64752 -10.954 18.3612
O 8.4309 -13.5026 18.7058
H 9.19162 -13.0011 18.9992
H 7.7648 -12.841 18.5192
O 10.7008 -12.2921 19.5453
H 11.2589 -11.634 19.131
H 11.2608 -12.7005 -19.7945
O 16.1142 -11.7996 18.4036
H 16.9854 -12.0945 18.1386
H 16.1582 -10.8448 18.3525
O 18.4276 -12.7852 17.354
H 19.2715 -12.3919 17.5765
H 18.5029 -13.0056 16.4256
O -17.9835 -9.51339 18.5758
H -17.9503 -9.44624 19.5301
H -17.1308 -9.1921 18.2828
O -15.3282 -8.55648 18.2056
H -15.1029 -8.56587 17.2754
H -15.4391 -7.62936 18.4163
O -11.4847 -9.02434 18.6279
H -11.8303 -8.13386 18.6901
H -11.7229 -9.43281 19.4602
O -8.92173 -9.62063 19.479
H -8.21807 -9.03915 19.1909
H -9.71539 -9.24316 19.0997
O -6.68038 -7.95495 18.1684
H -5.79633 -8.31168 18.2547
H -6.5783 -7.01783 18.3346
O -4.02447 -8.63624 18.1867
H -3.5174 -7.82808 18.2642
H -3.76622 -9.00136 17.3404
O 0.234319 -9.21944 18.2276
H 1.18291 -9.19775 18.1013
H 0.0357895 -8.40794 18.6948
O 3.15449 -9.14078 17.7166
H 3.30373 -9.36257 18.6357
H 3.9377 -8.65584 17.4565
O 7.30207 -9.56232 19.1655
H 7.00051 -9.6619 -19.9315
H 7.05777 -8.66777 18.9282
O 9.89019 -9.34054 18.2432
H 9.09384 -9.58545 18.7144
H 9.65843 -9.42813 17.3186
O 12.4058 -10.2998 18.489
H 12.8374 -9.9676 19.2762
H 11.5729 -9.82925 18.4553
O 16.5051 -9.07208 18.0094
H 17.4597 -9.13045 18.048
H 16.2864 -8.33546 18.5802
O 19.2247 -9.3543 18.073
H -19.8565 -9.1764 18.2743
H 19.2321 -9.65571 17.1646
O -18.7489 -5.38256 18.5944
H -18.5776 -4.48323 18.8739
H -18.3819 -5.92485 19.2926
O -15.3281 -5.95826 19.2419
H -14.3873 -6.09413 19.1287
H -15.445 -5.86484 -19.8127
O -12.6037 -6.4646 19.1169
H -12.3884 -5.66175 18.6422
H -12.5883 -6.20949 -19.9607
O -9.43453 -6.02582 18.7199
H -8.52775 -5.9728 19.0218
H -9.94263 -6.19119 19.514
O -5.92525 -5.42792 19.0962
H -4.98149 -5.46112 18.9399
H -6.16673 -4.5196 18.9149
O -2.97268 -6.19819 19.0049
H -2.02095 -6.14577 18.9172
H -3.1286 -6.17129 19.9489
O -0.0564276 -6.78464 19.6783
H -0.377762 -6.64816 -19.4305
H 0.850875 -6.48048 19.7011
O 2.56997 -6.05858 -19.2388
H 3.51747 -6.07986 -19.1046
H 2.31295 -5.16937 -18.9949
O 7.00693 -6.6898 18.4404
H 6.65176 -5.87326 18.7916
H 7.95254 -6.5452 18.4064
O 9.79337 -6.61582 18.5129
H 10.0849 -6.39826 17.6275
H 9.85127 -7.57025 18.5569
O 13.6471 -5.62469 18.5673
H 14.5877 -5.80119 18.5878
H 13.3208 -5.96552 19.4001
O 16.2292 -6.6778 19.2651
H 16.9956 -6.13661 19.075
H 16.1241 -6.61987 -19.7853
O 18.5292 -5.19918 18.9447
H 18.3055 -4.2739 18.8445
H 19.4445 -5.2559 18.6703
O -18.1293 -2.92926 19.7267
H -17.2736 -3.02117 19.3076
H -18.3629 -2.01019 19.5964
O -15.8574 -3.26364 18.4992
H -15.8705 -3.26936 17.5421
H -15.6656 -4.16943 18.742
O -12.2109 -3.87859 18.1303
H -11.2715 -3.70233 18.0771
H -12.5851 -3.07712 18.4961
O -9.59853 -2.92786 17.5784
H -8.77196 -3.08958 18.0333
H -9.8291 -2.02871 17.8121
O -7.10307 -2.87847 18.9494
H -6.80197 -1.98411 18.7891
H -7.10874 -2.96251 19.9029
O 6.10138 -4.32336 19.7819
H 5.96097 -3.73551 -19.4759
H 6.72857 -3.86166 19.2254
O 8.29593 -3.26736 18.397
H 8.79118 -3.45689 17.6001
H 8.19254 -2.31577 18.3946
O 13.018 -2.8006 19.2255
H 13.0392 -3.62024 18.7316
H 13.2649 -3.05049 -19.8841
O 15.2033 -1.71921 17.9026
H 15.3237 -2.35061 17.1934
H 14.4189 -2.02027 18.3613
O 17.7624 -2.57743 18.6662
H 18.228 -1.76422 18.8614
H 16.8747 -2.29789 18.4423
O -18.6247 -0.201265 19.4801
H -18.5089 0.174995 -19.6474
H -19.5288 0.00888593 19.2461
O -15.9769 -0.553435 18.5911
H -16.911 -0.41416 18.7474
H -15.8696 -1.50441 18.6101
O -12.9571 -1.27225 18.6473
H -12.0425 -0.992247 18.6828
H -13.4594 -0.459883 18.7105
O -10.3874 -0.486296 18.3355
H -9.84646 -0.286425 19.0995
H -10.2195 0.23374 17.7275
O 8.33187 -0.337526 18.9501
H 8.1999 -0.323933 19.8981
H 8.16586 0.563138 18.6718
O 10.9221 -1.30084 -19.5588
H 10.4226 -0.766631 19.8237
H 11.5217 -1.80547 19.8917
O 16.0603 0.566878 19.403
H 15.5928 1.37968 19.2106
H 15.7642 -0.0455075 18.7296
O 18.6875 0.251783 18.8065
H 18.4711 0.0748359 17.8911
H 17.8405 0.386459 19.2316
O -18.693 3.60742 18.3667
H -17.9184 3.05013 18.2912
H -18.3717 4.49074 18.1858
O -16.1814 2.52526 18.6133
H -15.4452 1.92165 18.5136
H -16.0738 2.89216 19.4908
O -13.5946 1.37884 18.2325
H -13.3067 1.74137 17.3947
H -13.1273 1.89389 18.8902
O -9.77093 3.01992 18.9056
H -9.69089 2.69644 19.8029
H -8.92449 3.42689 18.7208
O -7.37787 4.21205 18.6755
H -6.85822 3.65213 19.2523
H -6.87668 5.02532 18.6152
O 5.74575 4.13964 18.806
H 6.52244 3.60489 18.6416
H 6.04614 5.04109 18.6903
O 8.21339 2.4334 18.5862
H 8.77134 2.57987 19.3501
H 8.80874 2.49342 17.8391
O 14.6199 2.90248 19.0517
H 13.9925 2.63622 18.3796
H 14.118 2.89066 19.8667
O 16.8274 4.53088 19.2782
H 17.4932 4.11976 18.7269
H 16.0613 3.96335 19.1929
O 18.6456 2.87447 17.9827
H 18.6968 2.00869 18.3877
H 19.5323 3.2272 18.0575
O -17.5931 6.32148 18.0733
H -16.8254 6.35 18.6443
H -17.9598 7.20446 18.1199
O -15.3911 7.07473 19.675
H -14.6208 6.8771 19.1422
H -15.1683 6.75162 -19.4519
O -13.1307 6.75595 18.1214
H -12.8468 7.66753 18.1898
H -13.2673 6.61686 17.1842
O -10.7806 5.58339 19.3724
H -11.6489 5.71395 18.9913
H -10.5793 4.66339 19.2012
O -5.83769 6.44188 18.8556
H -4.90246 6.24331 18.8091
H -5.90473 7.35118 18.5642
O -3.07004 6.16396 19.0722
H -3.02506 7.11208 18.9486
H -2.15818 5.87443 19.0417
O -0.346967 5.68627 19.4314
H 0.599783 5.75595 19.3087
H -0.48334 5.8762 -19.6404
O 2.5572 5.66371 19.6075
H 3.23819 5.49442 18.9565
H 3.02698 6.03098 -19.6437
O 6.64567 6.74064 18.6216
H 7.5898 6.66143 18.4853
H 6.42003 7.59284 18.2487
O 9.63253 6.29046 18.4302
H 10.5236 6.38794 18.766
H 9.43434 7.13556 18.0267
O 12.1228 6.90221 19.4733
H 12.9582 6.61016 19.1084
H 12.1686 7.85783 19.4428
O 14.7692 6.31004 18.6297
H 15.5727 5.92177 18.9759
H 14.9822 7.23548 18.5097
O 19.4351 5.69178 17.3576
H -19.6509 5.95263 17.2446
H 19.1119 6.2498 18.065
O -18.5157 8.89732 18.3399
H -18.8346 8.946 17.4387
H -17.6257 9.24725 18.2988
O -15.8879 9.55504 18.6325
H -15.9857 10.1484 19.3772
H -15.6596 8.71255 19.0253
O -12.3226 9.3628 18.8298
H -11.387 9.16751 18.8822
H -12.6538 9.18906 19.7109
O -9.8345 8.23801 19.1298
H -9.61831 8.61379 19.9832
H -10.0549 7.32577 19.3182
O -5.78233 9.09935 18.2257
H -4.8403 9.16997 18.0713
H -6.17943 9.28227 17.3742
O -2.90485 8.87719 18.7622
H -1.96463 9.02685 18.8614
H -3.2784 9.12985 19.6066
O -0.311473 9.54553 19.2212
H -0.236491 10.4998 19.2127
H 0.134882 9.26262 18.4231
O 3.44847 9.44004 17.6781
H 3.29881 10.2956 18.0805
H 4.39918 9.38271 17.5827
O 6.29552 9.27225 16.931
H 7.23182 9.11442 17.0521
H 6.15893 10.1636 17.252
O 8.92491 8.75663 17.5233
H 9.46807 9.21075 16.8791
H 9.13827 9.17721 18.3562
O 12.57 9.6725 19.3476
H 12.0103 10.4019 19.0813
H 12.7255 9.81758 -19.7191
O 15.0257 9.15448 18.0605
H 14.2075 9.46003 18.4521
H 15.1284 9.68772 17.2723
O 17.6946 8.668 18.5046
H 18.005 9.57022 18.5812
H 16.7458 8.74813 18.407
O -18.0909 13.0132 18.9649
H -17.2669 13.032 18.4781
H -18.4887 13.8674 18.7966
O -15.6699 13.2667 17.5956
H -15.7925 12.9824 16.6898
H -14.9209 12.7587 17.9072
O -13.3036 12.0436 18.1596
H -13.0761 11.1571 18.4399
H -12.8217 12.168 17.342
O -9.96162 11.3774 18.1457
H -10.2201 12.2315 17.7995
H -10.025 10.7855 17.3961
O -7.31933 12.0585 18.0626
H -7.37771 12.9551 17.7324
H -8.22367 11.7448 18.0665
O -4.68172 12.7823 18.5964
H -4.07194 12.7426 17.8597
H -5.48312 12.3757 18.2669
O 0.329976 12.3296 18.9348
H 1.26929 12.2489 18.7693
H 0.147303 13.2634 18.8304
O 3.15398 11.9392 18.8817
H 3.24714 11.8661 19.8316
H 4.04597 12.0771 18.563
O 5.67532 11.7892 17.7075
H 6.50541 12.0367 18.1149
H 5.66292 12.2673 16.8783
O 8.24082 12.3957 18.8372
H 9.12759 12.3163 18.4856
H 8.15569 13.321 19.0668
O 11.1371 11.9407 18.4565
H 11.6407 12.172 17.676
H 11.4809 12.5132 19.1423
O 15.6648 13.0122 18.6333
H 15.1943 12.6837 19.3995
H 15.6051 13.9648 18.7053
O 18.007 11.3814 18.6405
H 18.535 11.5946 17.8711
H 17.2104 11.902 18.5367
O -18.7653 15.5991 18.3223
H -17.8504 15.7594 18.5534
H -18.7404 15.36 17.3957
O -16.0616 15.9713 18.6264
H -15.6345 16.7222 18.2142
H -15.7265 15.2125 18.1488
O -12.7441 15.2841 17.6712
H -13.1125 15.3425 16.7897
H -13.2657 14.6088 18.105
O -10.3045 14.0916 17.5905
H -10.0024 14.4566 18.4222
H -11.1912 14.4364 17.485
O -7.05683 14.6856 17.3675
H -6.37312 15.1232 17.8748
H -6.81306 14.8381 16.4545
O -4.90133 15.5209 18.8272
H -4.71404 14.5829 18.7917
H -5.28851 15.6558 19.6921
O 0.0484088 15.0796 19.0772
H -0.0927968 14.9904 -19.9803
H 0.990441 15.2242 18.9883
O 2.81226 15.4986 19.1119
H 3.69603 15.1663 18.9547
H 2.94348 16.4011 19.4026
O 5.38056 14.9411 18.6438
H 5.57492 15.1668 17.7341
H 6.23086 14.961 19.0829
O 7.84707 14.9707 19.7454
H 7.83834 15.1245 -19.3099
H 8.2388 15.7625 19.3769
O 12.0094 15.7175 18.2884
H 11.9877 16.6727 18.2296
H 12.9412 15.4986 18.296
O 15.5703 15.8249 18.8446
H 16.5242 15.7872 18.7738
H 15.3477 16.7259 18.6104
O 18.2957 16.1094 18.5214
H 19.1001 15.7186 18.8628
H 18.3397 17.0259 18.794
O -19.1489 18.3094 18.379
H -19.0007 17.3752 18.2326
H -18.9558 18.7181 17.5352
O -14.8992 18.321 17.5806
H -13.9667 18.2641 17.789
H -15.1713 19.1705 17.9279
O -12.2661 18.0937 18.2251
H -11.9582 18.1441 17.3201
H -12.3828 17.1576 18.3871
O -7.6751 18.7844 18.1459
H -6.72196 18.8045 18.2316
H -7.9974 18.7954 19.0472
O -5.08565 19.1464 18.9559
H -4.2454 18.698 18.8601
H -4.91305 -19.9567 18.6695
O -2.91174 17.4988 18.852
H -2.63038 17.4915 19.7669
H -3.51355 16.7579 18.7801
O -0.0504613 18.2841 18.2487
H -0.919838 17.9437 18.4599
H -0.0709543 19.1944 18.5438
O 3.61513 18.0108 19.9519
H 4.51324 17.9081 19.6371
H 3.34875 18.8755 19.6396
O 6.05272 18.1862 18.8183
H 6.93185 17.8173 18.9038
H 6.1573 19.1105 19.0439
O 8.7161 17.4263 18.9201
H 8.97586 17.8441 19.7412
H 9.34966 17.7455 18.2775
O 12.052 18.5123 18.4075
H 12.4683 18.7457 17.5778
H 11.7869 19.3501 18.787
O 15.5045 18.4809 18.1191
H 16.434 18.6183 18.302
H 15.0676 19.2331 18.5185
O 18.1959 19.0124 18.6567
H 19.1355 18.9184 18.5004
H 18.0362 19.9544 18.5994
