ITEM: TIMESTEP
0
ITEM: NUMBER OF ATOMS
5541
ITEM: BOX BOUNDS pp pp pp
0.0 38.2
0.0 38.2
0.0 38.2
ITEM: ATOMS id type x y z
1 1 12.813 -24.685 -36.651
2 1 14.752 -29.875 -37.365
3 1 13.863 -25.090 -35.185
4 1 12.981 -20.299 -35.605
5 1 13.251 -23.440 -41.547
6 1 10.999 -21.392 -36.485
7 1 17.867 -22.314 -38.976
8 1 19.069 -21.160 -35.052
9 1 14.161 -16.368 -37.380
10 1 13.345 -23.375 -42.191
11 1 13.913 -24.254 -40.604
12 1 17.814 -20.349 -40.550
13 1 10.319 -24.336 -41.606
14 1 16.463 -25.586 -37.370
15 1 11.414 -22.876 -41.575
16 1 18.888 -24.864 -39.156
17 1 13.001 -26.970 -40.731
18 1 14.462 -26.188 -36.183
19 1 8.054 -26.567 -44.513
20 1 12.985 -19.987 -43.731
21 1 18.049 -27.868 -46.187
22 1 20.117 -22.749 -47.757
23 1 15.807 -25.777 -40.476
24 1 14.247 -19.852 -51.150
25 1 11.269 -26.602 -44.039
26 1 16.651 -27.122 -36.019
27 1 13.702 -28.232 -34.241
28 1 16.888 -28.375 -39.683
29 1 11.070 -28.628 -41.443
30 1 13.824 -31.477 -45.454
31 1 15.986 -24.774 -35.363
32 1 15.207 -23.161 -39.253
33 1 15.222 -25.454 -39.633
34 1 19.119 -29.403 -34.137
35 1 10.895 -20.584 -35.691
36 1 12.665 -25.682 -41.041
37 1 11.786 -30.941 -46.118
38 1 10.842 -24.985 -44.316
39 1 20.969 -31.065 -37.068
40 1 18.195 -33.105 -44.979
41 1 15.948 -29.103 -39.446
42 1 11.302 -29.791 -38.879
43 1 16.947 -30.027 -39.741
44 1 15.505 -27.781 -42.525
45 1 18.937 -26.219 -44.140
46 1 13.987 -25.344 -41.812
47 1 22.441 -23.929 -38.611
48 1 17.301 -18.338 -49.320
49 1 14.962 -28.926 -40.740
50 1 14.085 -20.337 -37.533
51 1 12.297 -20.164 -37.986
52 1 19.537 -23.979 -35.539
53 1 16.865 -24.716 -35.149
54 1 16.880 -20.795 -41.093
55 1 17.873 -17.180 -44.704
56 1 13.987 -24.589 -38.390
57 1 13.574 -26.961 -43.426
58 1 14.840 -27.902 -42.711
59 1 12.933 -27.505 -40.399
60 1 18.343 -27.905 -36.301
61 1 41.449 -22.856 -19.956
62 1 43.010 -21.040 -17.097
63 1 42.516 -23.260 -18.570
64 1 41.320 -27.546 -16.394
65 1 40.121 -22.313 -25.364
66 1 41.757 -24.740 -21.926
67 1 39.389 -22.644 -23.354
68 1 41.444 -24.372 -25.992
69 1 41.787 -20.956 -25.846
70 1 36.026 -25.750 -23.016
71 1 36.138 -23.441 -14.774
72 1 41.756 -23.057 -21.524
73 1 50.681 -18.425 -26.778
74 1 39.361 -25.508 -18.042
75 1 40.647 -19.699 -25.335
76 1 42.643 -18.180 -21.637
77 1 41.709 -24.212 -18.552
78 1 39.208 -20.074 -22.099
79 1 41.528 -24.444 -20.555
80 1 41.278 -22.577 -17.596
81 1 39.005 -23.404 -17.448
82 1 35.568 -16.185 -12.359
83 1 35.611 -19.270 -28.587
84 1 37.030 -16.148 -30.584
85 1 44.218 -21.484 -23.919
86 1 39.049 -24.062 -24.794
87 1 42.620 -22.944 -24.791
88 1 41.221 -22.326 -21.256
89 1 40.600 -24.780 -22.328
90 1 38.610 -23.174 -18.528
91 1 38.576 -17.017 -21.935
92 1 36.689 -22.533 -18.811
93 1 43.551 -22.519 -20.790
94 1 41.501 -17.336 -27.238
95 1 38.287 -27.891 -26.758
96 1 39.421 -16.433 -24.260
97 1 41.288 -20.177 -26.452
98 1 37.712 -19.372 -22.544
99 1 39.726 -18.145 -29.948
100 1 34.255 -19.584 -22.117
101 1 36.858 -18.901 -19.645
102 1 37.834 -10.066 -26.063
103 1 36.908 -17.195 -24.181
104 1 39.588 -20.332 -18.907
105 1 36.887 -23.509 -12.815
106 1 35.062 -17.466 -21.241
107 1 39.509 -20.193 -22.961
108 1 40.130 -19.328 -14.912
109 1 40.414 -16.176 -29.015
110 1 38.050 -22.650 -18.361
111 1 38.525 -22.745 -23.920
112 1 36.935 -15.836 -19.222
113 1 43.509 -18.277 -26.639
114 1 37.186 -19.254 -20.505
115 1 39.850 -19.426 -16.358
116 1 44.657 -13.661 -18.925
117 1 38.217 -12.146 -23.039
118 1 41.897 -17.809 -26.094
119 1 43.806 -14.228 -21.720
120 1 38.879 -17.391 -19.309
121 1 17.885 -4.504 -18.862
122 1 13.908 -3.395 -19.224
123 1 10.268 -3.743 -23.733
124 1 15.301 3.211 -22.189
125 1 11.202 2.500 -21.456
126 1 16.077 -3.849 -27.228
127 1 13.893 -6.925 -14.876
128 1 11.239 -5.888 -31.007
129 1 15.577 -0.924 -22.808
130 1 13.809 -1.959 -15.293
131 1 13.371 0.427 -20.255
132 1 16.556 -4.506 -15.698
133 1 16.837 -7.272 -26.503
134 1 14.575 -2.314 -19.633
135 1 18.060 -3.167 -24.783
136 1 15.345 -0.584 -15.665
137 1 13.901 0.177 -26.977
138 1 16.296 -9.136 -17.557
139 1 13.323 -2.039 -23.664
140 1 11.825 -7.033 -16.622
141 1 17.812 -0.177 -26.252
142 1 11.180 -4.244 -25.951
143 1 16.622 -3.453 -26.848
144 1 17.582 -5.757 -21.738
145 1 13.509 -4.539 -17.758
146 1 15.789 -4.063 -19.077
147 1 16.719 -7.303 -16.480
148 1 16.294 -4.454 -22.030
149 1 18.591 -2.052 -25.099
150 1 13.905 -5.076 -25.344
151 1 17.937 -8.382 -22.883
152 1 17.212 -4.078 -31.756
153 1 12.272 -2.789 -11.341
154 1 20.156 -3.445 -23.714
155 1 14.513 -0.350 -17.320
156 1 11.186 -2.615 -26.957
157 1 16.168 -6.293 -20.391
158 1 11.410 -10.064 -18.533
159 1 14.025 -6.600 -18.487
160 1 17.606 -4.020 -27.924
161 1 13.581 -8.955 -23.731
162 1 17.203 -3.789 -19.616
163 1 13.183 0.696 -21.847
164 1 13.006 -10.212 -23.085
165 1 15.896 0.676 -35.684
166 1 16.159 0.447 -22.473
167 1 16.617 1.687 -23.805
168 1 17.990 -8.605 -18.121
169 1 13.837 -11.200 -18.789
170 1 13.212 -1.104 -19.373
171 1 17.695 -0.999 -12.907
172 1 19.707 -11.131 -20.522
173 1 18.122 -4.835 -18.715
174 1 15.817 -4.016 -16.143
175 1 14.475 0.080 -15.981
176 1 15.709 -5.777 -21.035
177 1 12.778 -4.699 -21.583
178 1 15.599 -7.926 -29.321
179 1 14.187 -9.205 -13.886
180 1 13.992 -4.352 -18.079
181 1 8.151 -19.872 -4.555
182 1 6.197 -12.426 -8.232
183 1 6.881 -1.523 -2.177
184 1 -37.610 -24.735 19.627
185 1 -34.555 -29.289 16.962
186 1 -33.253 -22.704 22.868
187 1 -12.659 43.626 34.067
188 1 -12.080 38.794 27.874
189 1 -12.052 43.848 35.449
190 1 19.483 35.143 -24.798
191 1 20.363 42.029 -32.979
192 1 18.619 35.457 -34.144
193 1 -7.696 -19.366 0.957
194 1 -1.848 -20.824 13.404
195 1 -7.984 -11.658 9.737
196 1 -25.357 -6.792 -21.065
197 1 -23.216 -2.321 -27.122
198 1 -23.907 -6.647 -27.993
199 1 19.684 -24.329 -3.080
200 1 20.991 -23.925 0.836
201 1 14.804 -30.295 -0.939
202 1 28.967 4.903 49.155
203 1 23.654 -0.529 38.624
204 1 19.210 5.303 44.153
205 1 11.884 15.594 10.501
206 1 6.700 15.569 6.959
207 1 8.294 20.090 18.539
208 1 33.469 6.211 25.618
209 1 32.330 4.584 18.967
210 1 35.517 2.468 25.968
211 1 36.731 -25.973 14.419
212 1 35.321 -24.582 14.020
213 1 32.949 -25.086 6.443
214 1 68.986 38.268 18.907
215 1 60.616 41.796 13.523
216 1 65.549 44.753 9.778
217 1 44.048 17.192 50.026
218 1 46.418 13.531 48.757
219 1 45.879 15.834 48.818
220 1 -20.286 17.860 3.800
221 1 -23.715 20.066 -2.522
222 1 -14.320 18.878 0.911
223 1 -8.716 -38.373 -1.491
224 1 -7.220 -28.388 -12.247
225 1 -4.128 -33.629 -9.111
226 1 9.643 -13.915 33.246
227 1 4.247 -21.365 31.907
228 1 6.729 -13.899 30.751
229 1 22.522 7.090 -9.283
230 1 24.283 4.117 0.635
231 1 21.907 2.101 -1.077
232 1 23.566 44.862 25.963
233 1 21.708 45.197 27.375
234 1 20.473 43.239 22.068
235 1 -5.480 22.224 8.109
236 1 -6.652 25.548 14.377
237 1 -2.096 25.623 7.965
238 1 9.254 33.270 1.078
239 1 5.842 37.169 7.250
240 1 5.941 31.070 -3.311
241 1 12.153 -30.393 -13.584
242 1 14.007 -36.492 -15.134
243 1 13.934 -36.273 -9.435
244 1 5.868 -7.987 9.235
245 1 12.416 -6.912 15.898
246 1 11.166 -9.996 13.945
247 1 34.554 34.023 0.645
248 1 33.810 35.039 -5.502
249 1 31.960 36.320 -9.257
250 1 73.718 -3.865 1.611
251 1 65.983 1.164 -5.593
252 1 74.500 -6.290 -2.511
253 1 6.523 -17.931 6.524
254 1 8.015 -21.419 10.832
255 1 8.697 -26.035 3.646
256 1 5.726 -1.355 43.955
257 1 7.180 4.245 40.494
258 1 4.146 -1.303 35.489
259 1 -15.838 33.848 -10.867
260 1 -13.685 32.880 -5.553
261 1 -11.006 37.961 -11.133
262 1 36.429 30.464 -29.838
263 1 36.940 29.121 -28.665
264 1 38.122 29.749 -25.231
265 1 -16.047 10.984 -9.927
266 1 -7.864 10.435 -10.029
267 1 -7.714 14.228 -11.130
268 1 -26.806 63.626 30.772
269 1 -29.624 66.106 28.061
270 1 -28.492 64.982 24.456
271 1 -14.574 -14.654 15.966
272 1 -15.594 -21.627 18.626
273 1 -14.191 -16.175 20.255
274 1 23.862 -5.328 -20.646
275 1 24.718 -6.512 -15.691
276 1 24.561 -9.180 -28.399
277 1 13.372 7.311 -10.857
278 1 10.215 3.486 -8.903
279 1 14.377 9.022 -7.737
280 1 0.785 60.153 -5.643
281 1 -3.539 66.392 -9.049
282 1 -4.387 52.395 -5.521
283 1 25.136 16.821 -18.372
284 1 24.724 18.249 -16.831
285 1 30.572 13.589 -21.945
286 1 12.378 -16.328 35.560
287 1 7.815 -13.297 34.184
288 1 9.266 -13.934 30.654
289 1 45.414 -10.665 36.329
290 1 46.015 -12.295 31.293
291 1 53.191 -13.196 28.310
292 1 52.888 1.855 25.630
293 1 52.277 -0.740 26.786
294 1 52.501 -3.650 26.246
295 1 37.151 29.523 -1.346
296 1 34.833 27.566 -3.435
297 1 36.578 29.733 -1.049
298 1 -24.735 39.527 2.148
299 1 -21.643 35.862 -4.809
300 1 -18.356 37.122 1.921
301 1 -9.457 -16.058 -3.624
302 1 -9.536 -20.430 0.694
303 1 -11.921 -19.610 -1.851
304 1 1.140 -28.649 -13.181
305 1 -0.634 -29.513 -15.140
306 1 -5.166 -24.499 -10.833
307 1 -23.500 16.618 6.758
308 1 -22.383 19.177 2.987
309 1 -21.796 23.547 1.928
310 1 25.179 17.097 -29.056
311 1 24.545 15.752 -22.102
312 1 22.655 13.585 -20.086
313 1 21.562 4.667 -2.796
314 1 26.820 2.962 1.209
315 1 20.961 4.572 1.375
316 1 25.986 -24.972 19.320
317 1 32.437 -26.157 21.846
318 1 31.531 -27.445 12.123
319 1 21.403 3.598 4.625
320 1 24.415 6.849 2.292
321 1 20.202 3.378 11.033
322 1 35.571 -7.588 21.262
323 1 29.965 -6.565 21.359
324 1 34.537 -4.679 20.136
325 1 14.918 12.685 8.404
326 1 11.416 7.615 9.420
327 1 14.347 6.488 8.864
328 1 8.184 10.832 -15.675
329 1 6.125 4.736 -13.777
330 1 7.619 6.602 -18.476
331 1 17.302 -27.535 -22.015
332 1 17.107 -31.644 -20.975
333 1 16.281 -29.096 -26.588
334 1 30.013 37.990 4.627
335 1 31.228 39.371 3.119
336 1 31.343 41.233 4.833
337 1 -29.249 33.643 5.038
338 1 -28.335 37.047 8.781
339 1 -28.745 34.295 4.373
340 1 -11.402 21.841 38.685
341 1 -11.721 19.766 51.426
342 1 -12.715 26.697 42.236
343 1 8.010 15.311 1.294
344 1 8.124 16.835 -1.697
345 1 10.967 14.068 -1.790
346 1 6.846 26.287 21.963
347 1 6.497 27.200 16.781
348 1 4.665 22.918 21.379
349 1 37.217 -8.761 -12.635
350 1 42.894 -8.522 -14.515
351 1 37.644 -10.978 -16.885
352 1 60.363 5.845 3.380
353 1 55.658 -2.443 1.301
354 1 54.821 4.603 1.706
355 1 -6.762 42.317 17.326
356 1 -5.220 42.311 17.300
357 1 -6.814 35.631 22.186
358 1 42.558 -20.461 -16.321
359 1 39.944 -20.663 -7.272
360 1 41.692 -21.903 -21.139
361 1 -1.775 25.803 26.926
362 1 -6.045 19.103 31.960
363 1 -4.417 22.541 33.120
364 1 -2.453 22.879 9.591
365 1 -0.752 27.380 12.404
366 1 -0.045 27.395 14.204
367 1 40.532 38.958 -5.460
368 1 39.104 35.657 -14.404
369 1 34.875 32.414 -5.999
370 1 63.999 11.398 50.346
371 1 59.682 6.005 54.523
372 1 60.717 8.182 48.399
373 1 35.909 16.497 18.373
374 1 31.948 6.651 14.837
375 1 32.195 9.596 11.363
376 1 -15.381 48.742 -9.753
377 1 -16.588 54.932 -19.920
378 1 -24.330 44.779 -13.874
379 1 -5.782 4.461 -3.306
380 1 0.534 4.638 3.752
381 1 -3.287 -2.030 -4.999
382 1 24.468 9.212 6.676
383 1 24.229 4.274 7.038
384 1 25.436 4.209 9.565
385 1 21.508 33.227 -1.566
386 1 17.085 36.609 10.329
387 1 18.769 39.087 13.248
388 1 -16.693 20.175 1.663
389 1 -10.964 11.604 -2.593
390 1 -11.760 19.214 1.762
391 1 24.512 25.430 -2.562
392 1 24.170 30.824 -0.514
393 1 23.050 27.893 -13.061
394 1 9.602 77.635 11.270
395 1 3.870 70.833 15.575
396 1 5.871 79.032 12.078
397 1 38.194 65.893 -20.617
398 1 38.264 58.930 -24.001
399 1 36.784 59.759 -19.965
400 1 13.592 38.611 42.237
401 1 13.424 35.920 54.485
402 1 14.450 33.661 47.693
403 1 -5.059 22.694 -7.660
404 1 -4.780 20.183 -1.918
405 1 -0.527 26.132 -16.343
406 1 39.465 26.654 -14.053
407 1 36.344 26.881 -15.567
408 1 34.798 21.891 -13.821
409 1 31.557 -5.745 -13.088
410 1 28.878 2.637 -8.911
411 1 27.204 4.247 -5.515
412 1 43.866 -7.280 -21.908
413 1 50.847 -13.026 -24.738
414 1 44.303 -8.279 -19.494
415 1 -8.098 -25.641 -2.498
416 1 -5.404 -28.850 -0.605
417 1 -3.611 -20.690 2.340
418 1 -8.750 29.084 14.900
419 1 -12.007 34.490 9.447
420 1 -8.002 29.473 8.290
421 1 -7.841 67.922 11.713
422 1 -2.810 62.556 12.792
423 1 -7.793 56.548 16.893
424 1 33.347 -22.747 19.884
425 1 36.790 -24.483 16.091
426 1 31.859 -21.256 11.474
427 1 -31.907 61.736 8.737
428 1 -25.364 59.840 14.560
429 1 -26.277 56.911 17.057
430 1 36.297 -0.713 21.004
431 1 40.745 1.004 16.410
432 1 39.043 0.161 22.061
433 1 38.005 -0.126 37.906
434 1 41.244 1.115 36.995
435 1 34.836 2.424 32.638
436 1 -14.212 17.510 31.483
437 1 -9.095 11.445 35.458
438 1 -12.247 16.359 29.835
439 1 4.119 25.064 -34.794
440 1 1.278 34.161 -40.738
441 1 4.524 27.498 -37.886
442 1 4.606 35.005 37.996
443 1 2.481 30.703 36.816
444 1 3.664 28.744 39.118
445 1 22.651 26.681 0.268
446 1 20.101 27.315 -4.304
447 1 18.719 22.047 -0.981
448 1 -2.023 22.973 -34.635
449 1 0.955 20.029 -32.619
450 1 1.169 24.822 -39.824
451 1 24.535 66.612 26.331
452 1 28.144 63.940 20.404
453 1 29.296 62.471 20.851
454 1 13.197 -10.543 11.865
455 1 18.279 -13.588 8.834
456 1 15.612 -10.283 8.449
457 1 31.145 57.827 7.618
458 1 29.242 61.964 10.968
459 1 32.909 62.146 8.177
460 1 -10.351 23.803 -15.850
461 1 -5.901 34.041 -11.950
462 1 -9.995 29.811 -6.217
463 1 -12.718 36.617 20.390
464 1 -19.631 34.060 25.737
465 1 -11.390 28.032 14.506
466 1 -0.625 -50.523 -17.416
467 1 5.938 -44.455 -17.039
468 1 2.441 -40.867 -9.579
469 1 15.514 5.348 -5.934
470 1 7.294 5.779 -0.806
471 1 6.943 4.676 -8.351
472 1 4.972 2.907 12.150
473 1 9.639 2.560 0.234
474 1 1.201 3.153 3.565
475 1 1.894 1.965 66.316
476 1 5.349 3.057 67.166
477 1 5.958 6.845 64.209
478 1 27.075 27.473 1.589
479 1 33.052 29.269 -2.590
480 1 27.936 32.560 -3.105
481 1 1.743 12.669 22.027
482 1 1.410 17.520 20.024
483 1 -2.225 14.975 22.293
484 1 21.449 40.949 -0.490
485 1 19.947 41.908 2.431
486 1 17.304 38.219 0.143
487 1 16.687 32.458 -5.325
488 1 18.352 33.069 -4.414
489 1 14.252 32.158 2.153
490 1 35.878 56.467 -5.827
491 1 29.065 62.960 -0.956
492 1 35.705 59.754 1.404
493 1 26.712 16.810 4.193
494 1 19.664 9.151 3.229
495 1 24.185 10.652 1.267
496 1 -33.883 14.519 5.803
497 1 -34.884 17.515 6.000
498 1 -41.193 17.487 5.770
499 1 -32.687 19.885 9.977
500 1 -36.840 26.201 15.772
501 1 -33.571 21.075 8.378
502 1 17.799 16.991 8.392
503 1 17.315 17.039 6.882
504 1 19.300 20.068 9.123
505 1 23.754 4.720 -25.089
506 1 19.572 13.371 -26.505
507 1 20.824 14.093 -22.962
508 1 21.773 55.953 -2.289
509 1 27.418 55.466 4.006
510 1 25.199 51.992 -6.042
511 1 3.427 40.563 37.867
512 1 1.814 38.948 39.588
513 1 5.986 42.597 33.690
514 1 3.187 46.824 -2.799
515 1 5.321 48.263 -0.296
516 1 5.811 43.275 -6.591
517 1 10.190 51.386 47.766
518 1 17.177 45.246 48.248
519 1 16.930 49.489 41.274
520 1 47.263 6.223 22.603
521 1 48.995 8.616 27.778
522 1 47.943 5.068 30.381
523 1 -6.524 24.192 34.453
524 1 0.936 27.303 34.822
525 1 -6.665 22.405 32.387
526 1 4.453 7.720 22.607
527 1 6.435 -0.388 22.653
528 1 3.155 1.327 25.896
529 1 26.111 9.115 -0.853
530 1 23.696 11.086 -3.863
531 1 25.058 18.560 -5.458
532 1 31.335 50.375 -18.052
533 1 22.865 62.891 -20.320
534 1 21.010 57.588 -15.518
535 1 32.356 51.861 -22.265
536 1 40.430 57.037 -22.813
537 1 37.182 59.500 -16.907
538 1 0.035 8.020 11.182
539 1 1.400 -1.784 13.041
540 1 4.732 0.815 14.061
541 1 28.937 29.622 28.378
542 1 27.782 34.690 33.112
543 1 30.387 32.832 27.818
544 1 -0.330 34.896 15.644
545 1 2.894 31.695 18.376
546 1 -0.112 32.541 16.087
547 1 -16.523 -8.000 1.127
548 1 -10.242 -13.753 3.332
549 1 -10.845 -9.612 3.657
550 1 39.165 51.693 4.750
551 1 34.972 51.155 5.217
552 1 36.830 46.858 -0.418
553 1 10.235 8.934 19.011
554 1 7.982 9.123 21.324
555 1 5.365 17.971 20.335
556 1 2.800 44.604 -29.350
557 1 -1.113 37.786 -22.750
558 1 -2.132 45.215 -24.597
559 1 -6.982 28.400 -1.424
560 1 -7.710 18.077 -9.557
561 1 -7.246 21.677 -4.803
562 1 9.657 31.873 24.931
563 1 12.553 36.839 26.534
564 1 9.030 36.413 23.767
565 1 16.744 102.999 19.514
566 1 14.655 103.829 7.688
567 1 17.111 104.339 14.370
568 1 11.487 55.295 -6.802
569 1 13.556 57.202 -11.696
570 1 17.392 56.305 -13.313
571 1 15.560 49.808 1.474
572 1 15.241 56.421 1.616
573 1 12.201 54.969 9.692
574 1 2.363 50.984 16.863
575 1 -2.785 49.135 17.838
576 1 -1.421 45.674 18.197
577 1 -16.801 28.322 33.270
578 1 -13.362 31.252 21.260
579 1 -17.699 27.399 26.385
580 1 27.931 -21.419 27.541
581 1 32.922 -18.221 31.217
582 1 31.822 -15.728 27.743
583 1 -6.105 9.036 39.857
584 1 -4.008 7.273 39.707
585 1 -2.045 5.392 37.353
586 1 -5.989 23.229 -8.598
587 1 -3.555 25.710 -2.142
588 1 -2.215 25.184 -9.954
589 1 53.940 56.278 17.601
590 1 51.895 60.844 14.747
591 1 52.760 60.428 16.197
592 1 23.318 3.886 -6.887
593 1 30.908 0.756 0.506
594 1 23.436 5.506 1.119
595 1 29.977 47.823 -18.912
596 1 26.810 44.485 -8.318
597 1 26.540 46.752 -19.456
598 1 41.893 -0.403 0.728
599 1 43.847 -3.340 -2.722
600 1 39.612 -7.061 -14.279
601 1 26.426 75.332 28.710
602 1 28.778 77.615 26.920
603 1 30.857 71.508 25.329
604 1 45.480 -7.411 -16.658
605 1 45.317 -5.252 -9.362
606 1 44.323 -1.929 -15.818
607 1 41.227 30.649 22.527
608 1 39.171 29.025 32.660
609 1 36.735 25.873 20.680
610 1 -10.875 12.869 -58.018
611 1 -9.469 17.562 -57.911
612 1 -9.010 6.931 -58.015
613 1 14.472 41.354 12.353
614 1 17.808 45.776 12.655
615 1 20.835 41.818 4.959
616 1 32.518 56.121 -22.990
617 1 29.129 52.103 -17.897
618 1 31.442 55.370 -13.940
619 1 32.288 3.263 -8.843
620 1 33.144 -2.574 2.433
621 1 32.437 4.594 0.551
622 1 21.791 64.118 20.857
623 1 20.502 65.360 33.932
624 1 20.645 64.202 28.781
625 1 39.001 14.316 -11.729
626 1 35.207 15.434 -13.725
627 1 35.978 16.565 -8.874
628 1 20.277 61.858 7.375
629 1 19.559 54.498 9.470
630 1 14.619 62.917 11.008
631 1 -8.377 61.470 -0.464
632 1 -8.546 52.381 4.221
633 1 -12.831 53.324 9.666
634 1 33.924 25.345 0.968
635 1 38.836 26.372 12.180
636 1 38.696 24.256 6.289
637 1 27.926 50.149 32.659
638 1 25.548 48.816 29.160
639 1 26.163 49.310 30.871
640 1 32.432 71.311 -2.287
641 1 37.094 74.337 -3.129
642 1 34.892 72.342 -7.162
643 1 66.942 24.727 17.832
644 1 56.930 21.295 19.586
645 1 56.430 19.238 16.811
646 1 26.356 -13.055 13.716
647 1 25.253 -7.195 19.251
648 1 23.192 -7.169 15.617
649 1 6.904 43.819 -12.954
650 1 4.846 40.571 -10.116
651 1 5.187 44.586 -7.565
652 1 19.979 45.935 -31.609
653 1 21.618 49.979 -26.068
654 1 21.925 50.664 -30.887
655 1 -11.963 45.784 -23.056
656 1 -8.308 52.803 -17.367
657 1 -4.634 52.542 -14.949
658 1 21.557 68.318 7.078
659 1 20.772 66.696 12.663
660 1 22.886 66.081 9.575
661 1 -7.741 18.528 -9.167
662 1 -11.238 16.217 -7.980
663 1 -9.177 19.116 -5.967
664 1 -1.098 18.219 -32.247
665 1 -6.190 23.266 -33.221
666 1 -4.831 23.329 -43.383
667 1 43.927 28.974 -1.708
668 1 42.619 28.229 3.116
669 1 42.633 30.703 -13.749
670 1 11.305 77.886 44.787
671 1 3.177 76.363 45.075
672 1 7.961 76.132 37.054
673 1 16.885 23.966 -12.156
674 1 20.281 32.233 -14.887
675 1 18.254 25.329 -8.629
676 1 46.301 12.883 46.504
677 1 42.282 14.834 46.463
678 1 42.516 15.440 49.952
679 1 -14.246 24.387 14.873
680 1 -12.444 32.907 10.068
681 1 -9.662 28.569 12.252
682 1 22.657 38.147 -0.870
683 1 24.418 42.384 -7.377
684 1 21.156 37.972 -11.013
685 1 -5.115 47.487 -6.857
686 1 -0.431 42.013 -6.750
687 1 -3.486 47.654 -1.487
688 1 -12.370 -19.268 2.896
689 1 -15.551 -18.228 8.837
690 1 -14.570 -18.771 5.284
691 1 -28.160 14.995 28.987
692 1 -25.617 13.421 28.491
693 1 -23.447 5.218 29.558
694 1 33.438 3.103 23.514
695 1 32.555 3.087 21.622
696 1 29.109 -2.699 21.727
697 1 -0.169 48.661 -1.959
698 1 3.609 55.844 -3.375
699 1 -0.082 57.524 -5.554
700 1 -14.868 1.691 -17.304
701 1 -17.954 6.448 -12.561
702 1 -10.686 3.136 -10.914
703 1 10.578 15.699 40.631
704 1 7.123 19.923 44.227
705 1 9.207 15.119 43.015
706 1 -11.877 -14.864 10.843
707 1 -17.541 -14.919 9.501
708 1 -10.252 -10.346 21.674
709 1 26.862 -30.350 -3.907
710 1 31.188 -30.398 -2.356
711 1 28.739 -29.343 6.643
712 1 -3.420 42.051 -20.706
713 1 3.139 46.419 -12.856
714 1 1.065 44.604 -19.333
715 1 39.009 12.920 -14.917
716 1 41.450 7.398 -14.368
717 1 46.047 7.918 -23.311
718 1 35.122 -37.557 10.687
719 1 39.291 -36.947 10.648
720 1 39.069 -44.270 12.748
721 1 38.591 41.423 2.030
722 1 39.074 38.526 -3.991
723 1 37.400 31.278 6.854
724 1 1.388 51.365 -26.178
725 1 1.097 49.904 -27.476
726 1 11.701 53.176 -31.985
727 1 -42.100 -3.892 -6.414
728 1 -42.154 1.120 -7.138
729 1 -36.079 -1.781 -14.646
730 1 22.924 12.230 3.525
731 1 20.933 19.935 4.342
732 1 26.998 19.656 5.009
733 1 20.755 7.999 18.263
734 1 18.540 9.653 21.371
735 1 25.381 5.047 18.790
736 1 1.894 32.159 4.683
737 1 8.102 22.214 -3.362
738 1 6.406 27.912 -3.611
739 1 -5.991 -4.173 43.993
740 1 -6.801 -6.561 41.507
741 1 -6.444 1.662 42.267
742 1 41.851 -44.334 38.132
743 1 33.733 -45.312 40.555
744 1 40.091 -37.942 38.486
745 1 61.644 36.858 24.118
746 1 65.553 34.347 26.280
747 1 60.808 36.818 24.032
748 1 -24.871 -13.580 26.447
749 1 -31.585 -17.320 24.059
750 1 -32.589 -15.151 23.759
751 1 18.681 -6.371 17.117
752 1 18.345 -6.333 16.561
753 1 14.749 -6.342 20.267
754 1 14.151 -19.308 8.787
755 1 15.785 -22.595 3.961
756 1 16.067 -27.912 4.467
757 1 7.256 11.616 18.362
758 1 12.623 16.489 20.976
759 1 7.181 13.830 17.038
760 1 33.818 41.842 5.746
761 1 35.399 47.606 13.662
762 1 29.530 41.441 4.545
763 1 38.098 -16.140 -4.649
764 1 35.540 -13.057 -1.152
765 1 38.504 -11.931 -0.729
766 1 -20.883 -18.340 23.226
767 1 -24.139 -13.527 28.593
768 1 -21.492 -25.626 20.475
769 1 76.345 -0.456 -0.417
770 1 73.479 0.745 -2.293
771 1 77.350 -4.170 -0.559
772 1 7.331 40.036 -15.251
773 1 9.437 40.270 -12.608
774 1 12.065 42.184 -13.264
775 1 25.435 22.366 13.006
776 1 28.912 19.340 11.291
777 1 25.838 16.608 17.447
778 1 29.528 22.346 2.535
779 1 30.794 20.122 2.830
780 1 29.875 22.146 0.327
781 1 -11.766 -15.482 5.514
782 1 -16.668 -16.728 9.543
783 1 -13.479 -14.947 6.566
784 1 15.453 -0.839 6.243
785 1 11.555 -6.189 3.871
786 1 15.316 -10.812 2.685
787 1 -17.375 28.931 13.617
788 1 -12.770 30.075 17.748
789 1 -16.787 30.197 17.709
790 1 20.732 -44.970 -3.516
791 1 26.560 -47.215 -6.963
792 1 24.718 -44.134 -2.416
793 1 18.700 16.535 16.677
794 1 20.216 15.678 9.274
795 1 19.961 13.364 17.346
796 1 52.076 16.585 48.110
797 1 50.995 12.123 48.569
798 1 47.722 11.430 49.640
799 1 35.492 18.055 -3.034
800 1 34.940 14.583 -8.470
801 1 36.542 13.537 -8.683
802 1 35.993 44.289 10.173
803 1 30.155 43.496 13.201
804 1 35.740 43.377 10.065
805 1 12.520 -40.394 5.566
806 1 9.353 -34.467 3.078
807 1 3.753 -36.275 1.275
808 1 4.502 55.737 -19.578
809 1 2.717 51.799 -17.218
810 1 0.690 60.479 -17.546
811 1 -5.792 13.745 6.725
812 1 -3.057 20.892 5.260
813 1 -4.188 13.068 5.791
814 1 19.085 11.436 2.755
815 1 16.227 13.440 5.858
816 1 17.415 15.070 7.753
817 1 -22.005 -4.444 38.629
818 1 -18.680 3.073 38.781
819 1 -25.449 -4.125 28.864
820 1 2.749 38.371 42.521
821 1 6.676 37.535 45.606
822 1 2.647 37.970 43.232
823 1 50.308 -4.461 4.669
824 1 56.019 -2.964 9.689
825 1 58.404 -7.086 5.609
826 1 42.328 27.227 12.131
827 1 47.348 20.863 7.769
828 1 47.932 25.294 19.832
829 1 62.223 13.842 70.941
830 1 56.333 15.801 75.027
831 1 59.605 11.736 64.070
832 1 6.337 4.248 -11.764
833 1 1.503 10.713 -10.206
834 1 -1.298 4.507 -7.464
835 1 14.146 3.925 -1.588
836 1 12.741 1.602 -5.831
837 1 14.559 1.239 0.394
838 1 16.266 3.327 -0.555
839 1 17.129 15.478 -1.840
840 1 12.738 8.390 4.189
841 1 9.438 -8.114 20.959
842 1 3.726 -4.612 23.415
843 1 11.862 -2.098 25.036
844 1 2.257 -14.846 7.815
845 1 -3.365 -18.068 5.047
846 1 -6.485 -17.085 8.138
847 1 20.447 28.422 24.011
848 1 15.016 27.738 36.246
849 1 18.096 31.008 38.526
850 1 -21.078 46.039 43.296
851 1 -23.195 44.472 45.495
852 1 -26.967 51.212 41.886
853 1 22.226 30.658 -8.377
854 1 24.892 33.745 -7.925
855 1 19.644 30.624 -7.678
856 1 21.815 -1.452 -1.263
857 1 18.957 0.069 1.844
858 1 16.044 -2.168 8.285
859 1 14.454 -27.759 -41.794
860 1 12.095 -32.247 -36.636
861 1 14.748 -33.202 -26.534
862 1 51.050 -2.461 -12.588
863 1 54.790 -1.288 -7.158
864 1 55.584 8.296 -15.858
865 1 44.896 16.131 24.103
866 1 38.719 11.984 27.092
867 1 45.241 20.411 15.877
868 1 44.845 -3.391 -13.369
869 1 43.622 6.096 -13.590
870 1 45.587 -4.671 -15.788
871 1 30.287 -9.861 7.915
872 1 31.660 -6.088 8.895
873 1 28.999 -9.230 0.101
874 1 11.191 21.349 -13.161
875 1 11.701 15.521 -17.031
876 1 13.061 14.943 -4.767
877 1 38.847 40.776 16.992
878 1 41.728 47.297 24.194
879 1 42.161 41.066 23.829
880 1 19.817 41.161 -13.286
881 1 26.622 39.062 -19.461
882 1 22.769 40.894 -21.557
883 1 -22.977 -5.760 -8.203
884 1 -17.407 -11.216 -8.116
885 1 -16.221 -8.753 -4.528
886 1 -21.281 1.039 12.447
887 1 -20.668 -4.300 11.879
888 1 -26.028 -6.391 14.076
889 1 30.636 30.411 10.233
890 1 27.174 31.631 8.197
891 1 25.687 35.933 9.138
892 1 -16.176 -23.624 0.294
893 1 -15.546 -29.744 -11.192
894 1 -13.312 -32.913 -7.901
895 1 17.274 57.163 17.482
896 1 19.369 58.031 22.543
897 1 23.698 60.074 19.701
898 1 40.088 77.063 24.992
899 1 41.935 80.037 23.374
900 1 44.195 71.211 27.768
901 1 7.021 44.803 -4.721
902 1 -1.034 40.651 -11.128
903 1 7.553 42.034 -7.499
904 1 46.760 29.861 -5.279
905 1 38.019 35.182 -2.735
906 1 43.633 36.514 2.051
907 1 53.806 1.924 0.686
908 1 49.527 4.471 -0.981
909 1 47.847 5.387 5.217
910 1 26.385 -25.246 47.660
911 1 23.554 -31.966 45.568
912 1 17.859 -30.402 48.849
913 1 45.583 53.009 34.571
914 1 44.800 57.145 33.305
915 1 46.609 53.304 32.435
916 1 31.672 37.620 -21.857
917 1 37.956 39.060 -24.805
918 1 37.017 40.254 -23.585
919 1 34.828 10.423 8.867
920 1 34.459 26.454 15.066
921 1 36.106 20.075 12.556
922 1 40.960 -15.401 22.464
923 1 42.368 -18.077 30.800
924 1 49.962 -14.790 15.898
925 1 -33.509 36.008 17.124
926 1 -37.017 28.786 12.050
927 1 -34.454 37.041 18.769
928 1 42.401 2.621 -23.354
929 1 44.464 3.566 -24.071
930 1 44.292 1.731 -17.818
931 1 -1.225 -2.856 23.140
932 1 -3.561 3.783 24.943
933 1 -1.620 -4.299 22.844
934 1 -5.566 17.851 -42.529
935 1 1.875 12.706 -40.034
936 1 1.671 15.381 -32.416
937 1 22.217 46.559 37.461
938 1 18.517 48.293 29.947
939 1 22.300 45.530 31.558
940 1 -0.522 5.426 46.070
941 1 -0.412 3.538 39.944
942 1 -5.683 1.821 44.768
943 1 0.109 18.523 21.341
944 1 -3.812 18.769 23.562
945 1 -3.123 21.035 21.712
946 1 50.851 19.114 44.008
947 1 54.269 10.517 44.915
948 1 47.887 23.904 41.450
949 1 -0.254 2.527 18.878
950 1 -0.351 -6.675 18.777
951 1 -1.679 -2.726 19.759
952 1 43.708 10.702 14.034
953 1 45.300 13.396 30.041
954 1 41.167 16.615 20.848
955 1 27.277 43.092 24.301
956 1 22.542 42.263 23.213
957 1 25.937 42.033 21.265
958 1 34.055 7.091 23.681
959 1 35.394 14.433 20.108
960 1 36.845 13.210 23.975
961 1 20.999 0.260 38.163
962 1 19.928 -7.365 37.581
963 1 20.488 -2.405 33.118
964 1 -2.257 7.842 60.848
965 1 -2.687 2.971 63.811
966 1 -5.095 9.444 60.897
967 1 32.178 29.113 -17.306
968 1 33.444 29.863 -19.022
969 1 27.407 40.697 -12.555
970 1 6.279 41.484 5.656
971 1 4.221 41.069 10.560
972 1 1.817 36.580 7.603
973 1 18.151 67.331 -3.880
974 1 21.292 73.909 -7.679
975 1 19.593 68.412 0.849
976 1 -0.701 22.974 -15.077
977 1 2.067 27.506 -15.568
978 1 1.130 25.063 -9.143
979 1 28.355 58.831 23.670
980 1 27.543 59.018 26.124
981 1 19.157 60.194 23.666
982 1 8.145 35.553 28.830
983 1 10.973 23.672 25.478
984 1 12.843 29.300 23.886
985 1 3.860 11.205 7.098
986 1 4.634 12.300 5.915
987 1 1.924 7.954 1.043
988 1 15.459 4.279 -1.000
989 1 10.630 6.223 2.306
990 1 12.788 4.399 7.224
991 1 41.638 27.365 48.391
992 1 43.822 22.315 59.739
993 1 43.064 22.499 56.113
994 1 27.424 7.631 20.950
995 1 31.328 9.950 12.107
996 1 26.777 9.049 17.864
997 1 11.385 24.520 14.683
998 1 6.483 25.800 7.169
999 1 7.805 27.310 11.245
1000 1 15.807 19.334 10.329
1001 1 14.606 23.152 9.931
1002 1 12.735 21.641 12.805
1003 1 -4.539 32.188 12.889
1004 1 -11.738 30.177 8.978
1005 1 -8.119 35.086 9.463
1006 1 6.997 0.327 7.587
1007 1 10.607 4.328 7.252
1008 1 9.273 2.836 3.604
1009 1 31.697 22.854 -22.870
1010 1 26.176 32.129 -26.914
1011 1 27.309 23.740 -20.735
1012 1 -30.503 44.626 21.343
1013 1 -25.447 47.304 30.867
1014 1 -24.357 50.796 23.842
1015 1 2.099 68.302 5.048
1016 1 12.112 63.914 11.475
1017 1 3.203 70.799 4.653
1018 1 45.796 22.196 -9.954
1019 1 42.956 25.045 -5.722
1020 1 45.968 24.035 -7.099
1021 1 6.662 14.984 51.911
1022 1 10.589 17.824 45.426
1023 1 6.733 18.139 44.390
1024 1 -6.395 46.172 -8.560
1025 1 -3.434 46.773 -11.942
1026 1 -5.649 44.633 -10.032
1027 1 38.703 5.605 -4.452
1028 1 46.221 -0.002 -11.756
1029 1 40.164 7.580 -10.147
1030 1 50.967 13.767 25.518
1031 1 53.557 16.515 13.746
1032 1 47.872 21.688 19.494
1033 1 52.434 63.725 13.835
1034 1 48.296 62.522 9.543
1035 1 49.929 63.072 15.802
1036 1 66.742 -0.060 46.574
1037 1 70.739 -0.893 38.195
1038 1 67.527 6.448 44.960
1039 1 -20.455 53.409 -7.248
1040 1 -19.641 60.347 -1.105
1041 1 -25.132 53.451 -8.748
1042 1 11.910 46.716 18.414
1043 1 11.837 51.701 17.023
1044 1 12.214 47.876 15.560
1045 1 28.051 57.857 -8.073
1046 1 26.730 62.046 -8.734
1047 1 28.967 63.120 0.779
1048 1 -18.365 39.922 17.612
1049 1 -12.168 43.702 12.733
1050 1 -17.866 39.758 15.421
1051 1 7.140 25.083 24.058
1052 1 11.805 28.869 20.111
1053 1 9.906 26.244 22.795
1054 1 49.694 9.340 -1.083
1055 1 39.435 4.725 2.118
1056 1 40.789 3.743 1.724
1057 1 19.007 36.490 40.887
1058 1 19.254 39.095 41.623
1059 1 18.742 36.908 34.692
1060 1 4.986 0.274 39.823
1061 1 6.670 -10.180 36.569
1062 1 6.249 -5.443 39.139
1063 1 22.874 25.828 -0.636
1064 1 21.387 24.732 -2.265
1065 1 27.402 27.927 -0.003
1066 1 39.283 43.084 39.725
1067 1 33.720 37.144 36.034
1068 1 38.051 41.108 34.102
1069 1 61.639 19.292 14.857
1070 1 60.687 21.534 9.414
1071 1 60.836 26.609 3.338
1072 1 33.860 25.209 16.497
1073 1 32.946 28.182 15.738
1074 1 39.501 25.464 16.477
1075 1 81.219 -6.619 47.917
1076 1 76.777 -1.965 47.956
1077 1 78.335 -0.085 37.870
1078 1 18.721 31.212 11.447
1079 1 25.351 34.555 9.503
1080 1 23.831 33.485 3.865
1081 1 -21.276 2.130 -24.563
1082 1 -22.256 -1.063 -19.809
1083 1 -15.807 3.521 -26.724
1084 1 7.160 26.121 14.865
1085 1 9.501 26.320 14.678
1086 1 1.467 17.684 10.216
1087 1 8.128 23.353 39.348
1088 1 7.301 29.504 34.278
1089 1 8.444 24.512 42.070
1090 1 37.545 51.998 7.724
1091 1 38.777 41.317 9.928
1092 1 34.441 54.660 14.157
1093 1 23.485 34.530 -21.184
1094 1 16.474 41.457 -18.092
1095 1 20.146 38.524 -15.207
1096 1 30.869 20.102 -3.103
1097 1 26.356 15.335 2.107
1098 1 33.643 21.065 -9.795
1099 1 21.066 35.555 5.179
1100 1 21.144 32.009 9.714
1101 1 19.698 34.701 8.045
1102 1 64.308 13.083 -7.972
1103 1 60.494 3.889 -17.258
1104 1 61.141 8.736 -12.984
1105 1 -4.475 43.787 -15.096
1106 1 -14.680 46.705 -3.151
1107 1 -9.398 43.794 -14.107
1108 1 9.939 3.647 0.271
1109 1 20.147 2.621 -3.151
1110 1 14.719 6.482 0.529
1111 1 52.399 31.262 50.648
1112 1 51.248 26.182 39.192
1113 1 49.147 26.909 39.837
1114 1 45.119 52.356 9.789
1115 1 34.833 50.599 12.261
1116 1 33.151 45.118 9.374
1117 1 0.994 57.078 3.420
1118 1 2.010 53.390 6.087
1119 1 1.350 63.363 4.265
1120 1 -0.685 55.929 -15.030
1121 1 -3.622 55.083 -14.072
1122 1 5.950 57.151 -14.402
1123 1 -14.363 42.204 19.101
1124 1 -9.766 42.825 21.130
1125 1 -9.853 41.348 17.495
1126 1 -14.168 78.413 5.283
1127 1 -14.261 83.698 -0.827
1128 1 -7.658 75.716 -0.679
1129 1 36.563 21.252 49.694
1130 1 36.281 35.034 56.712
1131 1 37.520 27.797 57.894
1132 1 14.765 16.446 11.129
1133 1 18.867 16.210 10.085
1134 1 21.535 15.986 12.622
1135 1 31.239 -24.701 -9.002
1136 1 29.717 -20.533 -12.113
1137 1 33.691 -25.252 -7.047
1138 1 8.668 26.185 1.471
1139 1 10.832 24.686 -2.602
1140 1 4.374 25.040 7.972
1141 1 26.914 51.068 -30.681
1142 1 18.189 47.534 -32.305
1143 1 21.937 47.100 -26.361
1144 1 14.439 19.419 14.042
1145 1 12.953 24.716 14.322
1146 1 11.638 17.356 18.556
1147 1 -2.195 59.112 10.071
1148 1 0.008 59.259 7.519
1149 1 1.288 59.774 8.246
1150 1 16.595 47.104 -1.020
1151 1 18.931 50.886 -3.219
1152 1 17.133 56.655 7.098
1153 1 68.234 33.517 -14.062
1154 1 75.418 43.035 -19.692
1155 1 65.425 39.912 -10.696
1156 1 10.780 20.971 -21.320
1157 1 14.424 26.204 -15.366
1158 1 15.756 20.339 -12.298
1159 1 26.706 74.888 56.865
1160 1 25.697 77.163 43.267
1161 1 21.900 75.154 48.984
1162 1 33.968 24.499 15.339
1163 1 35.311 27.441 20.049
1164 1 35.719 24.492 16.577
1165 1 13.267 61.418 52.613
1166 1 12.618 58.495 50.559
1167 1 18.510 60.382 42.170
1168 1 17.959 29.100 31.861
1169 1 16.015 26.551 31.763
1170 1 17.386 30.532 36.219
1171 1 7.459 38.271 -5.588
1172 1 10.395 44.680 -12.973
1173 1 7.992 40.957 -13.333
1174 1 23.807 9.400 23.114
1175 1 20.138 11.481 11.448
1176 1 20.351 4.796 20.775
1177 1 -15.546 74.172 -2.333
1178 1 -13.924 72.922 -0.084
1179 1 -18.601 78.297 6.942
1180 1 52.410 37.946 5.428
1181 1 53.784 34.275 6.819
1182 1 51.677 34.882 12.811
1183 1 14.313 9.697 -18.615
1184 1 16.291 9.925 -20.494
1185 1 18.469 4.663 -25.851
1186 1 -11.273 40.329 0.129
1187 1 -13.625 48.334 3.948
1188 1 -10.074 46.492 -4.246
1189 1 54.909 108.771 36.223
1190 1 58.047 107.991 41.946
1191 1 53.012 115.949 41.792
1192 1 4.586 75.522 50.959
1193 1 4.644 81.930 52.965
1194 1 2.231 78.504 47.257
1195 1 -11.787 -21.108 -14.429
1196 1 -16.508 -19.147 -13.099
1197 1 -17.311 -13.729 -10.097
1198 1 31.106 11.131 -20.300
1199 1 38.211 14.300 -19.744
1200 1 35.671 12.673 -16.150
1201 1 -25.091 -1.584 9.222
1202 1 -21.740 -7.331 2.262
1203 1 -25.580 -5.737 0.724
1204 1 41.474 8.004 36.298
1205 1 37.277 2.605 41.691
1206 1 41.763 2.780 30.384
1207 1 31.873 -15.611 10.344
1208 1 24.938 -16.290 1.855
1209 1 32.574 -15.721 9.845
1210 1 1.671 49.592 35.162
1211 1 9.593 43.475 39.858
1212 1 6.076 47.093 36.091
1213 1 -8.271 29.178 -7.673
1214 1 -2.020 19.451 -8.808
1215 1 -2.768 28.149 -11.004
1216 1 56.145 -0.159 14.992
1217 1 58.854 5.311 10.640
1218 1 53.256 7.240 11.785
1219 1 53.667 10.810 -5.800
1220 1 47.431 14.329 -1.335
1221 1 49.498 10.494 -1.271
1222 1 47.048 30.893 28.309
1223 1 46.348 27.721 31.311
1224 1 42.879 27.364 28.417
1225 1 27.516 20.904 43.418
1226 1 24.483 21.040 37.590
1227 1 29.268 22.213 45.946
1228 1 41.900 24.323 11.580
1229 1 41.381 32.356 2.417
1230 1 42.335 23.459 8.985
1231 1 23.328 1.601 10.198
1232 1 22.485 8.381 11.852
1233 1 28.052 7.700 15.820
1234 1 5.310 4.481 0.197
1235 1 11.174 4.508 7.327
1236 1 9.510 -1.970 1.555
1237 1 36.927 19.214 26.139
1238 1 43.505 23.830 31.564
1239 1 40.498 25.725 28.953
1240 1 39.141 13.923 10.096
1241 1 38.791 11.950 11.435
1242 1 43.792 10.910 3.785
1243 1 19.834 3.474 -3.125
1244 1 16.551 8.611 -6.782
1245 1 22.924 9.302 -10.787
1246 1 30.746 24.970 29.194
1247 1 28.866 20.237 30.576
1248 1 32.532 21.630 24.349
1249 1 -6.757 34.661 -4.043
1250 1 -10.303 39.360 -7.888
1251 1 -5.358 36.925 0.738
1252 1 23.985 33.919 -11.651
1253 1 19.470 31.832 -11.105
1254 1 24.178 36.270 -24.164
1255 1 22.314 10.914 38.249
1256 1 20.481 11.144 41.103
1257 1 18.168 13.378 33.903
1258 1 30.012 13.110 48.503
1259 1 28.793 11.168 46.146
1260 1 29.745 7.282 49.756
1261 1 16.844 8.666 21.679
1262 1 24.247 8.437 22.800
1263 1 18.996 6.997 14.095
1264 1 30.671 1.833 20.268
1265 1 32.130 7.933 17.650
1266 1 27.658 2.298 19.171
1267 1 34.592 13.245 26.105
1268 1 34.935 6.750 25.889
1269 1 31.113 8.333 18.272
1270 1 49.927 4.016 -16.215
1271 1 54.042 3.499 -11.133
1272 1 49.867 0.263 -11.585
1273 1 -4.474 -30.404 49.686
1274 1 -14.894 -30.915 48.604
1275 1 -11.078 -32.453 43.466
1276 1 40.826 49.217 40.736
1277 1 40.187 53.000 41.536
1278 1 36.053 49.571 41.403
1279 1 -9.563 -12.311 30.738
1280 1 -15.953 -15.107 23.334
1281 1 -10.767 -5.670 29.380
1282 1 47.476 -21.985 -14.871
1283 1 50.911 -22.476 -10.802
1284 1 44.661 -29.318 -3.638
1285 1 10.544 22.646 16.663
1286 1 6.856 19.908 22.539
1287 1 6.426 22.754 17.543
1288 1 43.463 28.595 0.265
1289 1 43.514 32.061 2.765
1290 1 43.492 28.833 8.224
1291 1 20.359 -12.364 -11.899
1292 1 19.731 -15.609 -14.712
1293 1 16.927 -18.933 -12.192
1294 1 16.549 7.732 -38.415
1295 1 16.943 8.985 -29.405
1296 1 11.815 7.416 -36.276
1297 1 9.192 14.928 -12.261
1298 1 9.782 16.569 -20.791
1299 1 9.408 10.742 -9.724
1300 1 33.606 5.810 50.111
1301 1 31.966 3.663 45.496
1302 1 32.087 0.133 42.321
1303 1 10.787 3.671 -6.228
1304 1 14.872 0.011 -4.457
1305 1 6.936 1.277 -6.333
1306 1 61.937 14.640 -23.995
1307 1 56.652 6.226 -21.032
1308 1 62.347 12.001 -14.789
1309 1 71.278 -3.170 27.823
1310 1 75.081 5.026 28.947
1311 1 71.385 1.511 25.217
1312 1 -29.549 34.310 -3.581
1313 1 -25.159 30.185 -1.805
1314 1 -30.626 35.791 -1.808
1315 1 19.653 2.447 49.698
1316 1 26.271 5.281 52.586
1317 1 25.916 -0.510 57.151
1318 1 23.429 52.044 16.853
1319 1 22.411 56.162 23.113
1320 1 21.309 55.555 20.394
1321 1 14.388 19.742 1.238
1322 1 15.191 9.492 -0.340
1323 1 10.854 12.300 -4.714
1324 1 51.245 -26.901 19.703
1325 1 54.885 -29.907 14.539
1326 1 49.924 -36.067 16.854
1327 1 26.603 29.754 29.197
1328 1 29.455 30.469 28.496
1329 1 28.068 31.878 32.611
1330 1 37.408 -13.558 24.689
1331 1 34.413 -6.924 33.796
1332 1 40.875 -8.058 21.035
1333 1 5.028 25.011 15.885
1334 1 2.019 26.634 18.215
1335 1 5.851 24.342 18.202
1336 1 34.703 43.064 7.336
1337 1 31.938 46.355 2.772
1338 1 29.796 43.062 8.696
1339 1 15.575 55.865 9.588
1340 1 15.830 56.010 16.588
1341 1 16.099 53.688 13.403
1342 1 29.813 8.164 2.363
1343 1 28.500 2.736 1.061
1344 1 31.378 0.987 3.161
1345 1 60.786 -6.216 -22.537
1346 1 48.007 8.818 -28.314
1347 1 58.440 0.486 -26.832
1348 1 48.328 -2.778 33.285
1349 1 57.255 -2.691 32.949
1350 1 50.827 -2.032 37.577
1351 1 35.338 -1.478 15.043
1352 1 32.657 -2.155 19.559
1353 1 34.926 -1.594 29.781
1354 1 17.404 7.198 7.904
1355 1 17.189 8.294 2.811
1356 1 17.320 6.082 2.550
1357 1 -1.512 -14.968 31.544
1358 1 4.313 -11.943 28.346
1359 1 -2.823 -7.586 30.818
1360 1 26.648 36.344 24.877
1361 1 25.033 33.995 25.418
1362 1 22.942 41.472 32.283
1363 1 56.348 8.015 -3.831
1364 1 53.902 10.192 -8.051
1365 1 51.042 6.969 -10.300
1366 1 9.703 40.140 57.612
1367 1 11.355 40.906 60.539
1368 1 3.229 39.753 56.321
1369 1 20.452 -7.301 -9.220
1370 1 19.110 -8.449 -5.992
1371 1 21.576 -9.128 -11.645
1372 1 40.436 -2.093 -22.855
1373 1 38.858 -1.819 -15.202
1374 1 35.265 -2.151 -31.279
1375 1 -5.374 20.504 -4.269
1376 1 1.189 22.828 3.816
1377 1 -1.131 24.042 -7.158
1378 1 78.848 -0.902 29.661
1379 1 76.579 -0.574 33.219
1380 1 82.869 1.509 29.840
1381 1 9.744 33.596 21.258
1382 1 2.326 38.477 23.480
1383 1 3.531 39.485 26.567
1384 1 33.921 9.757 -16.120
1385 1 31.294 10.288 -16.468
1386 1 32.519 8.790 -12.408
1387 1 29.766 3.292 -5.292
1388 1 30.049 1.353 -13.714
1389 1 29.803 2.890 -4.282
1390 1 -9.480 -9.459 -1.867
1391 1 -5.651 -10.224 -7.151
1392 1 -5.308 -6.967 1.659
1393 1 -3.076 38.449 43.655
1394 1 1.510 31.291 48.425
1395 1 2.035 35.905 44.764
1396 1 -6.132 -9.857 51.990
1397 1 -7.769 -6.356 58.252
1398 1 -8.886 -7.813 54.285
1399 1 24.981 -10.305 16.422
1400 1 26.370 -12.848 20.289
1401 1 18.569 -5.878 12.230
1402 1 7.615 7.933 11.550
1403 1 13.635 8.181 4.233
1404 1 10.834 -2.072 4.707
1405 1 38.619 67.701 25.084
1406 1 38.538 70.329 28.235
1407 1 43.928 73.637 25.214
1408 1 10.849 -4.804 -36.570
1409 1 12.136 -4.931 -33.601
1410 1 15.883 -0.510 -44.322
1411 1 51.412 71.616 14.300
1412 1 44.444 75.332 17.973
1413 1 51.171 62.321 16.725
1414 1 16.774 56.808 12.608
1415 1 9.500 60.456 16.452
1416 1 14.459 62.717 9.674
1417 1 24.824 45.019 -10.542
1418 1 23.204 49.154 -8.394
1419 1 21.490 48.564 -11.436
1420 1 29.646 28.671 43.823
1421 1 25.718 28.662 40.112
1422 1 23.842 27.947 38.596
1423 1 74.788 6.629 25.494
1424 1 71.193 11.324 17.476
1425 1 71.581 13.259 27.445
1426 1 1.249 38.605 -3.343
1427 1 1.461 43.745 -4.209
1428 1 -4.261 39.230 -6.108
1429 1 -24.853 -21.324 -28.874
1430 1 -26.614 -24.599 -23.963
1431 1 -31.708 -18.707 -29.764
1432 1 -35.930 -28.661 -28.762
1433 1 -36.673 -28.815 -29.045
1434 1 -38.440 -30.883 -29.586
1435 1 -1.780 42.845 -0.316
1436 1 3.827 49.817 -3.350
1437 1 2.163 47.381 0.711
1438 1 9.249 19.261 -6.644
1439 1 7.146 23.103 -4.010
1440 1 9.677 20.550 -4.207
1441 1 11.262 35.570 12.924
1442 1 7.998 35.043 10.345
1443 1 11.024 32.410 0.998
1444 1 -20.302 10.654 -19.496
1445 1 -18.703 23.252 -16.536
1446 1 -17.623 12.068 -18.297
1447 1 23.971 22.173 19.022
1448 1 26.184 14.262 16.414
1449 1 24.185 17.348 18.697
1450 1 16.163 17.040 16.560
1451 1 16.224 13.424 27.331
1452 1 15.605 19.335 21.153
1453 1 26.414 19.034 -2.710
1454 1 24.208 21.643 1.114
1455 1 27.700 16.690 3.404
1456 1 30.606 38.014 38.012
1457 1 23.032 35.025 35.305
1458 1 22.151 44.375 45.620
1459 1 70.262 18.453 45.814
1460 1 68.974 16.774 44.884
1461 1 71.267 16.078 43.096
1462 1 20.054 47.464 42.197
1463 1 25.708 40.155 50.461
1464 1 21.644 46.760 48.937
1465 1 59.239 80.089 35.866
1466 1 61.721 78.483 35.088
1467 1 66.882 65.927 39.506
1468 1 -37.742 34.180 27.887
1469 1 -35.965 32.196 28.670
1470 1 -39.709 35.099 30.819
1471 1 -1.820 -5.328 -0.182
1472 1 2.987 -9.776 -14.497
1473 1 2.820 -7.120 -5.959
1474 1 -32.238 32.924 34.601
1475 1 -29.156 41.327 34.707
1476 1 -32.315 30.911 20.944
1477 1 -14.781 36.585 -14.639
1478 1 -20.692 41.410 -23.255
1479 1 -23.052 33.881 -20.978
1480 1 -15.508 45.258 -21.828
1481 1 -10.049 43.338 -19.881
1482 1 -14.911 40.523 -22.173
1483 1 -24.531 37.966 17.863
1484 1 -19.469 43.909 20.572
1485 1 -16.151 35.769 16.862
1486 1 -10.306 16.979 15.910
1487 1 -5.186 17.026 14.731
1488 1 -5.540 11.987 8.195
1489 1 10.481 -16.320 2.379
1490 1 14.042 -8.028 1.690
1491 1 14.981 -9.819 4.721
1492 1 40.760 -0.623 -18.979
1493 1 35.195 -1.618 -16.231
1494 1 39.873 1.061 -20.065
1495 1 15.128 46.196 70.721
1496 1 13.468 45.293 68.291
1497 1 15.267 45.267 67.190
1498 1 4.702 5.506 -7.570
1499 1 9.075 3.363 -3.155
1500 1 11.835 5.936 -6.859
1501 1 48.539 63.104 -21.114
1502 1 50.844 68.035 -21.490
1503 1 45.477 72.538 -20.855
1504 1 42.249 58.616 29.729
1505 1 40.132 62.255 33.797
1506 1 44.876 61.005 39.270
1507 1 13.442 32.040 41.967
1508 1 7.839 32.493 42.622
1509 1 9.858 31.614 42.948
1510 1 -28.232 52.874 -7.397
1511 1 -26.076 55.541 -14.038
1512 1 -33.121 62.881 -8.467
1513 1 60.031 7.407 59.654
1514 1 58.565 3.554 56.979
1515 1 53.520 0.440 61.468
1516 1 -2.276 34.790 23.879
1517 1 0.259 34.301 26.863
1518 1 5.765 34.297 17.705
1519 1 -12.842 -1.112 20.965
1520 1 -17.127 9.060 20.596
1521 1 -15.240 1.590 28.480
1522 1 39.801 60.991 35.485
1523 1 43.815 61.561 33.872
1524 1 35.247 58.669 37.882
1525 1 21.775 35.675 -13.297
1526 1 27.877 37.784 -7.526
1527 1 27.802 37.795 -13.869
1528 1 52.262 18.540 33.462
1529 1 51.074 17.888 28.735
1530 1 46.801 16.912 30.026
1531 1 27.390 32.092 5.455
1532 1 25.469 29.462 4.066
1533 1 24.137 29.147 11.921
1534 1 35.634 12.538 9.378
1535 1 41.208 13.436 16.911
1536 1 40.996 9.828 18.526
1537 1 46.579 63.025 28.913
1538 1 50.438 53.142 28.963
1539 1 51.729 54.727 30.570
1540 1 57.782 25.777 -3.167
1541 1 52.053 23.613 4.379
1542 1 58.604 25.174 9.900
1543 1 64.036 28.220 15.677
1544 1 62.999 29.246 15.179
1545 1 65.467 29.580 23.196
1546 1 -8.836 -14.203 28.818
1547 1 -8.398 -16.754 30.549
1548 1 -9.788 -18.373 28.804
1549 1 19.728 20.760 -26.140
1550 1 17.292 26.345 -26.688
1551 1 23.479 21.658 -25.073
1552 1 22.042 10.273 3.372
1553 1 23.856 7.767 4.053
1554 1 21.730 7.405 1.768
1555 1 8.269 41.368 20.116
1556 1 12.988 39.038 15.280
1557 1 11.288 40.453 19.215
1558 1 -12.439 31.609 -7.182
1559 1 -13.741 32.642 -4.711
1560 1 -12.518 37.437 -13.851
1561 1 49.067 30.197 -5.050
1562 1 56.671 28.139 -9.131
1563 1 48.808 28.260 -5.473
1564 1 18.088 26.419 25.130
1565 1 18.692 23.621 28.856
1566 1 19.834 22.241 33.505
1567 1 25.375 -29.509 7.325
1568 1 36.004 -26.778 8.003
1569 1 30.321 -27.747 3.944
1570 1 46.479 50.367 42.137
1571 1 49.959 54.854 39.328
1572 1 45.921 57.923 37.460
1573 1 79.635 67.330 23.977
1574 1 81.398 70.590 26.759
1575 1 81.970 65.768 27.106
1576 1 25.303 -11.156 -14.895
1577 1 21.538 -20.321 -18.853
1578 1 22.813 -14.527 -19.680
1579 1 18.486 41.642 6.116
1580 1 24.508 43.476 7.429
1581 1 21.180 43.091 12.832
1582 1 45.859 18.343 1.408
1583 1 47.293 13.388 7.102
1584 1 49.791 14.494 4.682
1585 1 24.787 10.924 23.074
1586 1 30.986 8.517 24.416
1587 1 28.264 3.748 13.419
1588 1 -12.048 42.401 -4.735
1589 1 -9.672 42.222 5.071
1590 1 -13.665 37.356 -2.710
1591 1 -14.233 65.615 -13.682
1592 1 -13.844 59.811 -19.347
1593 1 -15.253 66.432 -9.362
1594 1 12.013 53.183 30.424
1595 1 10.030 51.500 25.265
1596 1 9.406 51.642 27.148
1597 1 6.045 -5.114 19.622
1598 1 9.391 -6.486 10.863
1599 1 0.325 -2.269 4.144
1600 1 9.206 40.304 15.654
1601 1 2.588 41.703 16.922
1602 1 4.829 37.742 19.063
1603 1 16.694 85.500 48.269
1604 1 14.859 83.839 38.930
1605 1 20.215 90.733 41.493
1606 1 5.752 -8.043 28.074
1607 1 11.936 -8.218 24.605
1608 1 9.902 -10.114 28.354
1609 1 28.666 56.254 15.041
1610 1 31.614 52.969 17.841
1611 1 30.197 51.175 18.360
1612 1 18.674 25.432 19.697
1613 1 21.451 22.038 21.825
1614 1 24.400 24.560 25.832
1615 1 23.474 32.963 -9.436
1616 1 19.107 34.353 -11.864
1617 1 23.305 29.681 -3.048
1618 1 50.569 4.221 7.167
1619 1 48.227 5.621 14.323
1620 1 49.613 8.972 3.239
1621 1 32.913 -8.864 2.590
1622 1 34.498 -15.710 8.868
1623 1 38.217 -9.478 11.908
1624 1 4.723 8.197 -22.153
1625 1 -1.917 10.960 -16.007
1626 1 -2.609 17.886 -12.687
1627 1 8.505 43.188 14.624
1628 1 9.534 42.870 15.372
1629 1 6.576 40.232 16.991
1630 1 7.966 46.028 41.906
1631 1 10.401 47.584 36.081
1632 1 17.698 50.011 30.492
1633 1 -15.330 49.741 52.895
1634 1 -4.038 52.018 55.015
1635 1 -5.902 46.545 50.349
1636 1 15.538 53.841 7.979
1637 1 12.197 59.773 3.776
1638 1 14.105 60.568 0.740
1639 1 21.432 47.288 14.288
1640 1 27.104 47.979 11.152
1641 1 21.974 44.578 18.750
1642 1 51.414 45.041 -3.847
1643 1 48.771 31.650 -3.577
1644 1 46.288 36.375 -0.668
1645 1 28.105 30.309 50.162
1646 1 29.697 29.895 52.722
1647 1 27.843 25.665 52.767
1648 1 2.043 72.488 -28.299
1649 1 5.154 77.684 -20.919
1650 1 1.143 73.317 -19.202
1651 1 2.696 72.820 3.827
1652 1 3.072 75.237 2.640
1653 1 4.577 69.863 9.557
1654 1 27.470 12.849 51.803
1655 1 31.635 12.314 44.025
1656 1 27.542 9.303 44.739
1657 1 28.895 -20.042 -11.071
1658 1 27.618 -26.062 -12.314
1659 1 30.057 -27.359 -14.263
1660 1 68.442 0.248 -2.332
1661 1 72.389 2.884 -0.712
1662 1 72.047 3.712 -5.936
1663 1 10.043 10.125 -2.831
1664 1 8.205 12.114 -0.324
1665 1 3.331 11.008 -5.974
1666 1 -8.668 38.509 39.426
1667 1 -8.612 40.103 40.272
1668 1 -10.390 36.781 40.330
1669 1 21.589 97.258 24.700
1670 1 19.582 95.651 21.227
1671 1 19.699 90.163 21.270
1672 1 3.157 32.642 6.803
1673 1 2.065 32.659 -5.378
1674 1 0.697 36.029 6.791
1675 1 0.865 57.816 18.844
1676 1 2.679 56.354 6.954
1677 1 -0.986 59.333 6.292
1678 1 28.703 17.632 9.438
1679 1 25.626 17.829 15.297
1680 1 30.957 20.814 9.541
1681 1 -24.203 30.110 19.601
1682 1 -16.120 29.637 14.448
1683 1 -20.592 28.537 14.670
1684 1 4.221 66.559 56.606
1685 1 1.724 67.666 62.358
1686 1 4.301 58.414 65.005
1687 1 40.324 81.967 -9.653
1688 1 40.726 80.913 -6.355
1689 1 41.429 81.722 -7.461
1690 1 12.041 1.020 -1.794
1691 1 11.386 4.446 -6.245
1692 1 8.147 -0.008 1.815
1693 1 5.306 -19.376 27.793
1694 1 -0.293 -20.492 23.501
1695 1 0.773 -22.399 33.478
1696 1 24.607 36.152 4.605
1697 1 34.228 30.767 3.790
1698 1 31.002 37.261 7.587
1699 1 30.843 32.021 28.169
1700 1 40.167 38.664 28.360
1701 1 38.040 36.491 30.303
1702 1 22.620 26.677 33.493
1703 1 18.069 30.302 35.476
1704 1 19.027 29.331 35.793
1705 1 -12.069 9.588 12.157
1706 1 -22.374 8.768 11.252
1707 1 -25.137 14.152 5.534
1708 1 -2.053 -12.061 38.118
1709 1 0.147 -13.042 39.274
1710 1 -3.026 -8.801 33.344
1711 1 37.876 9.727 -0.019
1712 1 34.971 10.731 3.138
1713 1 43.874 9.765 2.612
1714 1 20.803 21.106 41.208
1715 1 24.657 22.157 39.393
1716 1 15.579 25.085 40.706
1717 1 8.577 47.505 40.884
1718 1 3.645 45.326 38.832
1719 1 6.010 46.022 44.561
1720 1 -12.452 26.233 24.932
1721 1 -15.840 29.508 23.364
1722 1 -22.477 27.745 24.907
1723 1 34.060 18.258 32.250
1724 1 35.298 12.180 25.383
1725 1 38.490 18.203 26.474
1726 1 28.961 -30.664 -1.013
1727 1 30.493 -29.779 9.118
1728 1 28.330 -28.340 0.850
1729 1 29.323 11.749 13.305
1730 1 32.610 14.746 12.470
1731 1 33.754 11.710 13.222
1732 1 37.192 6.686 19.146
1733 1 38.761 7.967 18.854
1734 1 34.191 7.891 23.667
1735 1 27.844 -4.433 17.071
1736 1 26.804 -3.460 15.171
1737 1 27.985 -7.543 18.765
1738 1 31.808 7.256 8.991
1739 1 29.281 5.412 5.440
1740 1 29.545 5.271 14.327
1741 1 18.579 -4.505 -24.121
1742 1 18.588 -5.032 -12.262
1743 1 20.764 -11.018 -12.898
1744 1 18.673 9.822 21.098
1745 1 18.162 14.676 19.120
1746 1 20.966 15.849 8.200
1747 1 14.644 -4.523 17.896
1748 1 19.610 -8.445 11.008
1749 1 15.694 -12.930 14.706
1750 1 18.629 17.643 27.722
1751 1 19.967 16.631 20.180
1752 1 20.681 13.312 22.199
1753 1 -1.533 -5.727 -11.466
1754 1 -0.531 -5.441 -16.796
1755 1 -8.321 -5.410 -14.124
1756 1 -6.375 -4.298 12.994
1757 1 -6.725 -4.938 19.336
1758 1 -7.660 -4.724 15.594
1759 1 11.526 -8.983 22.655
1760 1 13.312 -6.190 19.989
1761 1 12.331 -4.806 13.288
1762 1 44.325 16.951 13.211
1763 1 39.855 20.974 15.130
1764 1 44.402 16.750 13.735
1765 1 18.455 -14.910 52.078
1766 1 14.924 -20.166 49.953
1767 1 14.946 -12.799 56.573
1768 1 33.891 14.903 1.758
1769 1 28.193 17.154 2.822
1770 1 32.947 17.812 -0.247
1771 1 20.080 3.056 28.294
1772 1 17.855 7.591 36.216
1773 1 12.356 -0.016 35.172
1774 1 26.320 11.141 -8.560
1775 1 28.480 12.882 -11.392
1776 1 31.890 14.085 -5.609
1777 1 32.807 15.158 -1.264
1778 1 33.042 17.965 -0.475
1779 1 36.134 17.867 -13.729
1780 1 -3.363 24.083 1.252
1781 1 -4.337 20.013 -5.106
1782 1 -1.453 29.736 -0.346
1783 1 -21.927 38.284 -13.987
1784 1 -30.379 40.921 -9.311
1785 1 -29.736 34.858 -4.175
1786 1 25.190 19.370 13.402
1787 1 23.641 8.401 22.004
1788 1 16.791 11.208 14.298
1789 1 13.894 37.141 19.201
1790 1 9.407 33.836 8.508
1791 1 9.306 34.398 15.130
1792 1 40.412 1.527 13.379
1793 1 41.713 5.949 11.317
1794 1 42.187 7.666 5.307
1795 1 6.646 30.155 -5.394
1796 1 4.829 33.077 -14.552
1797 1 6.283 35.145 -10.213
1798 1 12.696 -4.303 34.005
1799 1 20.818 -3.623 30.137
1800 1 17.888 -2.474 41.563
1801 1 26.360 45.247 32.972
1802 1 26.346 37.156 33.629
1803 1 25.870 35.902 30.174
1804 1 48.811 -2.460 17.700
1805 1 49.411 0.856 13.012
1806 1 52.756 3.675 12.849
1807 1 22.475 9.143 19.572
1808 1 25.585 1.379 17.893
1809 1 24.166 4.343 15.151
1810 1 66.586 13.516 30.179
1811 1 67.364 13.065 36.609
1812 1 66.813 14.865 28.951
1813 1 15.446 -22.096 51.862
1814 1 14.070 -20.036 47.595
1815 1 6.287 -21.146 50.779
1816 1 40.858 -3.153 23.583
1817 1 38.254 -1.075 16.733
1818 1 34.828 -2.878 14.912
1819 1 -6.353 17.922 9.958
1820 1 -1.261 9.026 5.577
1821 1 -0.109 17.308 14.677
1822 1 0.906 15.658 44.542
1823 1 3.331 16.112 46.596
1824 1 5.269 20.652 44.458
1825 1 -19.054 -34.604 7.699
1826 1 -16.480 -34.443 3.109
1827 1 -18.992 -33.975 11.270
1828 1 55.175 -29.231 32.046
1829 1 53.527 -26.311 26.377
1830 1 54.885 -28.622 30.141
1831 1 -11.161 22.892 4.414
1832 1 -11.382 18.120 10.468
1833 1 -7.301 25.812 12.136
1834 1 51.005 12.738 43.075
1835 1 52.568 15.239 31.369
1836 1 51.511 13.032 33.824
1837 1 43.349 21.304 13.268
1838 1 39.146 24.409 9.831
1839 1 44.291 23.108 13.480
1840 1 -3.204 -9.756 57.835
1841 1 -3.749 -12.387 64.852
1842 1 1.794 -10.285 61.573
1843 1 33.597 28.646 4.589
1844 1 38.117 26.772 -0.827
1845 1 38.497 28.347 1.900
1846 1 75.232 11.408 14.263
1847 1 77.844 8.153 19.596
1848 1 76.672 5.063 9.937
1849 1 14.614 -1.660 48.824
1850 1 12.259 0.039 43.001
1851 1 11.465 -2.131 41.573
1852 1 60.207 23.579 22.139
1853 1 56.848 21.764 23.731
1854 1 54.773 19.358 12.969
1855 1 3.874 -33.396 15.248
1856 1 0.309 -41.398 16.333
1857 1 2.971 -35.753 10.629
1858 1 -0.409 75.657 17.168
1859 1 -3.678 75.346 9.992
1860 1 -7.461 81.302 15.918
1861 1 -25.737 34.383 42.105
1862 1 -27.208 29.515 40.251
1863 1 -29.313 29.899 43.293
1864 1 8.963 -17.335 8.669
1865 1 10.052 -16.452 -4.028
1866 1 8.767 -18.767 -3.284
1867 1 2.909 -5.520 -5.338
1868 1 5.121 -5.618 -12.050
1869 1 6.349 -7.412 -13.050
1870 1 -8.814 79.774 13.247
1871 1 -5.167 79.678 16.753
1872 1 -6.140 83.187 16.049
1873 1 39.481 -1.136 -15.356
1874 1 39.507 -3.489 -12.174
1875 1 36.634 -1.976 -13.575
1876 1 -12.023 18.009 37.808
1877 1 -9.821 21.119 41.877
1878 1 -11.175 24.911 38.854
1879 1 -6.261 32.365 36.868
1880 1 -9.235 33.985 39.272
1881 1 -8.006 29.588 33.825
1882 1 -8.621 -10.084 46.123
1883 1 -5.453 -1.092 48.960
1884 1 -3.193 -0.556 36.296
1885 1 5.981 32.327 31.171
1886 1 11.858 31.834 32.146
1887 1 11.129 34.927 32.502
1888 1 42.712 9.909 -7.953
1889 1 49.860 16.040 -9.688
1890 1 43.596 12.347 -8.871
1891 1 21.782 -23.825 37.743
1892 1 19.717 -24.509 34.981
1893 1 23.851 -25.198 41.706
1894 1 72.921 9.886 -15.434
1895 1 74.768 11.997 -13.394
1896 1 76.772 11.890 -12.422
1897 1 -34.424 10.233 36.030
1898 1 -34.296 5.362 36.256
1899 1 -32.073 5.869 36.892
1900 1 -5.628 15.497 -20.286
1901 1 -11.829 19.273 -24.691
1902 1 -5.888 19.554 -16.781
1903 1 1.629 0.751 9.790
1904 1 0.330 2.010 9.385
1905 1 -2.425 -2.117 11.922
1906 1 58.047 -1.890 36.269
1907 1 53.772 -5.007 32.358
1908 1 58.887 -1.668 38.639
1909 1 29.180 -10.456 -16.033
1910 1 20.168 -13.557 -17.723
1911 1 20.076 -12.753 -14.532
1912 1 29.063 43.527 15.047
1913 1 30.259 39.537 13.185
1914 1 31.816 45.768 26.906
1915 1 48.164 24.409 5.193
1916 1 52.489 18.284 7.719
1917 1 52.518 16.174 1.111
1918 1 12.309 -10.641 9.258
1919 1 10.282 -3.442 5.279
1920 1 8.238 -9.477 4.654
1921 1 35.403 60.406 41.844
1922 1 36.878 58.268 39.546
1923 1 39.017 52.339 41.774
1924 1 5.202 14.012 54.532
1925 1 4.055 17.971 49.351
1926 1 1.588 15.865 52.651
1927 1 -7.703 3.102 -1.519
1928 1 -6.608 8.994 2.656
1929 1 -4.351 11.701 0.335
1930 1 -9.428 15.670 3.192
1931 1 -6.523 18.293 5.893
1932 1 -9.527 14.911 11.302
1933 1 -1.106 11.597 -7.897
1934 1 -5.789 4.692 -3.036
1935 1 -4.699 10.254 -19.342
1936 1 21.089 16.487 -13.444
1937 1 20.215 17.278 -20.056
1938 1 18.617 14.849 -12.322
1939 1 51.784 -0.195 23.814
1940 1 54.735 -8.981 26.578
1941 1 51.552 -0.380 29.053
1942 1 65.191 34.465 -3.301
1943 1 65.063 27.676 -10.977
1944 1 69.334 32.118 -8.235
1945 1 26.532 46.560 46.400
1946 1 23.251 48.172 38.089
1947 1 23.577 47.703 43.897
1948 1 20.029 30.050 26.253
1949 1 24.495 35.294 28.842
1950 1 21.647 29.592 28.700
1951 1 4.933 48.222 23.234
1952 1 6.365 45.567 23.499
1953 1 12.421 45.268 22.906
1954 1 -2.453 29.660 25.846
1955 1 -4.621 28.682 23.316
1956 1 -5.595 28.478 24.646
1957 1 30.704 27.210 25.235
1958 1 26.392 26.014 33.974
1959 1 25.652 31.323 35.491
1960 1 -2.890 32.801 -8.894
1961 1 2.336 41.827 -5.515
1962 1 -4.051 31.010 -8.861
1963 1 41.651 41.613 -6.842
1964 1 42.456 47.376 -0.984
1965 1 38.096 42.235 -9.584
1966 1 22.193 -20.486 21.082
1967 1 21.619 -21.206 16.557
1968 1 25.954 -23.631 21.563
1969 1 -33.310 -10.894 32.074
1970 1 -38.677 -8.003 27.925
1971 1 -29.459 -5.092 30.391
1972 1 15.188 10.940 12.105
1973 1 16.020 6.299 13.151
1974 1 15.583 9.012 14.545
1975 1 20.403 11.702 68.308
1976 1 23.644 14.871 63.232
1977 1 25.958 12.407 65.752
1978 1 1.563 -26.753 7.482
1979 1 -1.127 -25.837 8.647
1980 1 -1.468 -23.501 10.001
1981 1 1.259 30.783 53.669
1982 1 2.944 26.489 51.089
1983 1 -4.805 26.926 53.541
1984 1 8.580 56.369 7.314
1985 1 7.794 61.250 10.270
1986 1 5.152 55.327 8.546
1987 1 22.140 9.746 31.485
1988 1 28.460 1.624 30.768
1989 1 22.269 4.517 31.824
1990 1 22.678 46.516 33.463
1991 1 22.398 39.599 33.779
1992 1 24.142 44.867 38.722
1993 1 15.125 15.502 21.158
1994 1 11.976 12.474 29.911
1995 1 13.519 18.852 17.014
1996 1 24.346 30.727 29.708
1997 1 22.060 24.052 29.104
1998 1 25.237 26.951 33.111
1999 1 49.175 -7.946 20.785
2000 1 47.653 -8.815 23.080
2001 1 47.915 -3.163 23.596
2002 1 13.641 11.452 51.524
2003 1 9.226 10.106 56.208
2004 1 8.242 17.441 54.180
2005 1 30.746 8.166 42.102
2006 1 33.391 11.426 40.139
2007 1 36.794 6.762 39.799
2008 1 39.974 9.044 -0.982
2009 1 34.717 12.538 -10.902
2010 1 33.569 8.907 -12.562
2011 1 49.145 11.446 12.938
2012 1 56.490 9.887 14.393
2013 1 48.332 8.484 17.507
2014 1 -8.217 9.339 7.763
2015 1 -5.583 10.390 6.635
2016 1 -11.077 2.846 6.259
2017 1 22.545 -0.014 10.049
2018 1 26.421 -3.704 18.587
2019 1 25.670 -0.062 11.131
2020 1 -21.000 -18.453 4.168
2021 1 -20.722 -16.221 -1.223
2022 1 -16.423 -16.556 1.338
2023 1 26.456 40.939 52.091
2024 1 27.605 32.319 58.927
2025 1 31.086 40.106 49.911
2026 1 -17.977 55.635 23.578
2027 1 -15.265 48.253 27.806
2028 1 -13.575 45.642 28.560
2029 1 -10.629 71.826 42.614
2030 1 -10.766 67.902 44.793
2031 1 -8.502 70.147 36.602
2032 1 -0.389 31.387 18.801
2033 1 4.023 23.823 12.844
2034 1 8.302 29.066 16.688
2035 1 1.454 23.134 28.565
2036 1 3.879 24.232 27.331
2037 1 2.642 21.174 30.209
2038 1 -22.808 20.436 1.732
2039 1 -19.353 22.569 1.693
2040 1 -24.361 33.781 -1.225
2041 1 32.488 40.069 5.676
2042 1 33.600 40.018 -2.359
2043 1 31.915 38.490 -0.002
2044 1 29.167 27.806 45.635
2045 1 36.253 21.610 40.543
2046 1 28.519 20.789 44.915
2047 1 37.360 65.036 1.856
2048 1 36.530 64.337 1.069
2049 1 33.079 63.319 4.766
2050 1 39.201 11.146 14.855
2051 1 40.500 10.346 12.728
2052 1 40.979 6.509 12.900
2053 1 -15.566 45.698 27.219
2054 1 -16.929 42.776 27.147
2055 1 -18.416 48.266 27.334
2056 1 -27.531 3.625 9.676
2057 1 -27.756 5.379 18.979
2058 1 -24.269 9.033 15.459
2059 1 -5.601 60.747 26.955
2060 1 -9.520 63.539 15.781
2061 1 -3.317 59.933 14.808
2062 1 -19.657 20.926 1.560
2063 1 -21.737 22.983 -5.266
2064 1 -20.653 21.350 -3.388
2065 1 22.960 67.721 -5.910
2066 1 28.985 63.175 -2.512
2067 1 24.269 62.774 0.080
2068 1 -3.697 13.189 12.702
2069 1 -2.786 10.770 10.897
2070 1 -4.008 15.107 11.417
2071 1 9.160 51.889 36.942
2072 1 11.883 51.940 30.723
2073 1 8.059 53.508 31.035
2074 1 20.546 24.204 12.152
2075 1 24.269 26.576 8.322
2076 1 18.309 30.958 3.260
2077 1 15.557 71.884 39.515
2078 1 24.739 67.486 33.088
2079 1 20.818 73.332 32.267
2080 1 2.187 44.890 67.243
2081 1 6.173 46.537 66.180
2082 1 7.477 49.879 56.652
2083 1 50.152 63.720 -15.221
2084 1 50.335 64.351 -15.028
2085 1 53.134 65.054 -13.013
2086 1 9.538 20.885 -8.216
2087 1 17.502 21.752 -6.800
2088 1 12.580 26.323 -9.227
2089 1 50.742 0.412 18.293
2090 1 52.793 0.899 25.017
2091 1 51.291 3.766 17.030
2092 1 20.514 53.771 9.641
2093 1 19.640 44.081 7.901
2094 1 15.624 51.665 -0.024
2095 1 37.618 50.811 22.428
2096 1 38.777 42.162 13.682
2097 1 37.625 46.706 10.852
2098 1 -10.482 13.017 22.286
2099 1 -13.604 19.394 18.315
2100 1 -9.508 10.252 23.979
2101 1 14.875 17.545 -0.069
2102 1 16.429 19.712 1.704
2103 1 13.564 19.745 2.834
2104 1 27.446 41.737 26.101
2105 1 26.767 49.624 25.767
2106 1 21.428 44.938 22.999
2107 1 28.639 9.556 3.217
2108 1 26.534 4.222 10.423
2109 1 29.597 3.990 5.393
2110 1 -41.005 28.331 7.615
2111 1 -39.193 29.859 10.871
2112 1 -42.571 31.613 -0.912
2113 1 19.882 39.071 21.433
2114 1 19.899 37.569 25.531
2115 1 14.270 41.902 22.969
2116 1 42.058 13.290 5.260
2117 1 46.897 9.388 14.664
2118 1 42.173 9.645 12.136
2119 1 11.453 18.482 46.176
2120 1 7.831 20.146 39.218
2121 1 10.059 22.047 43.158
2122 1 47.790 77.440 1.287
2123 1 51.818 74.283 4.491
2124 1 48.878 75.021 2.262
2125 1 15.879 76.833 -8.137
2126 1 7.378 75.663 -15.972
2127 1 18.135 73.254 -20.863
2128 1 53.030 8.696 -19.727
2129 1 51.903 17.108 -13.448
2130 1 52.461 16.313 -9.607
2131 1 37.734 78.673 34.144
2132 1 45.302 80.877 38.789
2133 1 45.329 72.115 37.831
2134 1 7.657 -23.915 2.424
2135 1 2.416 -18.356 2.935
2136 1 5.221 -14.482 -2.216
2137 1 -33.961 70.068 -10.767
2138 1 -34.704 73.712 -17.269
2139 1 -30.589 63.381 -21.268
2140 1 20.423 73.716 16.955
2141 1 17.296 69.519 14.677
2142 1 21.807 69.089 9.176
2143 1 27.706 65.192 61.221
2144 1 26.405 65.847 66.747
2145 1 26.510 65.994 59.241
2146 1 -4.058 31.774 -8.264
2147 1 -0.131 33.345 -12.479
2148 1 -5.148 27.601 -9.076
2149 1 31.450 26.843 22.624
2150 1 28.731 26.705 20.427
2151 1 27.206 24.055 16.061
2152 1 42.982 73.182 64.807
2153 1 35.885 66.228 67.171
2154 1 36.626 72.236 74.002
2155 1 19.562 72.570 20.193
2156 1 19.141 66.098 12.649
2157 1 19.344 67.511 5.881
2158 1 34.265 85.466 16.553
2159 1 34.147 83.685 22.657
2160 1 40.730 86.406 22.663
2161 1 29.410 92.002 -4.944
2162 1 28.520 93.558 -5.534
2163 1 26.346 102.116 -7.178
2164 1 43.421 39.606 30.114
2165 1 36.653 38.763 39.484
2166 1 41.482 38.101 34.215
2167 1 57.740 16.717 6.895
2168 1 60.256 21.929 -3.141
2169 1 54.864 13.874 4.728
2170 1 19.138 10.815 -7.323
2171 1 24.781 8.277 -8.623
2172 1 19.765 15.589 -9.412
2173 1 -7.981 -12.485 -11.235
2174 1 -8.033 -12.860 -13.715
2175 1 -9.086 -12.559 -9.231
2176 1 -12.441 -18.110 22.971
2177 1 -20.015 -15.180 26.511
2178 1 -19.785 -13.270 30.115
2179 1 1.214 27.582 -10.497
2180 1 0.733 32.550 -9.664
2181 1 8.256 30.420 -10.703
2182 1 26.870 18.147 10.818
2183 1 32.698 13.115 17.621
2184 1 28.418 12.518 18.299
2185 1 -4.812 -15.597 -0.365
2186 1 -1.328 -18.059 -10.709
2187 1 5.277 -25.137 0.978
2188 1 -0.604 -24.074 -8.374
2189 1 3.415 -29.070 -13.608
2190 1 3.476 -27.184 -10.937
2191 1 26.694 -3.102 -10.228
2192 1 33.223 -4.062 -11.890
2193 1 29.776 -6.813 -7.230
2194 1 66.665 -4.950 43.047
2195 1 64.042 -12.517 40.214
2196 1 65.165 -11.298 47.445
2197 1 40.621 -26.234 11.429
2198 1 40.426 -27.451 13.427
2199 1 43.136 -27.636 11.098
2200 1 37.910 -24.505 19.526
2201 1 35.588 -29.186 15.400
2202 1 41.611 -30.846 18.178
2203 1 34.508 28.569 -2.509
2204 1 38.042 29.916 -7.815
2205 1 35.497 28.391 -1.262
2206 1 86.214 -2.310 40.710
2207 1 86.015 1.001 39.629
2208 1 83.092 1.286 38.982
2209 1 79.853 9.111 20.134
2210 1 86.541 11.076 21.271
2211 1 80.519 4.982 21.056
2212 1 -10.830 22.169 7.465
2213 1 -9.258 26.133 6.604
2214 1 -11.504 24.745 6.236
2215 1 16.706 -2.521 12.257
2216 1 6.859 -9.027 8.393
2217 1 11.088 -0.413 4.817
2218 1 -3.849 -25.231 5.121
2219 1 -2.144 -25.116 13.801
2220 1 -6.580 -22.859 9.088
2221 1 47.429 -11.081 11.855
2222 1 45.267 -15.816 10.867
2223 1 49.194 -7.133 11.216
2224 1 9.877 10.375 62.710
2225 1 4.821 8.337 68.975
2226 1 6.579 8.663 64.812
2227 1 30.610 -26.596 48.578
2228 1 26.468 -20.843 46.325
2229 1 32.131 -24.558 47.937
2230 1 22.927 30.184 18.380
2231 1 18.903 30.198 26.245
2232 1 21.244 31.638 14.049
2233 1 -19.210 -9.509 31.775
2234 1 -24.056 -9.488 35.181
2235 1 -17.066 -6.050 37.239
2236 1 44.915 2.978 13.563
2237 1 41.266 3.767 9.633
2238 1 42.713 0.164 12.848
2239 1 41.576 -29.703 18.693
2240 1 40.293 -32.403 15.227
2241 1 36.153 -36.052 11.892
2242 1 54.676 6.693 -13.353
2243 1 55.041 10.108 -10.530
2244 1 50.781 10.020 -15.078
2245 1 57.504 5.538 41.848
2246 1 54.807 -1.754 44.291
2247 1 55.799 5.449 38.294
2248 1 3.629 -15.242 -8.774
2249 1 6.894 -13.466 -2.816
2250 1 6.150 -12.837 -3.239
2251 1 -36.528 -2.202 14.881
2252 1 -43.654 -0.932 18.637
2253 1 -37.023 -3.402 25.546
2254 1 24.628 -10.786 25.060
2255 1 18.348 1.338 31.507
2256 1 16.601 -3.765 36.228
2257 1 -6.101 48.365 11.567
2258 1 -10.822 44.586 22.195
2259 1 -5.988 46.988 11.472
2260 1 42.468 39.780 20.563
2261 1 40.842 42.942 16.844
2262 1 45.917 34.564 29.309
2263 1 -0.151 35.535 20.941
2264 1 0.256 35.685 19.203
2265 1 8.604 34.583 13.361
2266 1 10.013 9.363 5.178
2267 1 10.461 15.634 9.287
2268 1 10.436 14.029 8.623
2269 1 14.042 32.531 58.119
2270 1 16.176 31.075 57.231
2271 1 13.288 32.624 51.095
2272 1 14.490 21.560 20.467
2273 1 16.919 24.808 26.803
2274 1 17.558 29.213 24.080
2275 1 24.445 -3.006 12.643
2276 1 21.442 -4.613 9.903
2277 1 27.068 -5.253 17.739
2278 1 6.237 38.502 -27.525
2279 1 6.475 34.336 -25.621
2280 1 8.910 37.176 -19.845
2281 1 33.247 4.888 16.451
2282 1 35.210 6.728 22.807
2283 1 31.795 6.015 15.963
2284 1 28.637 32.655 -4.813
2285 1 28.466 31.894 -8.729
2286 1 34.113 35.148 -15.852
2287 1 56.210 50.434 25.698
2288 1 53.477 57.344 28.104
2289 1 46.519 51.454 35.849
2290 1 -12.402 64.623 -31.340
2291 1 -11.551 68.191 -33.302
2292 1 -11.209 64.513 -39.633
2293 1 15.086 -14.659 23.358
2294 1 11.118 -8.248 15.640
2295 1 14.001 -12.936 26.244
2296 1 -4.292 -6.859 46.920
2297 1 -6.891 -4.095 49.846
2298 1 -10.152 -8.878 48.157
2299 1 -34.797 -19.925 28.588
2300 1 -40.471 -13.041 29.071
2301 1 -39.521 -10.110 24.880
2302 1 34.307 20.498 -6.213
2303 1 36.348 20.238 -9.708
2304 1 39.840 14.875 -10.139
2305 1 0.028 29.277 53.992
2306 1 -3.159 23.250 52.491
2307 1 -3.153 30.336 53.788
2308 1 45.829 68.117 28.838
2309 1 46.166 71.261 26.004
2310 1 41.573 66.651 24.433
2311 1 21.964 13.406 8.595
2312 1 15.749 14.083 7.909
2313 1 17.003 12.520 8.114
2314 1 19.059 -12.107 38.102
2315 1 21.882 -12.850 37.788
2316 1 26.710 -7.492 35.770
2317 1 26.684 20.181 -36.195
2318 1 26.909 20.062 -34.955
2319 1 21.653 20.395 -32.337
2320 1 4.693 -9.223 -9.076
2321 1 6.503 -13.844 -2.331
2322 1 5.509 -9.391 1.896
2323 1 22.145 15.558 27.116
2324 1 24.122 14.057 28.245
2325 1 22.842 17.052 25.927
2326 1 52.585 43.617 22.939
2327 1 51.660 43.276 34.911
2328 1 49.596 39.963 32.530
2329 1 -12.959 46.114 -10.758
2330 1 -11.996 42.370 -5.555
2331 1 -12.614 47.274 -2.060
2332 1 1.216 38.373 57.228
2333 1 0.933 46.754 45.822
2334 1 2.515 45.759 46.853
2335 1 15.262 -38.246 21.546
2336 1 19.051 -34.940 31.541
2337 1 17.297 -35.934 29.790
2338 1 51.813 56.102 26.535
2339 1 50.215 48.448 32.090
2340 1 49.097 56.492 34.723
2341 1 1.093 36.796 18.724
2342 1 2.949 40.886 10.343
2343 1 7.734 35.491 14.870
2344 1 15.341 55.075 41.193
2345 1 10.100 52.686 44.559
2346 1 10.607 57.076 43.045
2347 1 4.075 46.399 -17.220
2348 1 5.499 49.731 -22.080
2349 1 5.052 52.413 -20.300
2350 1 20.101 23.139 15.326
2351 1 21.445 25.554 16.663
2352 1 22.258 18.853 5.518
2353 1 0.597 72.693 28.006
2354 1 3.007 65.151 26.544
2355 1 2.508 66.550 33.465
2356 1 -6.756 -19.681 44.719
2357 1 -14.080 -30.309 44.838
2358 1 -11.353 -18.129 41.950
2359 1 -27.104 18.748 16.284
2360 1 -18.411 24.002 13.074
2361 1 -26.766 23.231 17.354
2362 1 8.608 28.183 -2.463
2363 1 10.033 28.184 -1.740
2364 1 11.786 31.595 -6.227
2365 1 8.257 -12.941 25.578
2366 1 9.542 -10.223 15.672
2367 1 8.085 -16.376 20.864
2368 1 53.377 29.353 55.980
2369 1 46.789 26.727 44.606
2370 1 47.228 26.679 47.557
2371 1 -0.139 23.463 44.461
2372 1 -0.422 24.326 43.895
2373 1 -4.310 24.391 46.752
2374 1 26.640 -16.325 -9.511
2375 1 26.551 -16.173 -9.803
2376 1 25.888 -12.840 -0.200
2377 1 15.715 48.677 62.899
2378 1 16.826 55.312 70.534
2379 1 12.358 49.964 62.117
2380 1 47.470 52.767 -2.560
2381 1 44.629 46.626 -11.865
2382 1 45.614 48.371 -10.485
2383 1 21.769 40.847 16.081
2384 1 25.772 44.008 8.603
2385 1 18.750 37.730 13.331
2386 1 -31.972 10.514 77.163
2387 1 -25.944 9.629 84.321
2388 1 -26.264 4.666 77.645
2389 1 -30.836 -5.538 38.382
2390 1 -31.911 -5.585 28.736
2391 1 -29.942 -1.439 33.432
2392 1 -36.066 18.082 18.419
2393 1 -32.254 18.616 16.819
2394 1 -31.439 19.292 15.335
2395 1 14.079 26.421 44.598
2396 1 15.626 35.336 45.938
2397 1 11.005 32.952 44.034
2398 1 16.214 13.201 15.436
2399 1 11.960 12.261 18.026
2400 1 15.196 16.442 19.930
2401 1 37.371 57.494 16.513
2402 1 33.558 57.200 18.002
2403 1 35.524 52.182 13.041
2404 1 7.885 40.081 21.278
2405 1 4.176 40.512 19.551
2406 1 4.585 38.393 22.693
2407 1 48.675 80.277 9.321
2408 1 49.927 78.463 7.435
2409 1 49.156 78.605 2.787
2410 1 47.165 22.093 26.354
2411 1 51.039 14.368 24.454
2412 1 49.002 17.589 21.857
2413 1 31.602 25.812 20.738
2414 1 25.364 23.067 23.857
2415 1 34.289 24.462 20.690
2416 1 -10.266 44.998 -0.363
2417 1 -8.302 39.086 1.494
2418 1 -14.783 46.847 5.751
2419 1 -4.120 37.312 18.066
2420 1 -8.116 38.174 19.681
2421 1 -7.395 44.006 19.104
2422 1 28.167 34.217 44.442
2423 1 23.699 36.109 44.926
2424 1 22.414 37.284 55.318
2425 1 15.715 89.598 -4.121
2426 1 12.751 87.953 -4.184
2427 1 16.445 86.775 -6.290
2428 1 -6.698 5.692 32.676
2429 1 -13.198 3.900 24.507
2430 1 -13.908 4.520 33.926
2431 1 5.857 -3.898 23.645
2432 1 2.890 -0.971 25.167
2433 1 0.451 -8.472 32.792
2434 1 12.566 71.095 -1.727
2435 1 11.230 67.928 11.441
2436 1 9.573 67.596 9.028
2437 1 32.034 20.294 54.737
2438 1 24.973 21.257 58.850
2439 1 27.056 24.263 50.687
2440 1 49.195 40.175 39.616
2441 1 48.178 38.840 41.192
2442 1 51.051 41.550 37.071
2443 1 51.067 34.080 15.116
2444 1 50.521 35.206 12.858
2445 1 47.389 31.022 5.047
2446 1 46.153 21.050 16.390
2447 1 44.932 22.351 25.794
2448 1 42.361 20.646 25.137
2449 1 -3.549 -13.370 -12.955
2450 1 0.892 -5.372 -10.784
2451 1 2.996 -7.426 -13.691
2452 1 24.788 49.023 31.561
2453 1 23.930 44.588 32.190
2454 1 25.898 54.854 32.149
2455 1 62.047 31.369 40.255
2456 1 66.769 31.908 45.589
2457 1 63.530 30.801 38.481
2458 1 40.349 13.725 60.918
2459 1 45.789 12.717 47.182
2460 1 39.079 13.499 56.967
2461 1 65.624 37.283 68.982
2462 1 63.756 36.109 64.233
2463 1 65.441 33.300 69.507
2464 1 -15.787 54.224 24.583
2465 1 -16.930 55.852 24.736
2466 1 -19.450 47.214 35.576
2467 1 -35.056 26.966 12.561
2468 1 -26.239 27.367 17.784
2469 1 -24.438 29.342 17.115
2470 1 1.945 56.692 -18.779
2471 1 3.213 59.071 -9.155
2472 1 0.866 64.063 0.030
2473 1 37.025 27.878 20.268
2474 1 35.917 31.741 24.481
2475 1 38.836 31.036 22.758
2476 1 3.549 8.074 4.037
2477 1 5.139 12.392 5.418
2478 1 8.850 8.163 5.361
2479 1 3.391 25.730 12.800
2480 1 -0.474 32.507 16.066
2481 1 0.428 27.981 18.126
2482 1 34.885 30.848 -8.692
2483 1 30.358 31.982 -8.489
2484 1 31.421 34.597 -13.575
2485 1 21.008 93.475 -13.243
2486 1 26.273 87.149 2.427
2487 1 25.215 93.791 -5.308
2488 1 2.345 42.771 -6.943
2489 1 7.921 48.316 -7.346
2490 1 4.283 50.913 -3.636
2491 1 17.918 46.698 -12.402
2492 1 17.526 46.289 -8.506
2493 1 18.490 48.600 -7.330
2494 1 38.004 64.721 28.279
2495 1 32.163 71.536 35.401
2496 1 34.758 76.972 33.872
2497 1 27.795 14.082 1.535
2498 1 28.307 23.109 13.183
2499 1 27.060 16.841 9.412
2500 1 -6.401 22.986 42.685
2501 1 -6.511 20.903 44.280
2502 1 -7.334 22.003 38.209
2503 1 -6.772 17.784 2.361
2504 1 0.154 17.742 3.746
2505 1 -2.997 13.188 4.223
2506 1 26.629 54.042 30.103
2507 1 31.587 43.959 33.836
2508 1 27.892 55.501 30.123
2509 1 -7.730 63.140 3.026
2510 1 -11.762 66.987 -1.616
2511 1 -11.504 63.909 -5.974
2512 1 -7.637 66.682 25.561
2513 1 -10.384 64.383 29.428
2514 1 -9.137 65.647 29.170
2515 1 5.730 31.070 11.470
2516 1 3.742 32.353 5.508
2517 1 9.288 30.931 1.797
2518 1 2.567 20.510 35.147
2519 1 10.042 14.822 33.023
2520 1 11.832 19.176 42.925
2521 1 3.866 76.003 50.042
2522 1 0.360 77.533 55.364
2523 1 -1.030 75.007 49.144
2524 1 46.322 51.728 18.980
2525 1 48.509 45.086 20.426
2526 1 48.518 51.604 22.078
2527 1 17.318 64.243 20.974
2528 1 21.561 67.541 24.316
2529 1 19.345 64.131 24.810
2530 1 55.686 48.433 29.367
2531 1 57.636 50.753 39.895
2532 1 57.024 52.463 30.823
2533 1 28.315 26.232 -14.054
2534 1 33.652 21.335 -7.258
2535 1 26.537 31.419 -17.314
2536 1 49.807 91.747 19.069
2537 1 53.106 88.934 18.845
2538 1 53.727 93.810 15.236
2539 1 29.512 69.154 32.550
2540 1 26.812 65.684 32.045
2541 1 26.740 62.409 34.150
2542 1 15.826 -6.567 3.809
2543 1 18.209 -6.778 6.096
2544 1 21.329 -9.345 4.018
2545 1 13.911 9.426 3.451
2546 1 17.367 19.507 -3.125
2547 1 15.464 13.355 -0.666
2548 1 -14.749 -27.318 53.695
2549 1 -21.166 -24.304 62.820
2550 1 -21.034 -21.335 52.972
2551 1 17.261 -14.232 9.529
2552 1 11.571 -9.551 12.263
2553 1 14.976 -7.686 19.497
2554 1 31.939 -24.841 15.169
2555 1 34.598 -23.342 17.357
2556 1 27.317 -27.760 16.420
2557 1 -5.650 -17.023 25.215
2558 1 -7.002 -22.723 17.537
2559 1 -4.302 -19.889 19.047
2560 1 51.820 16.257 21.798
2561 1 52.417 19.516 30.073
2562 1 58.421 18.037 23.601
2563 1 50.880 -4.963 -15.137
2564 1 53.754 0.379 -13.275
2565 1 48.852 2.451 -2.873
2566 1 34.352 16.647 35.468
2567 1 34.891 21.074 39.392
2568 1 32.320 11.011 40.092
2569 1 47.316 9.379 56.175
2570 1 41.661 10.701 59.264
2571 1 42.334 13.238 50.330
2572 1 58.584 27.773 14.261
2573 1 61.115 34.683 11.152
2574 1 69.009 29.219 15.357
2575 1 48.435 52.923 25.281
2576 1 51.520 53.187 30.063
2577 1 42.914 55.239 35.491
2578 1 53.458 -14.344 24.729
2579 1 51.890 -4.999 21.134
2580 1 50.959 -7.020 19.479
2581 1 33.037 33.550 45.319
2582 1 27.281 28.381 54.293
2583 1 33.350 23.445 46.142
2584 1 20.907 -13.167 -6.869
2585 1 22.553 -8.908 -12.056
2586 1 22.557 -8.822 -5.649
2587 1 -8.884 5.739 42.840
2588 1 -15.819 3.508 52.078
2589 1 -13.949 6.197 50.732
2590 1 22.341 14.412 15.844
2591 1 26.824 13.683 23.738
2592 1 26.625 15.027 20.623
2593 1 -30.933 15.480 -9.121
2594 1 -31.018 15.467 -10.155
2595 1 -30.516 16.016 -15.411
2596 1 30.117 1.655 36.556
2597 1 31.996 -5.312 38.437
2598 1 30.687 -2.241 34.153
2599 1 21.759 19.984 29.394
2600 1 18.633 28.382 26.907
2601 1 19.277 21.307 32.729
2602 1 1.733 -2.395 -22.426
2603 1 6.788 -3.693 -15.082
2604 1 4.776 2.505 -15.525
2605 1 26.979 -8.787 41.370
2606 1 25.981 -7.717 39.846
2607 1 25.040 -8.654 37.327
2608 1 4.716 20.760 42.323
2609 1 7.206 14.657 49.228
2610 1 7.738 17.222 40.944
2611 1 9.211 10.307 -2.584
2612 1 22.323 5.128 3.734
2613 1 18.085 8.215 2.028
2614 1 25.955 25.880 12.302
2615 1 28.749 27.964 13.145
2616 1 28.273 29.661 18.207
2617 1 23.200 14.616 19.854
2618 1 27.219 13.410 17.577
2619 1 27.668 4.513 22.217
2620 1 -12.680 -11.756 35.171
2621 1 -18.724 -12.334 29.189
2622 1 -16.069 -1.946 33.003
2623 1 -9.283 3.602 31.944
2624 1 -12.923 1.989 30.613
2625 1 -16.025 2.328 33.785
2626 1 2.229 -31.332 7.771
2627 1 3.133 -28.222 6.362
2628 1 5.566 -27.129 9.264
2629 1 24.596 30.134 22.535
2630 1 17.567 29.900 28.635
2631 1 14.383 22.570 28.004
2632 1 58.863 22.462 15.932
2633 1 60.187 31.252 19.126
2634 1 59.475 30.020 24.384
2635 1 38.780 -9.886 18.521
2636 1 39.537 -2.684 15.090
2637 1 37.942 -2.912 11.894
2638 1 6.603 -21.113 64.833
2639 1 5.651 -12.393 55.118
2640 1 12.564 -12.766 67.602
2641 1 0.990 29.146 36.810
2642 1 0.306 27.313 29.057
2643 1 1.664 30.015 34.984
2644 1 44.008 24.798 47.656
2645 1 44.247 29.624 49.513
2646 1 52.621 27.054 44.855
2647 1 21.064 40.212 37.619
2648 1 20.135 34.326 42.806
2649 1 19.454 35.775 42.749
2650 1 -18.624 21.361 18.128
2651 1 -17.295 21.211 19.902
2652 1 -14.139 25.650 18.542
2653 1 34.594 28.609 24.016
2654 1 33.436 25.381 32.867
2655 1 29.128 24.561 37.809
2656 1 33.315 13.483 37.855
2657 1 41.228 13.915 36.956
2658 1 38.556 12.107 39.876
2659 1 -13.109 -21.933 -6.105
2660 1 -7.900 -17.956 -4.249
2661 1 -9.729 -16.576 -6.339
2662 1 18.327 17.582 19.844
2663 1 20.475 14.609 10.348
2664 1 17.213 12.452 19.136
2665 1 -5.355 -36.592 22.607
2666 1 -5.655 -32.325 19.372
2667 1 -6.078 -32.498 20.100
2668 1 35.370 25.498 28.196
2669 1 30.679 31.464 18.842
2670 1 31.459 31.531 17.683
2671 1 9.333 -0.637 16.422
2672 1 14.179 1.245 21.547
2673 1 16.111 2.818 18.402
2674 1 13.315 7.675 -4.542
2675 1 20.475 11.348 -4.579
2676 1 20.054 11.932 1.437
2677 1 44.797 32.173 15.222
2678 1 47.402 27.884 16.045
2679 1 44.047 29.171 21.465
2680 1 62.373 25.355 40.219
2681 1 62.761 21.819 42.796
2682 1 66.129 21.507 36.342
2683 1 36.167 6.478 41.272
2684 1 38.577 7.711 29.175
2685 1 41.649 10.991 29.324
2686 1 11.443 -24.905 35.185
2687 1 13.754 -18.344 45.026
2688 1 6.781 -18.886 38.947
2689 1 63.242 10.492 -4.490
2690 1 64.844 8.172 -3.914
2691 1 57.009 13.328 -3.744
2692 1 62.284 -8.753 24.435
2693 1 68.045 -15.289 25.609
2694 1 63.335 -11.909 21.339
2695 1 -12.640 -4.888 33.765
2696 1 -20.550 -4.409 31.811
2697 1 -16.139 2.860 34.851
2698 1 62.591 10.365 36.182
2699 1 63.637 20.562 30.821
2700 1 56.609 13.831 32.962
2701 1 20.805 50.577 37.640
2702 1 19.998 44.803 38.142
2703 1 24.109 52.962 27.728
2704 1 7.514 34.078 52.828
2705 1 4.758 35.022 49.958
2706 1 5.973 33.850 58.159
2707 1 -8.225 24.967 22.000
2708 1 -14.058 19.135 22.832
2709 1 -9.077 29.150 18.750
2710 1 32.758 5.563 54.563
2711 1 34.491 4.095 60.429
2712 1 32.149 9.290 63.806
2713 1 -36.082 -1.960 14.771
2714 1 -34.394 -2.428 13.780
2715 1 -42.383 -1.267 11.598
2716 1 -2.358 10.195 45.961
2717 1 -4.496 12.074 46.636
2718 1 -2.002 9.471 43.268
2719 1 2.296 26.555 11.823
2720 1 4.033 30.388 13.794
2721 1 3.497 27.541 22.714
2722 1 -22.762 51.689 -22.318
2723 1 -23.519 50.835 -15.640
2724 1 -19.886 45.473 -22.753
2725 1 -3.408 65.812 16.186
2726 1 -2.880 69.746 28.807
2727 1 2.301 62.306 20.952
2728 1 -0.952 25.937 52.415
2729 1 -0.898 23.500 48.423
2730 1 -1.254 18.508 49.141
2731 1 14.005 63.188 13.489
2732 1 11.171 68.257 8.065
2733 1 11.083 66.598 2.055
2734 1 -11.672 50.417 -14.782
2735 1 -12.832 52.298 -16.895
2736 1 -15.034 46.733 -20.735
2737 1 28.594 36.768 26.410
2738 1 30.843 39.123 23.064
2739 1 30.128 43.671 36.443
2740 1 -37.867 -2.796 14.423
2741 1 -39.078 -0.226 20.801
2742 1 -38.122 -1.669 15.742
2743 1 18.614 2.975 -0.142
2744 1 19.362 0.579 9.955
2745 1 23.060 3.267 3.926
2746 1 50.510 51.121 45.023
2747 1 59.316 52.967 42.456
2748 1 52.644 56.011 44.568
2749 1 -17.507 40.355 -1.822
2750 1 -16.779 40.386 5.168
2751 1 -13.704 36.242 -6.028
2752 1 12.983 48.800 22.006
2753 1 11.714 40.424 26.713
2754 1 11.834 48.463 23.746
2755 1 39.634 39.059 37.924
2756 1 40.221 37.880 38.694
2757 1 35.657 38.044 39.544
2758 1 -2.378 6.958 28.126
2759 1 -3.969 10.135 26.238
2760 1 -3.690 11.915 33.784
2761 1 16.385 11.519 33.546
2762 1 15.283 13.003 38.703
2763 1 12.880 16.908 38.997
2764 1 31.617 48.245 26.592
2765 1 34.322 47.077 26.167
2766 1 32.752 40.009 25.324
2767 1 5.592 64.353 -19.700
2768 1 11.210 55.835 -27.430
2769 1 8.238 62.132 -18.685
2770 1 22.426 18.367 6.179
2771 1 21.364 19.246 10.114
2772 1 20.153 16.163 9.577
2773 1 14.875 29.000 35.993
2774 1 12.608 34.651 29.755
2775 1 14.137 28.197 35.143
2776 1 4.515 20.154 26.717
2777 1 4.558 15.627 28.027
2778 1 3.829 17.599 31.100
2779 1 25.723 30.246 3.202
2780 1 21.998 31.754 13.723
2781 1 20.786 29.538 -3.057
2782 1 -19.043 45.857 34.611
2783 1 -13.641 49.013 42.582
2784 1 -15.145 49.580 35.759
2785 1 71.889 -6.016 47.199
2786 1 73.036 -3.065 55.289
2787 1 73.735 -6.018 58.806
2788 1 2.032 50.061 9.007
2789 1 -3.377 49.606 5.256
2790 1 4.163 50.784 3.021
2791 1 -24.194 42.482 25.520
2792 1 -23.842 40.952 27.054
2793 1 -24.093 48.514 32.242
2794 1 -6.245 18.905 40.738
2795 1 -5.871 20.043 39.152
2796 1 -8.521 17.657 31.706
2797 1 29.321 13.119 20.710
2798 1 28.672 14.666 15.941
2799 1 26.510 15.272 17.259
2800 1 13.682 57.995 -12.645
2801 1 7.714 59.511 -13.731
2802 1 0.037 58.832 -15.084
2803 1 6.800 42.067 17.235
2804 1 14.752 41.729 18.326
2805 1 8.386 38.346 16.909
2806 1 48.286 26.472 18.756
2807 1 45.063 28.476 21.383
2808 1 48.936 25.004 26.792
2809 1 73.432 27.241 15.905
2810 1 70.572 30.219 4.726
2811 1 67.917 27.023 11.343
2812 1 22.436 8.843 40.995
2813 1 17.688 12.795 40.308
2814 1 27.525 9.978 47.042
2815 1 35.016 50.887 40.344
2816 1 34.836 52.101 39.983
2817 1 34.628 45.261 40.187
2818 1 1.758 32.400 43.625
2819 1 10.025 30.921 35.169
2820 1 6.158 36.560 37.981
2821 1 47.303 46.521 70.437
2822 1 44.733 50.150 64.047
2823 1 45.335 55.230 69.591
2824 1 42.191 24.617 11.513
2825 1 34.869 25.922 11.762
2826 1 35.436 31.602 5.990
2827 1 36.238 60.397 5.919
2828 1 29.474 62.356 9.805
2829 1 28.278 59.101 6.795
2830 1 27.122 43.353 48.287
2831 1 28.007 49.226 47.688
2832 1 26.934 47.651 54.327
2833 1 7.505 44.256 19.447
2834 1 3.971 44.705 21.525
2835 1 8.359 41.354 21.343
2836 1 26.537 20.877 55.625
2837 1 22.624 9.215 61.203
2838 1 19.174 17.704 60.510
2839 1 11.793 47.455 46.711
2840 1 18.459 55.836 51.803
2841 1 12.713 52.305 48.161
2842 1 -1.159 56.844 1.369
2843 1 -7.069 58.087 4.693
2844 1 0.970 60.391 6.737
2845 1 39.046 49.347 -1.677
2846 1 42.536 45.193 -1.211
2847 1 40.964 52.945 -3.883
2848 1 13.055 47.648 -9.576
2849 1 20.287 47.382 -10.711
2850 1 17.342 52.324 -2.656
2851 1 14.489 30.425 34.493
2852 1 16.743 30.798 35.764
2853 1 17.425 36.673 29.038
2854 1 36.558 16.712 9.845
2855 1 34.181 9.853 4.208
2856 1 41.615 10.216 6.199
2857 1 23.722 53.313 10.745
2858 1 21.245 53.129 5.932
2859 1 24.182 60.342 4.922
2860 1 27.696 47.407 15.176
2861 1 34.352 38.595 10.048
2862 1 26.599 42.496 9.688
2863 1 62.170 28.421 59.029
2864 1 59.197 24.615 67.562
2865 1 63.225 33.223 61.269
2866 1 6.333 -31.395 8.961
2867 1 10.708 -22.026 4.415
2868 1 8.367 -22.955 8.457
2869 1 29.054 45.335 6.997
2870 1 27.734 39.100 4.107
2871 1 24.870 43.208 5.802
2872 1 46.040 -6.683 7.235
2873 1 47.977 -1.829 2.168
2874 1 46.952 -1.503 6.264
2875 1 0.195 1.706 42.136
2876 1 2.721 6.976 31.745
2877 1 7.714 7.066 27.484
2878 1 13.431 27.739 -14.111
2879 1 17.921 22.721 -7.603
2880 1 15.177 24.421 -16.823
2881 1 49.553 17.168 -13.001
2882 1 50.618 17.383 -10.505
2883 1 55.955 22.595 -13.725
2884 1 5.910 -46.498 17.761
2885 1 11.290 -41.174 13.745
2886 1 3.816 -40.537 13.143
2887 1 36.953 1.082 31.915
2888 1 35.439 1.049 28.816
2889 1 32.231 3.365 20.313
2890 1 47.585 -35.318 2.542
2891 1 54.227 -43.183 -3.157
2892 1 48.871 -39.661 -5.041
2893 1 46.712 -7.298 11.716
2894 1 49.021 -4.321 17.508
2895 1 43.282 -6.273 22.295
2896 1 60.965 4.975 11.256
2897 1 59.165 2.909 13.902
2898 1 56.558 4.591 11.935
2899 1 29.493 -33.466 36.066
2900 1 26.524 -33.685 33.443
2901 1 30.154 -31.063 30.998
2902 1 50.262 -14.633 19.262
2903 1 53.062 -16.757 22.878
2904 1 50.300 -10.800 23.478
2905 1 -12.001 -16.278 55.390
2906 1 -10.618 -13.135 61.625
2907 1 -11.508 -10.011 67.589
2908 1 15.867 6.472 42.019
2909 1 17.976 11.916 44.943
2910 1 18.984 8.147 43.485
2911 1 47.167 9.010 29.030
2912 1 49.718 5.265 29.452
2913 1 50.129 3.482 27.453
2914 1 -3.445 -17.517 -16.137
2915 1 -0.218 -24.496 -9.663
2916 1 -3.473 -27.558 -9.520
2917 1 14.960 35.940 9.411
2918 1 18.128 37.833 8.388
2919 1 16.055 39.379 12.256
2920 1 40.621 15.227 8.894
2921 1 34.394 16.918 8.108
2922 1 36.582 12.761 2.858
2923 1 20.332 -20.197 20.359
2924 1 20.667 -15.383 12.119
2925 1 20.979 -17.989 16.830
2926 1 32.350 9.573 23.826
2927 1 31.814 6.302 32.008
2928 1 31.524 8.901 29.092
2929 1 -1.216 -1.365 32.926
2930 1 4.709 -3.100 39.454
2931 1 -1.170 -2.493 36.490
2932 1 31.667 6.882 43.910
2933 1 33.653 4.820 45.136
2934 1 26.509 4.036 35.898
2935 1 48.792 0.704 24.868
2936 1 49.890 8.758 25.471
2937 1 49.362 0.170 26.582
2938 1 41.641 11.423 6.290
2939 1 42.597 16.202 1.258
2940 1 42.509 22.980 9.861
2941 1 49.576 -22.622 36.240
2942 1 47.146 -17.414 34.231
2943 1 56.725 -19.873 35.562
2944 1 18.961 12.159 2.533
2945 1 23.520 5.228 1.640
2946 1 24.924 8.123 6.923
2947 1 8.207 28.010 -3.694
2948 1 5.292 32.975 1.368
2949 1 3.137 27.282 -2.715
2950 1 23.437 56.520 -5.043
2951 1 27.379 59.517 -7.111
2952 1 32.273 59.478 -5.362
2953 1 -15.463 6.377 33.154
2954 1 -13.203 5.150 29.312
2955 1 -15.710 6.035 31.759
2956 1 40.753 13.421 15.159
2957 1 38.436 14.862 10.022
2958 1 39.608 12.675 14.550
2959 1 45.425 26.421 31.795
2960 1 46.010 17.064 30.434
2961 1 43.190 22.863 33.624
2962 1 28.661 57.818 20.002
2963 1 34.932 61.067 21.836
2964 1 29.402 61.218 22.686
2965 1 13.307 32.258 44.376
2966 1 14.961 36.130 44.917
2967 1 18.141 37.599 38.175
2968 1 -0.520 6.656 38.217
2969 1 -2.874 1.911 38.579
2970 1 -3.754 -0.956 37.897
2971 1 4.609 10.139 25.438
2972 1 4.181 3.223 31.076
2973 1 8.209 6.933 30.922
2974 1 17.160 -5.377 19.534
2975 1 17.965 -1.518 30.326
2976 1 16.127 -7.178 27.552
2977 1 47.723 -2.107 -13.926
2978 1 48.201 -12.022 -5.717
2979 1 48.681 -4.018 -2.959
2980 1 47.484 15.211 8.819
2981 1 47.927 18.210 11.994
2982 1 50.475 15.204 12.484
2983 1 23.055 -32.149 26.908
2984 1 25.924 -28.496 25.613
2985 1 23.288 -33.819 21.178
2986 1 -4.183 3.193 33.948
2987 1 -15.783 3.689 40.320
2988 1 -7.685 7.677 40.758
2989 1 23.307 24.038 40.465
2990 1 23.327 23.830 40.252
2991 1 25.205 22.886 44.153
2992 1 26.263 25.446 16.571
2993 1 28.472 28.061 12.831
2994 1 26.630 24.101 16.667
2995 1 26.383 34.760 17.174
2996 1 31.668 35.787 13.007
2997 1 30.984 35.959 15.868
2998 1 38.153 9.705 40.965
2999 1 33.809 13.168 38.576
3000 1 41.012 15.401 42.461
3001 1 16.927 25.796 35.941
3002 1 15.577 26.132 32.765
3003 1 15.106 26.407 31.882
3004 1 -13.976 14.844 18.516
3005 1 -12.942 19.009 28.791
3006 1 -15.847 15.577 27.617
3007 1 30.121 -26.053 33.458
3008 1 32.098 -13.943 33.818
3009 1 33.754 -19.515 37.409
3010 1 6.450 6.855 -13.311
3011 1 5.215 6.314 -13.625
3012 1 2.580 13.046 -13.008
3013 1 9.644 -6.470 58.766
3014 1 12.750 -2.798 58.772
3015 1 12.496 -7.730 61.791
3016 1 -10.949 34.842 -25.270
3017 1 -12.200 26.130 -24.157
3018 1 -14.861 31.744 -17.925
3019 1 51.332 -1.567 28.780
3020 1 48.488 -7.901 34.472
3021 1 53.670 -4.299 35.278
3022 1 -29.078 25.198 15.489
3023 1 -30.878 21.299 13.532
3024 1 -34.062 25.784 16.109
3025 1 19.816 41.750 36.072
3026 1 18.550 36.085 27.895
3027 1 21.312 38.034 36.600
3028 1 -14.021 11.579 42.141
3029 1 -10.357 16.696 36.003
3030 1 -19.080 16.955 29.908
3031 1 37.480 26.470 52.448
3032 1 34.862 23.338 48.537
3033 1 36.665 26.151 49.034
3034 1 -16.969 25.066 3.486
3035 1 -20.419 19.788 0.661
3036 1 -17.388 22.081 -0.538
3037 1 -25.686 -1.126 51.161
3038 1 -24.035 -6.965 56.916
3039 1 -21.179 -5.502 57.414
3040 1 22.496 54.170 58.251
3041 1 22.047 52.370 56.077
3042 1 23.648 55.893 60.810
3043 1 13.219 19.643 51.103
3044 1 8.700 28.122 54.704
3045 1 11.862 24.992 56.133
3046 1 42.858 60.175 21.371
3047 1 45.399 61.849 18.863
3048 1 42.978 58.379 16.474
3049 1 37.673 2.165 27.840
3050 1 33.727 4.292 25.243
3051 1 36.083 -3.554 31.425
3052 1 -29.551 51.914 17.017
3053 1 -32.607 49.197 24.209
3054 1 -29.271 51.313 22.860
3055 1 -16.094 8.728 35.329
3056 1 -11.289 15.732 44.561
3057 1 -12.941 13.973 45.177
3058 1 32.118 54.196 26.984
3059 1 32.703 63.395 20.662
3060 1 25.986 61.636 21.450
3061 1 27.228 57.411 11.357
3062 1 21.811 55.821 21.177
3063 1 24.503 57.036 19.246
3064 1 23.299 25.320 4.203
3065 1 25.426 27.695 13.261
3066 1 25.455 23.429 15.733
3067 1 25.800 8.226 55.066
3068 1 22.972 9.116 55.975
3069 1 19.739 8.442 56.439
3070 1 31.781 34.927 -0.056
3071 1 29.159 31.035 -2.696
3072 1 32.477 30.057 4.994
3073 1 -8.387 53.769 15.261
3074 1 -8.250 51.028 16.059
3075 1 -7.796 52.938 21.382
3076 1 55.660 38.252 26.456
3077 1 55.800 33.981 28.991
3078 1 56.643 36.675 28.094
3079 1 35.668 48.898 53.258
3080 1 28.996 49.266 54.236
3081 1 33.718 43.655 66.354
3082 1 25.614 45.536 10.716
3083 1 25.463 42.336 10.428
3084 1 25.481 39.896 14.945
3085 1 41.697 -1.353 39.335
3086 1 38.499 0.032 34.760
3087 1 39.957 4.058 32.604
3088 1 7.273 48.246 40.068
3089 1 18.408 53.566 47.804
3090 1 7.926 47.391 47.413
3091 1 -10.770 26.034 -17.422
3092 1 -15.258 33.254 -20.070
3093 1 -15.675 25.105 -21.052
3094 1 15.907 63.072 52.557
3095 1 16.394 62.083 43.651
3096 1 18.064 61.056 48.114
3097 1 -1.224 33.973 56.886
3098 1 -2.385 37.902 58.386
3099 1 -2.459 25.010 53.441
3100 1 29.033 52.656 -12.756
3101 1 23.379 52.158 -18.252
3102 1 25.139 46.531 -11.120
3103 1 8.071 38.374 37.340
3104 1 4.721 39.687 40.219
3105 1 6.929 40.471 39.545
3106 1 35.454 -17.994 13.752
3107 1 35.832 -14.601 11.410
3108 1 36.807 -15.659 16.367
3109 1 34.869 33.637 -18.799
3110 1 36.841 36.574 -14.016
3111 1 33.985 34.138 -12.425
3112 1 32.771 39.560 30.786
3113 1 23.902 39.997 28.308
3114 1 25.875 33.902 26.512
3115 1 4.141 4.939 50.489
3116 1 1.972 7.600 47.067
3117 1 -0.140 8.079 42.162
3118 1 35.014 3.150 28.142
3119 1 33.689 13.114 22.043
3120 1 39.144 3.067 25.640
3121 1 47.224 59.497 25.519
3122 1 53.182 72.462 29.054
3123 1 45.129 68.797 28.244
3124 1 54.320 66.686 7.685
3125 1 50.151 63.033 2.744
3126 1 54.815 61.956 2.728
3127 1 48.456 49.685 38.377
3128 1 53.848 51.723 36.483
3129 1 50.171 51.446 33.581
3130 1 -2.394 8.818 1.802
3131 1 3.676 22.601 -0.211
3132 1 1.159 20.932 -0.062
3133 1 22.584 79.727 60.961
3134 1 22.591 77.913 53.656
3135 1 22.702 71.222 55.507
3136 1 12.209 46.235 34.181
3137 1 15.099 37.238 28.749
3138 1 14.065 37.830 33.996
3139 1 4.304 17.102 48.605
3140 1 7.818 20.821 54.736
3141 1 0.370 11.220 53.593
3142 1 39.290 41.167 8.695
3143 1 43.252 42.877 13.895
3144 1 42.002 42.686 14.902
3145 1 49.626 59.861 2.272
3146 1 48.611 56.014 -2.973
3147 1 42.441 52.883 3.535
3148 1 29.907 41.178 52.405
3149 1 31.958 29.435 44.677
3150 1 38.673 39.050 45.898
3151 1 48.183 60.154 -1.191
3152 1 40.794 66.109 1.904
3153 1 43.634 66.683 -7.385
3154 1 -7.561 23.968 20.657
3155 1 -9.011 31.664 24.816
3156 1 -14.332 29.108 13.517
3157 1 18.430 18.372 43.864
3158 1 22.319 20.380 47.884
3159 1 20.724 17.010 40.797
3160 1 32.450 62.486 30.629
3161 1 32.653 59.806 24.049
3162 1 26.513 58.781 34.564
3163 1 15.181 67.644 14.136
3164 1 9.906 62.372 25.342
3165 1 11.946 59.594 17.491
3166 1 21.997 63.358 20.102
3167 1 15.044 55.707 20.721
3168 1 16.212 54.234 15.758
3169 1 24.859 -3.736 9.643
3170 1 23.903 -0.881 6.319
3171 1 19.944 -3.090 15.333
3172 1 -30.719 -22.534 24.623
3173 1 -31.069 -20.608 26.234
3174 1 -31.274 -19.757 31.063
3175 1 31.172 36.971 37.339
3176 1 30.201 37.789 31.419
3177 1 24.229 35.639 35.592
3178 1 22.219 3.162 39.269
3179 1 20.627 2.066 38.203
3180 1 20.808 7.102 36.285
3181 1 34.882 -28.990 28.373
3182 1 37.320 -27.563 32.804
3183 1 38.274 -25.630 33.257
3184 1 27.201 3.139 17.817
3185 1 24.141 1.183 14.294
3186 1 25.254 3.467 18.228
3187 1 6.617 5.475 11.738
3188 1 2.406 3.425 23.761
3189 1 1.427 3.995 13.919
3190 1 -12.504 6.920 13.312
3191 1 -11.939 -0.050 6.336
3192 1 -13.443 0.177 14.124
3193 1 0.701 15.101 33.005
3194 1 4.606 15.778 30.705
3195 1 1.762 10.215 32.431
3196 1 66.971 -0.833 44.175
3197 1 65.522 3.497 51.109
3198 1 68.360 -5.539 58.302
3199 1 84.241 20.687 57.070
3200 1 80.667 21.546 60.013
3201 1 82.001 20.847 59.114
3202 1 2.893 2.056 56.971
3203 1 2.476 0.976 63.318
3204 1 3.042 2.799 61.084
3205 1 4.010 8.826 62.875
3206 1 5.879 11.782 60.145
3207 1 3.065 13.892 57.124
3208 1 -3.507 1.134 4.747
3209 1 -3.962 0.784 4.414
3210 1 -2.896 -0.279 3.152
3211 1 11.370 18.774 1.835
3212 1 11.192 17.097 2.772
3213 1 12.535 18.008 6.457
3214 1 26.784 -0.661 56.778
3215 1 22.949 0.332 56.701
3216 1 20.918 -3.139 53.238
3217 1 -12.155 3.565 27.132
3218 1 -16.959 2.754 36.664
3219 1 -11.380 5.077 38.797
3220 1 13.106 20.436 28.935
3221 1 15.194 18.964 29.486
3222 1 8.908 16.400 27.843
3223 1 14.814 -6.510 -6.889
3224 1 10.669 -2.634 -7.764
3225 1 9.570 -7.236 -5.573
3226 1 41.140 34.190 -5.253
3227 1 41.565 31.632 -12.545
3228 1 42.197 26.943 -15.409
3229 1 25.982 19.820 6.696
3230 1 28.521 6.864 11.071
3231 1 24.838 15.231 10.361
3232 1 32.114 -22.327 53.197
3233 1 34.378 -20.607 42.818
3234 1 34.707 -18.886 44.388
3235 1 18.724 -33.742 16.503
3236 1 12.939 -29.265 22.756
3237 1 16.084 -35.951 20.423
3238 1 18.413 13.281 27.701
3239 1 17.918 12.629 23.013
3240 1 14.026 12.590 23.300
3241 1 49.091 31.120 -8.393
3242 1 55.129 37.678 -13.229
3243 1 46.737 41.272 -11.701
3244 1 36.900 -4.205 59.751
3245 1 35.154 -0.891 63.485
3246 1 31.062 -4.050 56.960
3247 1 -4.212 11.736 -1.767
3248 1 -8.972 7.089 -1.795
3249 1 -6.571 14.176 -4.206
3250 1 5.018 -8.294 -7.541
3251 1 5.392 -11.867 -5.346
3252 1 1.411 -13.944 1.516
3253 1 21.330 12.946 52.388
3254 1 26.725 19.516 50.850
3255 1 26.719 14.170 53.079
3256 1 27.772 -1.669 27.169
3257 1 25.142 1.536 32.244
3258 1 25.527 -1.082 24.541
3259 1 37.683 -0.191 39.891
3260 1 41.197 10.002 43.667
3261 1 41.057 4.294 47.033
3262 1 36.117 2.571 28.368
3263 1 30.146 0.218 30.688
3264 1 30.261 4.224 27.066
3265 1 33.690 10.601 34.443
3266 1 37.451 12.924 24.756
3267 1 40.585 20.661 34.918
3268 1 28.392 -12.120 30.953
3269 1 29.354 -7.160 31.848
3270 1 26.073 -13.000 27.915
3271 1 30.870 13.642 38.633
3272 1 33.616 17.996 43.750
3273 1 33.769 14.953 46.425
3274 1 48.702 -30.510 33.364
3275 1 44.712 -27.952 34.552
3276 1 46.958 -20.527 29.029
3277 1 47.352 -21.130 50.949
3278 1 48.214 -14.152 51.847
3279 1 44.408 -17.066 58.785
3280 1 48.298 -11.804 23.926
3281 1 47.107 -8.274 34.817
3282 1 44.725 -15.442 27.983
3283 1 43.158 27.437 18.172
3284 1 40.979 25.336 13.554
3285 1 39.859 23.484 14.962
3286 1 17.014 20.059 14.156
3287 1 14.493 16.404 12.904
3288 1 23.535 18.581 12.130
3289 1 -17.744 24.427 8.223
3290 1 -17.041 24.988 8.676
3291 1 -13.110 22.030 6.547
3292 1 31.236 -11.539 39.849
3293 1 28.047 -9.292 43.463
3294 1 31.855 -15.953 28.738
3295 1 1.650 23.874 46.432
3296 1 5.196 17.818 54.884
3297 1 5.894 21.104 48.320
3298 1 37.620 -14.925 37.137
3299 1 40.853 -16.529 28.595
3300 1 42.290 -15.857 30.261
3301 1 2.592 33.804 -12.777
3302 1 3.355 38.041 -9.755
3303 1 -0.220 31.257 -10.108
3304 1 -9.051 27.712 32.037
3305 1 -6.554 17.670 24.344
3306 1 -4.289 29.006 26.809
3307 1 28.439 25.044 4.807
3308 1 28.835 23.128 6.005
3309 1 31.183 25.854 8.179
3310 1 33.580 28.003 23.342
3311 1 32.987 25.649 31.883
3312 1 31.318 24.232 26.337
3313 1 -7.610 3.297 11.506
3314 1 -3.323 1.853 12.304
3315 1 -9.854 4.506 15.191
3316 1 40.851 19.925 30.553
3317 1 43.099 28.198 27.999
3318 1 48.875 22.351 22.839
3319 1 18.435 23.689 23.853
3320 1 18.815 21.077 18.317
3321 1 18.522 27.264 20.236
3322 1 57.355 31.209 28.258
3323 1 66.017 36.378 23.858
3324 1 63.334 28.616 28.346
3325 1 1.088 33.042 11.050
3326 1 -4.855 23.842 8.787
3327 1 2.883 33.907 9.586
3328 1 58.817 50.755 43.342
3329 1 61.229 51.377 43.148
3330 1 56.906 49.692 37.702
3331 1 -17.609 27.993 12.391
3332 1 -22.933 31.623 8.370
3333 1 -19.252 23.248 9.903
3334 1 30.247 31.137 18.262
3335 1 22.802 28.410 10.380
3336 1 30.099 30.830 19.388
3337 1 6.920 49.950 -15.866
3338 1 4.794 49.488 -16.946
3339 1 7.167 54.336 -17.778
3340 1 11.706 21.547 22.662
3341 1 11.690 24.832 15.498
3342 1 12.532 28.613 11.852
3343 1 17.903 19.072 52.257
3344 1 18.725 20.678 58.961
3345 1 19.582 19.026 53.521
3346 1 20.064 9.865 -21.881
3347 1 18.734 12.141 -13.544
3348 1 22.984 15.328 -20.860
3349 1 16.336 29.976 32.908
3350 1 12.686 25.297 35.986
3351 1 14.754 25.796 35.099
3352 1 36.267 70.783 31.852
3353 1 33.847 68.835 33.441
3354 1 37.677 67.293 34.816
3355 1 9.071 37.530 49.039
3356 1 10.773 34.778 51.171
3357 1 7.965 34.398 51.106
3358 1 -26.723 29.786 -13.587
3359 1 -30.891 20.309 -12.825
3360 1 -27.319 27.976 -15.019
3361 1 3.313 0.689 6.333
3362 1 7.541 -3.681 11.487
3363 1 2.330 -2.838 8.130
3364 1 11.643 32.619 42.717
3365 1 13.279 29.252 40.657
3366 1 13.755 30.293 47.014
3367 1 28.879 18.695 33.546
3368 1 30.888 16.150 43.265
3369 1 34.420 19.778 42.332
3370 1 32.124 30.570 21.443
3371 1 37.919 33.131 12.349
3372 1 27.637 33.625 17.446
3373 1 -0.069 50.018 4.292
3374 1 -5.986 42.867 1.183
3375 1 -3.472 45.347 -1.319
3376 1 19.497 52.748 50.318
3377 1 16.081 46.725 50.174
3378 1 16.948 54.677 49.316
3379 1 -17.312 40.976 8.730
3380 1 -21.932 34.905 15.742
3381 1 -25.940 37.415 17.013
3382 1 2.552 51.801 -8.612
3383 1 -4.583 51.644 -17.932
3384 1 -3.616 51.901 -20.222
3385 1 12.817 24.926 23.814
3386 1 11.262 28.609 19.165
3387 1 13.081 25.542 30.208
3388 1 28.912 70.491 32.279
3389 1 35.173 67.472 33.213
3390 1 39.008 67.786 30.873
3391 1 20.580 47.245 22.640
3392 1 18.026 49.570 20.219
3393 1 18.915 44.076 19.391
3394 1 8.716 62.150 -1.265
3395 1 1.008 63.108 4.356
3396 1 7.666 65.879 4.196
3397 1 -21.630 60.674 49.977
3398 1 -20.660 60.896 57.514
3399 1 -16.779 62.586 52.319
3400 1 42.014 59.923 39.558
3401 1 42.879 58.903 43.624
3402 1 37.700 63.694 41.498
3403 1 28.675 70.490 48.655
3404 1 30.627 73.170 52.581
3405 1 31.864 75.320 63.148
3406 1 51.853 55.104 26.588
3407 1 47.079 48.204 38.022
3408 1 54.256 56.022 28.347
3409 1 53.319 47.161 25.643
3410 1 48.711 50.042 29.236
3411 1 50.579 41.513 27.343
3412 1 -30.829 42.453 16.110
3413 1 -28.406 42.784 16.835
3414 1 -34.161 35.679 11.137
3415 1 41.257 -13.687 20.809
3416 1 38.128 -9.207 12.671
3417 1 41.991 -9.663 20.125
3418 1 0.500 50.986 38.326
3419 1 1.906 57.301 42.854
3420 1 0.073 52.776 40.338
3421 1 16.054 61.297 41.066
3422 1 15.435 59.188 45.995
3423 1 17.438 65.771 43.199
3424 1 2.154 36.780 -11.667
3425 1 -0.215 38.559 -12.416
3426 1 2.261 40.547 -12.028
3427 1 -21.061 45.768 24.893
3428 1 -23.714 48.017 30.505
3429 1 -21.772 42.473 21.054
3430 1 47.006 61.410 46.084
3431 1 47.853 60.942 49.973
3432 1 52.327 63.247 47.409
3433 1 52.817 37.967 18.798
3434 1 61.041 34.916 25.558
3435 1 58.186 35.661 14.817
3436 1 20.255 16.019 47.679
3437 1 22.613 12.292 49.234
3438 1 22.796 7.647 45.967
3439 1 39.647 70.024 26.408
3440 1 39.759 78.987 33.505
3441 1 37.555 73.787 23.889
3442 1 14.624 3.468 34.921
3443 1 8.723 -7.095 31.424
3444 1 13.833 -6.928 31.595
3445 1 35.372 8.661 4.964
3446 1 34.738 -2.771 16.441
3447 1 22.967 4.731 13.804
3448 1 55.859 43.826 37.592
3449 1 47.473 39.020 46.724
3450 1 50.792 42.300 42.453
3451 1 9.968 2.093 43.546
3452 1 8.320 2.798 46.423
3453 1 5.779 -0.219 47.556
3454 1 13.103 34.867 18.079
3455 1 5.504 29.978 17.001
3456 1 4.707 28.470 16.544
3457 1 -24.119 27.073 24.401
3458 1 -20.191 28.718 19.779
3459 1 -23.851 24.951 12.078
3460 1 5.607 33.319 -6.783
3461 1 9.733 39.356 -10.155
3462 1 9.818 31.454 -8.978
3463 1 -18.661 -25.536 47.395
3464 1 -17.470 -23.416 39.348
3465 1 -19.350 -18.471 56.425
3466 1 44.121 54.659 -15.825
3467 1 45.812 54.400 -14.730
3468 1 42.053 52.593 -9.926
3469 1 30.322 69.881 34.485
3470 1 37.075 69.195 31.878
3471 1 34.218 73.108 22.189
3472 1 -14.664 17.250 30.120
3473 1 -9.913 15.702 35.636
3474 1 -6.713 18.048 31.446
3475 1 7.876 66.688 37.773
3476 1 7.448 66.533 34.517
3477 1 7.190 70.059 32.662
3478 1 2.945 60.527 36.334
3479 1 2.377 50.647 34.925
3480 1 -0.340 62.936 33.881
3481 1 43.971 63.229 -1.012
3482 1 46.622 54.155 -6.700
3483 1 46.731 58.193 5.100
3484 1 17.603 73.970 19.646
3485 1 15.505 72.715 13.260
3486 1 16.303 75.634 10.714
3487 1 67.457 58.311 9.625
3488 1 68.346 56.254 7.975
3489 1 64.023 60.837 12.486
3490 1 37.726 -18.517 50.126
3491 1 37.299 -8.229 55.481
3492 1 45.625 -5.165 48.929
3493 1 34.024 -16.703 41.753
3494 1 33.971 -20.818 44.309
3495 1 34.468 -23.248 46.807
3496 1 10.026 26.081 17.522
3497 1 13.513 19.819 24.757
3498 1 7.835 24.188 21.314
3499 1 20.550 -8.381 23.855
3500 1 20.442 -15.962 20.752
3501 1 16.520 -16.107 24.144
3502 1 12.565 -0.469 39.360
3503 1 14.435 5.263 33.227
3504 1 11.879 5.501 41.118
3505 1 7.709 -14.612 15.252
3506 1 9.523 -10.246 15.187
3507 1 6.062 -8.575 18.048
3508 1 -2.771 30.781 29.516
3509 1 -5.741 34.333 30.237
3510 1 -2.955 32.420 34.918
3511 1 12.390 19.288 -6.658
3512 1 7.293 19.185 -6.406
3513 1 8.988 15.672 -11.666
3514 1 57.627 4.107 46.113
3515 1 54.955 0.916 47.317
3516 1 48.989 -1.834 53.177
3517 1 44.133 -30.067 26.865
3518 1 42.502 -28.129 30.787
3519 1 46.182 -22.043 29.026
3520 1 55.805 12.371 38.486
3521 1 53.741 11.685 40.091
3522 1 55.614 15.347 44.250
3523 1 29.245 -34.702 39.729
3524 1 31.689 -37.978 37.940
3525 1 30.694 -43.672 39.867
3526 1 82.099 1.292 23.354
3527 1 86.880 3.669 19.850
3528 1 83.631 6.238 19.553
3529 1 35.587 -15.903 18.791
3530 1 33.138 -17.184 18.769
3531 1 36.038 -20.027 4.838
3532 1 -8.955 -40.332 55.196
3533 1 -6.102 -36.332 51.563
3534 1 -6.550 -43.697 50.901
3535 1 13.532 12.409 39.416
3536 1 1.836 7.738 46.890
3537 1 5.449 4.616 39.818
3538 1 0.186 -7.475 12.203
3539 1 5.588 -6.469 8.884
3540 1 7.148 -3.948 13.182
3541 1 41.791 12.982 39.574
3542 1 42.466 7.385 44.337
3543 1 36.604 18.201 44.278
3544 1 -14.501 17.549 55.300
3545 1 -14.717 20.823 58.821
3546 1 -16.301 22.660 57.781
3547 1 41.389 -3.297 48.394
3548 1 39.111 -13.338 43.273
3549 1 44.695 -15.376 47.623
3550 1 41.934 -0.742 62.661
3551 1 42.454 -3.637 69.339
3552 1 41.310 -1.337 66.550
3553 1 31.147 -14.215 39.778
3554 1 24.081 -17.975 42.330
3555 1 30.031 -18.125 46.649
3556 1 2.119 31.272 -11.971
3557 1 10.378 37.094 -11.413
3558 1 9.500 43.486 -14.625
3559 1 19.397 -5.845 11.671
3560 1 16.006 -4.799 17.109
3561 1 23.433 -5.556 19.321
3562 1 20.523 -17.903 32.268
3563 1 25.740 -15.945 34.310
3564 1 21.245 -17.587 37.272
3565 1 46.615 -13.730 49.352
3566 1 45.329 -7.608 34.941
3567 1 49.361 -10.260 40.125
3568 1 -6.688 -5.182 19.776
3569 1 -2.902 -0.195 23.811
3570 1 -0.335 -1.756 32.349
3571 1 24.079 7.215 48.155
3572 1 19.521 4.108 40.834
3573 1 17.922 -0.287 40.218
3574 1 26.052 0.822 13.341
3575 1 28.413 -1.749 19.950
3576 1 25.186 0.411 21.187
3577 1 -6.690 -11.434 54.142
3578 1 -4.516 0.072 41.924
3579 1 -8.301 -5.575 52.832
3580 1 38.828 34.033 32.210
3581 1 37.031 44.561 26.698
3582 1 41.935 36.464 28.403
3583 1 40.460 36.786 24.077
3584 1 40.176 34.313 26.496
3585 1 36.767 35.004 20.195
3586 1 22.761 33.534 -3.067
3587 1 22.634 38.836 -2.532
3588 1 20.426 37.703 -2.901
3589 1 18.776 11.013 19.995
3590 1 23.555 11.911 20.009
3591 1 21.652 13.244 20.662
3592 1 32.437 -10.105 17.007
3593 1 29.720 -0.698 19.973
3594 1 33.533 -9.883 14.655
3595 1 3.927 12.722 35.601
3596 1 0.869 13.553 31.167
3597 1 2.050 13.319 26.116
3598 1 36.096 15.133 35.502
3599 1 35.381 14.154 35.968
3600 1 38.769 21.093 33.250
3601 1 5.689 21.476 44.192
3602 1 3.982 17.394 45.252
3603 1 6.295 21.628 46.635
3604 1 62.837 -15.116 63.106
3605 1 64.336 -16.589 64.164
3606 1 57.820 -13.929 66.134
3607 1 -37.700 -2.429 24.272
3608 1 -39.710 -9.833 28.001
3609 1 -38.859 -11.387 28.161
3610 1 15.343 47.535 9.036
3611 1 18.270 48.531 4.935
3612 1 19.442 53.297 -1.715
3613 1 1.006 9.710 49.530
3614 1 -3.099 10.013 50.129
3615 1 -4.879 12.429 41.841
3616 1 27.619 -6.187 7.988
3617 1 27.671 -10.690 -0.465
3618 1 26.732 -5.326 -4.760
3619 1 20.956 -0.535 41.340
3620 1 16.527 0.667 46.784
3621 1 11.463 0.646 47.294
3622 1 -0.332 23.965 -2.116
3623 1 2.056 25.980 0.054
3624 1 0.332 21.742 -3.245
3625 1 26.526 14.806 30.311
3626 1 31.615 11.226 27.185
3627 1 34.139 13.356 24.515
3628 1 32.203 66.422 8.047
3629 1 33.601 66.086 11.088
3630 1 32.638 66.346 19.076
3631 1 -5.223 29.671 46.340
3632 1 0.256 30.077 47.396
3633 1 -5.957 26.416 42.215
3634 1 55.227 42.779 33.081
3635 1 56.871 44.087 30.304
3636 1 54.264 44.491 24.101
3637 1 19.339 17.623 3.516
3638 1 14.619 19.334 -6.863
3639 1 18.037 18.690 -8.736
3640 1 81.207 -7.873 56.085
3641 1 62.908 -13.619 69.585
3642 1 76.328 -10.300 60.522
3643 1 31.338 26.507 53.942
3644 1 30.921 27.304 62.174
3645 1 37.881 31.705 59.289
3646 1 0.337 36.273 33.107
3647 1 0.090 40.379 33.248
3648 1 3.150 38.256 37.813
3649 1 50.430 63.195 6.741
3650 1 51.170 61.796 9.032
3651 1 47.827 58.042 10.589
3652 1 44.490 -2.797 61.930
3653 1 45.994 -0.243 57.970
3654 1 47.403 3.043 62.236
3655 1 -2.070 -17.389 31.788
3656 1 -8.262 -22.836 29.599
3657 1 -8.856 -26.168 36.094
3658 1 26.953 38.680 17.143
3659 1 27.939 37.902 14.501
3660 1 28.190 32.020 20.796
3661 1 22.328 -17.045 23.995
3662 1 14.366 -14.051 21.179
3663 1 22.651 -15.006 24.096
3664 1 -21.643 -1.874 32.604
3665 1 -23.012 -8.358 27.881
3666 1 -15.869 -4.432 35.054
3667 1 63.945 47.540 22.800
3668 1 61.919 50.740 22.962
3669 1 58.410 52.527 20.876
3670 1 16.925 66.603 6.658
3671 1 18.889 60.847 -1.136
3672 1 20.638 65.825 0.717
3673 1 43.680 -0.998 58.467
3674 1 39.592 -7.980 49.016
3675 1 39.438 -2.582 46.675
3676 1 1.318 8.963 21.608
3677 1 5.396 13.226 17.637
3678 1 1.650 9.511 18.126
3679 1 -20.320 68.401 32.224
3680 1 -22.604 68.791 40.724
3681 1 -23.820 68.398 34.729
3682 1 32.477 -30.002 31.008
3683 1 31.382 -35.182 25.772
3684 1 33.527 -30.973 28.468
3685 1 29.550 23.637 15.239
3686 1 29.272 22.574 15.906
3687 1 32.608 21.002 17.205
3688 1 0.190 -13.368 12.957
3689 1 -0.768 -10.208 7.550
3690 1 1.764 -11.072 6.936
3691 1 -32.220 59.101 -5.015
3692 1 -32.062 66.274 -7.749
3693 1 -30.960 59.832 -3.396
3694 1 14.334 25.482 4.777
3695 1 14.102 29.469 7.049
3696 1 13.815 23.403 11.028
3697 1 4.857 -36.507 20.843
3698 1 7.018 -35.790 25.334
3699 1 6.286 -35.620 23.688
3700 1 22.515 54.164 36.601
3701 1 17.198 54.174 34.503
3702 1 24.140 57.828 35.398
3703 1 11.183 43.000 33.348
3704 1 9.594 31.094 27.076
3705 1 11.573 33.376 35.568
3706 1 32.567 8.696 21.189
3707 1 33.536 7.741 9.375
3708 1 32.643 11.427 14.460
3709 1 25.764 32.687 -28.631
3710 1 27.022 36.647 -29.125
3711 1 23.683 38.271 -37.989
3712 1 61.937 51.075 64.483
3713 1 61.528 54.690 57.417
3714 1 58.343 52.825 54.736
3715 1 18.438 24.284 32.818
3716 1 14.393 25.466 25.114
3717 1 15.926 24.079 27.088
3718 1 39.590 -1.142 36.844
3719 1 42.517 -2.953 30.539
3720 1 41.160 7.102 34.476
3721 1 25.379 35.382 48.131
3722 1 26.165 33.658 48.887
3723 1 26.577 26.269 54.941
3724 1 10.533 22.794 -1.634
3725 1 10.075 22.656 -2.890
3726 1 10.290 21.857 -3.869
3727 1 0.748 67.131 37.214
3728 1 2.145 66.267 45.109
3729 1 0.051 72.794 33.896
3730 1 -13.238 65.803 27.036
3731 1 -16.355 58.917 25.209
3732 1 -18.111 59.845 31.009
3733 1 -2.787 1.917 30.691
3734 1 -8.385 -2.139 24.407
3735 1 -8.562 1.359 31.729
3736 1 -4.353 30.240 56.426
3737 1 -6.128 34.517 52.184
3738 1 -13.011 31.166 58.022
3739 1 12.412 62.249 24.259
3740 1 15.480 60.340 20.764
3741 1 15.686 65.526 20.497
3742 1 -29.822 10.996 1.556
3743 1 -29.697 13.328 4.012
3744 1 -23.997 7.825 4.371
3745 1 2.667 58.356 24.140
3746 1 2.731 65.965 16.891
3747 1 -0.837 61.917 29.234
3748 1 15.259 26.195 28.681
3749 1 13.893 35.386 26.454
3750 1 11.636 30.010 29.513
3751 1 30.503 24.249 0.595
3752 1 27.757 26.657 4.057
3753 1 32.680 29.014 12.557
3754 1 15.369 36.017 -17.344
3755 1 21.399 29.101 -12.127
3756 1 21.646 36.029 -13.588
3757 1 5.471 12.297 79.460
3758 1 5.124 14.737 82.361
3759 1 9.765 10.028 81.928
3760 1 5.396 14.311 20.376
3761 1 2.959 15.155 20.951
3762 1 9.617 16.572 13.876
3763 1 28.625 51.814 81.100
3764 1 28.792 50.733 79.674
3765 1 27.976 53.309 82.703
3766 1 7.249 28.396 35.738
3767 1 6.612 27.236 37.347
3768 1 5.745 20.695 34.972
3769 1 -2.519 43.966 -26.272
3770 1 0.004 47.257 -6.511
3771 1 -3.871 44.922 -15.817
3772 1 -11.547 67.213 33.250
3773 1 -13.415 66.846 34.623
3774 1 -10.234 66.691 40.926
3775 1 20.559 40.888 36.778
3776 1 14.999 41.529 39.487
3777 1 19.191 40.511 33.198
3778 1 0.893 85.180 19.128
3779 1 -0.242 83.968 17.701
3780 1 -1.758 85.628 23.095
3781 1 26.146 59.369 46.823
3782 1 26.129 65.602 44.417
3783 1 26.934 64.893 49.694
3784 1 -22.702 2.381 23.292
3785 1 -25.539 3.406 19.398
3786 1 -21.031 5.213 15.981
3787 1 15.806 19.372 7.987
3788 1 20.207 13.944 13.881
3789 1 16.989 12.931 12.286
3790 1 17.578 33.457 49.470
3791 1 24.111 29.501 55.887
3792 1 15.263 29.562 52.123
3793 1 12.041 40.515 22.150
3794 1 12.716 42.253 13.239
3795 1 9.093 46.182 11.584
3796 1 41.570 15.894 24.913
3797 1 45.005 11.573 26.450
3798 1 46.979 8.455 22.471
3799 1 45.391 37.540 48.629
3800 1 47.695 33.353 53.262
3801 1 43.134 36.145 49.555
3802 1 -0.164 8.517 22.906
3803 1 1.396 12.484 20.707
3804 1 -5.416 12.582 18.433
3805 1 4.761 27.717 39.572
3806 1 0.485 27.135 41.076
3807 1 4.403 28.352 43.844
3808 1 24.252 -9.380 41.088
3809 1 18.685 -8.775 38.774
3810 1 17.422 -12.017 40.286
3811 1 -25.537 -11.364 21.887
3812 1 -22.622 -12.828 20.585
3813 1 -28.854 -8.378 24.175
3814 1 36.699 40.685 5.683
3815 1 37.431 38.630 12.326
3816 1 33.974 39.607 14.020
3817 1 30.523 21.098 31.044
3818 1 32.905 21.556 32.331
3819 1 26.457 25.154 36.789
3820 1 29.408 30.992 46.371
3821 1 27.578 27.723 53.766
3822 1 28.307 30.410 40.843
3823 1 -8.007 11.740 29.170
3824 1 -4.630 19.180 23.398
3825 1 -4.302 14.246 31.806
3826 1 40.640 47.971 22.374
3827 1 41.955 53.464 22.788
3828 1 38.920 53.114 22.034
3829 1 25.881 6.961 23.821
3830 1 27.098 5.038 10.661
3831 1 27.075 10.399 7.520
3832 1 17.358 42.171 36.060
3833 1 16.803 45.959 27.298
3834 1 13.405 50.361 40.007
3835 1 43.914 31.410 46.629
3836 1 36.304 32.453 42.829
3837 1 38.824 25.566 39.479
3838 1 50.810 27.208 23.636
3839 1 51.242 21.615 17.297
3840 1 46.956 30.121 25.816
3841 1 13.381 4.138 73.851
3842 1 16.022 6.999 75.968
3843 1 9.559 2.880 78.657
3844 1 15.835 -12.597 58.800
3845 1 25.598 -8.152 62.732
3846 1 25.313 -6.777 62.116
3847 1 14.116 38.960 29.678
3848 1 14.664 35.785 37.067
3849 1 14.326 37.446 36.266
3850 1 -17.974 15.319 47.442
3851 1 -16.202 8.248 49.238
3852 1 -13.728 9.559 51.001
3853 1 -11.414 9.330 6.825
3854 1 -5.763 11.364 5.001
3855 1 -8.144 14.844 9.528
3856 1 9.508 -12.004 44.782
3857 1 3.538 -20.066 47.847
3858 1 8.534 -12.820 46.368
3859 1 33.328 23.969 54.291
3860 1 24.258 18.813 46.769
3861 1 32.417 30.360 50.162
3862 1 12.402 36.001 63.048
3863 1 14.891 32.733 67.317
3864 1 15.189 37.571 67.265
3865 1 34.961 -4.055 45.808
3866 1 35.214 -5.683 38.468
3867 1 33.851 -1.632 40.798
3868 1 17.451 -6.682 20.575
3869 1 17.796 -1.251 32.053
3870 1 19.488 -2.465 33.265
3871 1 47.121 1.998 60.080
3872 1 45.066 3.229 49.721
3873 1 44.310 5.938 53.234
3874 1 19.272 1.958 49.997
3875 1 23.886 -4.528 48.593
3876 1 19.824 -3.981 46.436
3877 1 58.341 12.852 70.060
3878 1 64.261 9.520 70.049
3879 1 64.836 8.745 66.676
3880 1 -7.697 19.438 50.553
3881 1 -4.162 17.443 45.462
3882 1 -6.006 19.076 47.710
3883 1 -6.689 17.991 19.011
3884 1 -13.426 19.339 26.381
3885 1 -11.324 23.036 27.124
3886 1 4.181 10.850 7.338
3887 1 6.955 4.657 11.081
3888 1 0.026 10.575 11.673
3889 1 -28.586 10.625 45.713
3890 1 -28.039 8.623 41.672
3891 1 -24.295 12.335 46.770
3892 1 -1.983 62.645 -0.744
3893 1 3.134 61.010 0.687
3894 1 -1.476 59.037 5.668
3895 1 3.368 -6.431 29.239
3896 1 0.060 -10.563 32.913
3897 1 -0.870 -8.509 27.978
3898 1 26.516 -1.979 41.843
3899 1 24.167 -7.818 28.870
3900 1 24.878 -1.708 38.470
3901 1 70.487 25.287 7.013
3902 1 68.143 29.788 -2.396
3903 1 66.543 32.385 -1.807
3904 1 5.420 -23.572 -18.257
3905 1 3.357 -19.835 -30.450
3906 1 6.138 -24.799 -16.009
3907 1 22.499 47.359 4.550
3908 1 27.077 43.087 6.396
3909 1 25.622 40.390 8.133
3910 1 39.199 28.025 32.614
3911 1 36.791 22.009 28.882
3912 1 31.595 28.791 29.948
3913 1 23.076 -15.518 7.600
3914 1 17.597 -19.801 13.523
3915 1 16.392 -21.017 7.033
3916 1 72.670 1.922 18.175
3917 1 64.025 3.537 31.051
3918 1 69.500 1.185 24.022
3919 1 1.852 -44.091 35.137
3920 1 -0.732 -42.210 33.673
3921 1 7.164 -37.104 38.634
3922 1 -19.034 14.406 16.531
3923 1 -13.615 14.672 26.033
3924 1 -15.674 16.983 23.841
3925 1 31.419 54.083 7.408
3926 1 34.175 61.801 1.717
3927 1 34.256 57.401 4.088
3928 1 3.608 5.510 49.141
3929 1 2.046 -0.649 45.538
3930 1 -1.371 1.895 46.127
3931 1 39.362 37.486 44.443
3932 1 38.780 35.032 40.754
3933 1 32.511 33.720 42.875
3934 1 33.370 9.473 57.863
3935 1 39.071 10.570 56.522
3936 1 38.612 16.197 55.784
3937 1 -0.180 27.392 15.747
3938 1 3.305 28.013 15.282
3939 1 0.896 26.708 16.773
3940 1 48.912 8.819 72.062
3941 1 47.786 3.754 72.317
3942 1 49.430 5.784 76.988
3943 1 52.816 -38.255 3.849
3944 1 50.598 -26.986 -1.082
3945 1 50.706 -30.195 2.961
3946 1 65.849 20.133 47.738
3947 1 60.106 18.187 48.561
3948 1 59.966 11.748 45.421
3949 1 46.998 34.574 51.590
3950 1 51.740 25.815 52.055
3951 1 49.108 31.855 60.131
3952 1 43.556 -52.429 2.117
3953 1 49.316 -47.835 7.386
3954 1 44.298 -51.952 1.936
3955 1 50.995 13.624 55.009
3956 1 51.776 22.715 52.957
3957 1 51.706 19.661 53.496
3958 1 42.948 10.801 -16.906
3959 1 43.433 8.260 -20.552
3960 1 36.859 3.319 -14.644
3961 1 -27.731 27.992 44.512
3962 1 -33.000 24.189 36.865
3963 1 -33.912 27.801 47.340
3964 1 -8.637 24.271 26.694
3965 1 -12.989 29.913 29.500
3966 1 -10.951 29.741 25.415
3967 1 14.129 4.045 63.613
3968 1 15.318 12.858 67.163
3969 1 11.448 8.804 62.742
3970 1 37.982 28.350 41.008
3971 1 39.091 26.360 44.630
3972 1 31.640 18.562 35.557
3973 1 55.046 -19.114 24.794
3974 1 53.473 -17.040 22.877
3975 1 51.404 -16.923 19.974
3976 1 5.156 15.784 63.666
3977 1 9.578 12.162 65.207
3978 1 12.989 9.421 69.705
3979 1 31.715 -9.588 27.265
3980 1 30.529 -3.253 23.896
3981 1 38.176 -5.710 25.048
3982 1 23.330 -8.414 44.047
3983 1 24.082 -9.358 41.095
3984 1 24.474 -10.864 35.810
3985 1 38.213 53.054 -3.789
3986 1 36.686 45.792 -1.694
3987 1 40.343 47.226 -4.057
3988 1 32.702 48.677 32.269
3989 1 34.101 55.660 31.671
3990 1 29.371 49.530 33.236
3991 1 26.281 -1.780 46.898
3992 1 29.162 -7.541 36.454
3993 1 29.388 -8.893 39.316
3994 1 23.597 20.824 37.033
3995 1 21.596 24.561 35.368
3996 1 25.486 27.093 35.071
3997 1 28.956 87.296 0.691
3998 1 32.615 77.108 7.955
3999 1 27.669 80.610 3.130
4000 1 13.672 25.615 47.182
4001 1 6.099 15.950 52.394
4002 1 8.699 26.413 40.183
4003 1 17.375 2.765 40.352
4004 1 20.896 -3.181 43.386
4005 1 22.184 8.074 31.646
4006 1 57.413 -8.604 74.547
4007 1 54.956 -13.058 82.334
4008 1 56.839 -4.934 79.834
4009 1 51.057 42.405 17.125
4010 1 47.154 42.809 21.346
4011 1 47.108 40.362 18.869
4012 1 -1.759 5.368 30.764
4013 1 -1.996 8.993 39.322
4014 1 -3.008 7.850 37.365
4015 1 12.371 35.923 57.133
4016 1 6.680 45.971 55.920
4017 1 9.140 44.716 50.525
4018 1 45.173 46.791 36.754
4019 1 39.121 48.777 41.244
4020 1 43.813 49.597 37.543
4021 1 35.400 -7.577 54.261
4022 1 37.674 -13.369 53.706
4023 1 34.954 -14.043 61.730
4024 1 13.707 13.253 43.806
4025 1 13.412 6.438 40.278
4026 1 15.047 14.809 46.290
4027 1 56.790 -2.787 12.900
4028 1 55.162 -3.551 16.277
4029 1 59.274 -1.901 7.450
4030 1 -0.762 75.280 -17.046
4031 1 4.121 73.010 -12.209
4032 1 6.331 74.010 -20.431
4033 1 4.660 34.374 31.624
4034 1 -2.904 41.504 32.214
4035 1 2.158 32.927 23.972
4036 1 11.269 20.695 19.415
4037 1 17.088 5.693 22.752
4038 1 15.554 14.756 21.954
4039 1 51.350 -16.029 27.296
4040 1 50.504 -12.444 34.071
4041 1 50.319 -15.171 33.977
4042 1 31.974 28.091 50.349
4043 1 35.042 21.300 46.505
4044 1 34.454 22.431 52.713
4045 1 -31.586 17.203 40.658
4046 1 -25.449 14.372 38.056
4047 1 -30.804 16.542 44.636
4048 1 32.268 55.355 53.126
4049 1 24.974 49.956 54.332
4050 1 31.671 57.803 48.736
4051 1 -4.577 15.756 11.379
4052 1 -5.097 17.435 -2.364
4053 1 -10.706 23.943 8.338
4054 1 12.763 15.597 67.125
4055 1 8.531 11.193 62.279
4056 1 14.839 15.221 60.841
4057 1 34.546 -18.868 47.527
4058 1 38.368 -23.510 54.365
4059 1 30.396 -23.736 46.172
4060 1 50.258 13.958 16.242
4061 1 60.812 0.182 13.727
4062 1 56.177 5.511 11.034
4063 1 27.107 25.024 24.134
4064 1 31.053 26.827 24.287
4065 1 27.164 25.451 26.058
4066 1 57.598 2.345 28.565
4067 1 61.857 1.047 25.569
4068 1 58.857 0.688 21.933
4069 1 25.421 62.309 40.401
4070 1 26.279 53.382 33.076
4071 1 29.359 52.414 41.415
4072 1 3.472 13.387 -3.694
4073 1 4.742 20.097 3.779
4074 1 4.428 16.889 0.750
4075 1 49.120 31.766 12.269
4076 1 53.658 42.013 10.653
4077 1 49.477 35.731 17.792
4078 1 0.123 18.763 22.001
4079 1 6.669 24.781 22.603
4080 1 2.694 25.549 21.976
4081 1 9.322 46.020 57.641
4082 1 10.390 32.827 47.627
4083 1 10.903 33.923 51.495
4084 1 4.165 31.677 38.169
4085 1 8.470 35.686 43.817
4086 1 10.812 42.400 36.495
4087 1 -9.654 38.430 5.372
4088 1 -11.500 42.533 11.676
4089 1 -6.091 42.277 12.555
4090 1 -21.694 44.084 47.209
4091 1 -23.580 50.930 53.571
4092 1 -26.996 46.559 52.348
4093 1 24.727 33.444 -5.009
4094 1 25.744 27.593 -7.299
4095 1 18.506 34.436 -3.373
4096 1 23.233 12.704 11.643
4097 1 16.881 14.798 8.118
4098 1 16.539 16.628 9.927
4099 1 19.328 47.503 38.452
4100 1 12.619 60.162 33.409
4101 1 9.088 52.328 36.254
4102 1 21.979 24.275 -1.638
4103 1 20.725 29.205 -1.720
4104 1 19.528 27.862 8.543
4105 1 26.696 -8.709 29.477
4106 1 24.048 -4.447 26.693
4107 1 28.139 -7.711 23.402
4108 1 31.536 36.592 64.618
4109 1 37.971 36.768 65.690
4110 1 35.680 40.140 74.337
4111 1 24.516 -11.341 16.972
4112 1 18.287 -10.245 23.709
4113 1 17.506 -15.673 20.477
4114 1 30.240 33.196 40.426
4115 1 27.426 39.883 44.343
4116 1 28.984 40.341 46.508
4117 1 -36.686 28.483 43.958
4118 1 -30.916 30.759 47.862
4119 1 -33.470 24.954 41.968
4120 1 7.990 64.886 52.156
4121 1 11.252 67.750 47.093
4122 1 6.752 63.193 46.457
4123 1 3.485 53.072 10.056
4124 1 1.257 59.656 10.026
4125 1 2.741 62.044 17.629
4126 1 25.995 28.778 25.126
4127 1 27.679 31.969 22.532
4128 1 24.563 29.834 24.186
4129 1 12.476 5.810 47.522
4130 1 17.407 8.419 47.885
4131 1 12.016 7.588 43.206
4132 1 12.010 37.661 10.271
4133 1 7.919 43.481 13.679
4134 1 14.411 41.671 13.938
4135 1 13.307 27.310 50.620
4136 1 19.276 29.111 52.920
4137 1 17.213 24.928 51.523
4138 1 2.169 42.157 8.655
4139 1 -1.665 33.695 -2.392
4140 1 -5.652 35.707 6.649
4141 1 33.690 20.727 28.204
4142 1 36.621 24.535 33.078
4143 1 38.378 23.191 28.203
4144 1 -8.392 42.833 35.969
4145 1 -7.831 43.181 35.364
4146 1 -6.776 47.765 33.015
4147 1 30.023 52.015 20.171
4148 1 29.619 41.496 27.188
4149 1 28.370 49.279 18.343
4150 1 15.446 18.293 5.201
4151 1 13.935 17.659 0.575
4152 1 15.677 16.799 2.576
4153 1 9.971 73.572 54.034
4154 1 6.156 64.984 66.397
4155 1 12.080 68.925 49.070
4156 1 -28.533 17.490 38.327
4157 1 -23.422 16.209 37.342
4158 1 -23.486 18.581 39.027
4159 1 14.793 10.696 19.615
4160 1 11.167 12.166 21.787
4161 1 14.816 12.370 22.719
4162 1 -17.616 20.155 29.836
4163 1 -8.626 27.997 26.834
4164 1 -10.674 24.461 24.788
4165 1 31.342 37.565 32.155
4166 1 34.496 42.085 33.820
4167 1 36.871 38.483 30.350
4168 1 10.302 66.105 0.542
4169 1 10.314 64.730 -4.376
4170 1 10.763 64.998 -6.529
4171 1 29.749 40.088 59.435
4172 1 35.998 43.263 68.596
4173 1 36.016 45.257 60.061
4174 1 4.523 16.150 42.360
4175 1 5.106 15.887 41.151
4176 1 8.746 19.488 41.936
4177 1 13.954 33.735 29.453
4178 1 11.541 37.441 29.758
4179 1 10.094 34.492 31.464
4180 1 31.188 32.152 64.286
4181 1 31.709 32.538 65.597
4182 1 32.983 36.107 66.703
4183 1 2.296 39.057 47.403
4184 1 6.067 38.404 45.741
4185 1 2.104 33.044 44.319
4186 1 34.982 14.374 -1.191
4187 1 41.044 14.537 -0.943
4188 1 41.286 11.894 1.565
4189 1 7.104 14.232 43.640
4190 1 3.644 16.403 45.251
4191 1 2.681 12.719 46.165
4192 1 52.684 27.485 29.816
4193 1 56.028 28.091 26.840
4194 1 57.629 24.015 32.732
4195 1 10.260 56.428 26.228
4196 1 10.365 56.481 26.368
4197 1 12.334 59.732 29.394
4198 1 -31.922 4.982 25.584
4199 1 -22.586 8.932 32.135
4200 1 -23.007 0.904 29.225
4201 1 2.301 3.350 -2.146
4202 1 -0.603 -0.169 0.387
4203 1 5.357 2.406 -6.649
4204 1 -1.723 10.189 64.631
4205 1 0.536 7.036 64.493
4206 1 -4.394 12.309 69.258
4207 1 32.424 69.127 46.714
4208 1 35.018 61.091 48.088
4209 1 32.215 64.439 49.501
4210 1 6.796 52.234 56.913
4211 1 10.818 51.269 49.487
4212 1 7.596 49.835 55.310
4213 1 49.860 41.372 45.562
4214 1 45.134 42.390 42.400
4215 1 47.953 33.848 34.995
4216 1 20.559 13.941 24.684
4217 1 22.946 19.264 17.919
4218 1 25.606 20.849 26.299
4219 1 38.584 41.283 21.402
4220 1 34.938 42.746 22.955
4221 1 37.330 40.528 24.304
4222 1 13.959 56.639 29.079
4223 1 10.144 55.224 24.979
4224 1 8.295 56.155 22.145
4225 1 -16.451 60.116 5.875
4226 1 -17.995 62.221 2.413
4227 1 -14.530 62.698 1.471
4228 1 73.085 26.302 41.348
4229 1 68.270 33.672 37.630
4230 1 66.178 33.926 45.920
4231 1 34.864 2.857 17.016
4232 1 35.964 2.032 8.957
4233 1 38.655 1.177 15.369
4234 1 -25.676 -22.020 30.241
4235 1 -25.032 -27.180 30.267
4236 1 -21.290 -20.528 27.339
4237 1 30.809 -29.015 60.405
4238 1 29.891 -36.833 60.400
4239 1 29.013 -33.891 69.963
4240 1 1.084 -5.505 51.287
4241 1 2.982 -2.470 46.178
4242 1 1.068 -5.330 46.921
4243 1 40.663 31.948 -1.176
4244 1 38.362 27.738 3.140
4245 1 39.628 28.200 2.821
4246 1 -20.484 -18.018 15.526
4247 1 -22.382 -16.440 25.026
4248 1 -19.656 -25.972 16.061
4249 1 14.045 15.114 81.476
4250 1 11.879 13.497 78.994
4251 1 13.003 6.889 82.348
4252 1 36.513 -37.505 6.660
4253 1 36.530 -32.345 0.847
4254 1 39.397 -37.561 5.314
4255 1 -0.534 -15.130 -3.675
4256 1 -3.398 -6.324 -0.929
4257 1 -2.808 -13.162 2.690
4258 1 53.065 -36.788 62.015
4259 1 50.483 -42.392 65.874
4260 1 54.911 -38.035 61.461
4261 1 9.352 14.962 48.895
4262 1 4.965 14.687 50.758
4263 1 4.084 14.784 53.176
4264 1 8.103 -5.992 56.506
4265 1 12.915 -13.427 61.034
4266 1 10.056 -12.588 54.700
4267 1 13.590 10.153 34.075
4268 1 8.748 11.923 24.515
4269 1 18.070 4.982 34.501
4270 1 22.862 5.920 50.214
4271 1 20.623 8.151 49.906
4272 1 17.611 13.605 48.311
4273 1 32.900 24.851 37.244
4274 1 30.557 26.344 41.518
4275 1 31.394 13.873 42.937
4276 1 12.005 60.975 46.630
4277 1 8.708 56.246 49.333
4278 1 8.086 53.806 54.402
4279 1 -17.572 -27.786 15.790
4280 1 -15.840 -29.355 23.397
4281 1 -15.308 -34.923 16.508
4282 1 -9.844 33.575 50.435
4283 1 -9.696 31.342 44.878
4284 1 -7.125 32.457 44.130
4285 1 7.941 45.418 30.499
4286 1 5.701 41.204 22.733
4287 1 6.908 38.650 29.952
4288 1 2.168 42.745 43.973
4289 1 4.285 49.480 46.692
4290 1 9.629 49.793 39.775
4291 1 39.558 9.807 32.292
4292 1 44.788 14.400 33.858
4293 1 39.903 13.500 32.330
4294 1 10.031 2.741 59.440
4295 1 14.562 -0.832 65.068
4296 1 6.839 3.746 68.669
4297 1 16.212 -16.082 61.898
4298 1 19.040 -14.838 59.325
4299 1 20.516 -21.377 65.031
4300 1 26.607 -7.004 39.802
4301 1 24.400 -4.557 40.842
4302 1 27.526 -3.924 43.718
4303 1 60.099 -10.586 30.809
4304 1 51.915 -10.118 37.859
4305 1 55.163 -7.845 38.158
4306 1 48.966 62.670 34.314
4307 1 46.051 71.144 34.740
4308 1 48.199 58.729 33.447
4309 1 63.286 -6.150 14.135
4310 1 64.289 -9.926 13.843
4311 1 65.497 -11.503 2.061
4312 1 10.857 40.996 30.784
4313 1 7.685 42.845 37.685
4314 1 7.244 38.614 38.512
4315 1 10.711 21.678 15.231
4316 1 13.452 19.863 20.573
4317 1 12.386 17.588 22.298
4318 1 -27.577 2.304 52.005
4319 1 -22.193 -0.732 50.417
4320 1 -25.033 4.717 45.545
4321 1 -12.872 9.506 13.352
4322 1 -12.726 15.899 5.405
4323 1 -14.084 7.055 8.633
4324 1 23.009 33.641 43.422
4325 1 24.269 38.770 53.284
4326 1 22.371 38.528 58.984
4327 1 13.707 -17.497 37.798
4328 1 15.782 -15.057 35.904
4329 1 19.812 -15.062 26.329
4330 1 14.512 -16.938 41.941
4331 1 20.734 -15.651 46.492
4332 1 13.793 -18.993 34.809
4333 1 46.840 6.130 40.663
4334 1 48.225 -1.239 43.814
4335 1 44.916 5.965 45.730
4336 1 42.031 39.716 38.313
4337 1 35.369 33.471 37.786
4338 1 43.695 35.671 34.752
4339 1 28.075 -21.719 43.526
4340 1 27.434 -20.820 51.753
4341 1 29.086 -21.148 53.713
4342 1 60.851 38.171 29.220
4343 1 59.732 33.693 27.010
4344 1 65.734 38.213 23.959
4345 1 10.722 8.464 83.183
4346 1 8.943 4.368 75.006
4347 1 13.540 3.031 69.366
4348 1 30.322 31.045 5.352
4349 1 22.506 30.366 5.117
4350 1 31.136 35.179 1.512
4351 1 -14.671 22.709 -2.037
4352 1 -17.683 8.415 -4.015
4353 1 -15.321 12.783 -4.159
4354 1 8.451 -45.271 56.767
4355 1 11.497 -41.499 57.719
4356 1 7.712 -42.869 54.563
4357 1 -30.641 75.118 41.095
4358 1 -32.994 75.914 42.422
4359 1 -26.726 75.403 43.897
4360 1 29.963 -38.862 61.103
4361 1 38.464 -38.047 68.369
4362 1 34.627 -37.784 65.209
4363 1 -23.583 -9.155 53.254
4364 1 -28.211 -8.213 44.213
4365 1 -25.228 -9.772 47.190
4366 1 -3.555 18.515 7.890
4367 1 -3.047 21.571 5.890
4368 1 3.120 12.592 11.753
4369 1 9.535 45.365 -0.525
4370 1 13.085 43.502 -1.661
4371 1 11.193 45.980 -6.058
4372 1 56.560 -8.705 48.977
4373 1 52.334 -9.135 43.495
4374 1 54.070 -15.351 36.711
4375 1 9.609 4.806 62.314
4376 1 2.681 4.760 60.596
4377 1 9.234 0.872 55.716
4378 1 22.114 9.756 42.184
4379 1 25.409 12.800 46.222
4380 1 20.675 11.316 53.989
4381 1 9.894 13.212 73.905
4382 1 15.352 17.544 75.928
4383 1 11.214 11.270 83.588
4384 1 29.192 -9.844 38.603
4385 1 27.579 -11.668 47.080
4386 1 24.491 -8.086 40.885
4387 1 -20.031 18.397 29.690
4388 1 -13.124 8.747 29.441
4389 1 -16.955 14.417 28.931
4390 1 41.341 56.243 -0.636
4391 1 34.513 57.418 2.461
4392 1 33.440 54.069 2.950
4393 1 -4.497 23.166 51.490
4394 1 -3.924 29.278 40.558
4395 1 0.151 25.917 40.670
4396 1 49.096 20.544 22.406
4397 1 46.460 20.753 21.113
4398 1 46.030 15.999 25.604
4399 1 58.041 7.856 36.986
4400 1 59.442 7.950 36.379
4401 1 58.082 4.427 30.921
4402 1 49.308 -11.611 30.653
4403 1 47.627 -18.292 36.124
4404 1 49.621 -21.861 30.683
4405 1 70.018 -23.757 45.033
4406 1 70.461 -23.066 41.428
4407 1 67.697 -30.474 54.108
4408 1 -14.156 33.607 51.045
4409 1 -19.597 35.005 45.406
4410 1 -18.965 33.167 43.423
4411 1 -50.243 -5.446 38.454
4412 1 -45.384 -5.404 34.737
4413 1 -45.848 2.962 36.113
4414 1 -6.369 76.533 68.568
4415 1 -9.170 79.290 69.201
4416 1 -8.733 78.411 71.991
4417 1 1.583 28.696 67.308
4418 1 -0.559 30.482 66.586
4419 1 2.070 30.618 70.428
4420 1 56.191 51.591 53.625
4421 1 56.885 42.456 56.030
4422 1 61.202 44.080 49.520
4423 1 62.083 13.496 49.140
4424 1 67.840 14.835 54.094
4425 1 70.684 16.082 50.221
4426 1 -3.882 34.402 59.278
4427 1 -3.693 36.325 51.227
4428 1 -3.798 40.469 53.153
4429 1 -17.279 20.854 16.648
4430 1 -12.065 21.146 14.353
4431 1 -15.163 26.179 9.556
4432 1 16.455 23.137 25.013
4433 1 24.013 22.025 30.420
4434 1 18.981 28.213 31.942
4435 1 26.279 -11.998 39.525
4436 1 23.498 -16.502 44.875
4437 1 19.636 -10.664 38.850
4438 1 45.905 -0.701 54.383
4439 1 41.828 -10.222 64.966
4440 1 46.947 -5.015 58.077
4441 1 62.236 -16.188 36.176
4442 1 70.651 -15.793 40.951
4443 1 67.845 -12.722 43.060
4444 1 21.092 51.772 57.038
4445 1 22.052 53.557 57.416
4446 1 23.097 58.923 63.001
4447 1 41.863 18.224 -7.983
4448 1 49.741 24.205 -3.169
4449 1 44.238 23.690 -13.380
4450 1 -7.844 1.224 26.619
4451 1 5.053 9.067 31.307
4452 1 -0.459 0.067 30.999
4453 1 28.177 12.301 29.646
4454 1 30.951 14.338 32.489
4455 1 34.452 12.279 33.109
4456 1 28.900 -21.818 29.575
4457 1 35.219 -20.411 30.585
4458 1 32.178 -27.729 25.367
4459 1 22.341 24.790 39.859
4460 1 22.807 26.055 40.543
4461 1 23.219 18.856 37.850
4462 1 3.924 15.681 8.745
4463 1 -0.214 14.977 13.536
4464 1 -6.743 13.492 9.036
4465 1 45.888 37.420 27.232
4466 1 41.674 33.087 26.228
4467 1 45.280 36.447 28.255
4468 1 15.017 70.505 5.468
4469 1 16.998 75.867 -2.387
4470 1 17.244 76.649 6.397
4471 1 -9.913 -19.679 36.892
4472 1 -10.715 -18.677 40.023
4473 1 -11.775 -15.155 39.298
4474 1 41.513 18.211 15.161
4475 1 42.567 16.250 16.114
4476 1 40.105 22.091 11.414
4477 1 -18.961 28.135 37.551
4478 1 -20.468 31.667 37.281
4479 1 -22.653 39.012 40.132
4480 1 29.494 -11.491 66.046
4481 1 40.443 -6.832 65.637
4482 1 33.541 -13.367 57.228
4483 1 52.165 45.542 31.299
4484 1 48.949 47.805 29.726
4485 1 50.279 46.059 23.340
4486 1 25.124 -0.646 -5.634
4487 1 22.038 -1.649 -2.530
4488 1 23.333 -2.423 1.303
4489 1 -22.409 45.742 2.281
4490 1 -24.884 45.245 9.913
4491 1 -19.416 45.517 0.848
4492 1 34.291 -20.073 24.333
4493 1 32.627 -26.813 27.772
4494 1 32.954 -25.838 23.874
4495 1 -14.907 18.918 38.159
4496 1 -14.209 15.740 33.819
4497 1 -17.767 11.938 29.249
4498 1 21.597 -3.263 75.463
4499 1 26.917 -2.215 79.762
4500 1 26.002 -4.572 76.218
4501 1 10.633 0.101 41.709
4502 1 11.891 0.736 49.899
4503 1 15.072 -4.297 38.289
4504 1 16.944 27.309 31.541
4505 1 17.046 31.809 26.918
4506 1 14.516 30.378 37.406
4507 1 19.523 56.484 36.461
4508 1 17.830 66.007 38.489
4509 1 18.174 56.675 33.957
4510 1 30.305 60.568 56.540
4511 1 28.267 61.127 57.214
4512 1 33.008 47.833 57.519
4513 1 35.026 7.912 73.901
4514 1 34.561 -3.715 71.890
4515 1 29.916 -4.260 70.265
4516 1 3.483 51.781 53.525
4517 1 9.237 51.025 52.576
4518 1 5.952 50.430 49.709
4519 1 11.259 2.976 23.936
4520 1 9.476 2.200 27.220
4521 1 13.105 10.341 21.719
4522 1 16.821 35.636 32.778
4523 1 20.528 41.244 37.668
4524 1 20.339 31.960 37.182
4525 1 10.982 55.255 19.337
4526 1 11.060 66.735 9.207
4527 1 6.741 64.580 7.808
4528 1 39.446 -21.866 34.357
4529 1 41.959 -11.546 33.198
4530 1 39.413 -23.982 35.058
4531 1 5.059 7.086 10.279
4532 1 1.912 3.504 14.037
4533 1 1.423 9.606 9.745
4534 1 5.192 6.079 45.701
4535 1 6.070 14.027 40.952
4536 1 2.864 13.612 44.232
4537 1 4.020 4.150 75.144
4538 1 6.064 4.103 71.079
4539 1 6.176 9.588 78.211
4540 1 22.402 43.694 11.343
4541 1 14.035 38.865 7.381
4542 1 20.714 42.515 7.995
4543 1 51.951 -3.226 67.446
4544 1 53.666 0.658 57.732
4545 1 51.990 0.507 48.877
4546 1 73.586 2.210 60.885
4547 1 67.691 7.658 62.273
4548 1 74.898 -3.677 62.007
4549 1 4.813 54.312 72.343
4550 1 11.573 55.552 80.648
4551 1 14.733 51.757 73.973
4552 1 32.608 30.179 91.292
4553 1 28.806 33.465 87.432
4554 1 30.717 25.311 82.869
4555 1 8.731 47.879 44.451
4556 1 11.019 51.791 39.790
4557 1 10.405 54.187 32.290
4558 1 30.876 17.658 15.316
4559 1 30.532 10.248 18.782
4560 1 28.767 21.120 14.716
4561 1 -23.607 17.506 34.296
4562 1 -15.882 18.174 34.491
4563 1 -16.645 18.258 31.212
4564 1 52.664 49.890 21.950
4565 1 55.208 54.142 23.437
4566 1 55.459 51.576 28.677
4567 1 6.545 20.257 28.725
4568 1 1.348 18.845 28.170
4569 1 2.184 23.303 20.423
4570 1 -5.189 29.319 73.602
4571 1 0.569 25.256 70.315
4572 1 -0.847 29.086 66.061
4573 1 30.371 55.131 24.972
4574 1 27.206 54.209 28.578
4575 1 31.707 46.329 32.053
4576 1 21.647 24.170 32.955
4577 1 25.231 23.824 27.810
4578 1 20.321 27.240 27.285
4579 1 -16.490 57.184 40.440
4580 1 -14.744 55.924 43.901
4581 1 -15.710 54.553 40.648
4582 1 7.133 24.810 25.807
4583 1 5.538 26.191 11.763
4584 1 9.989 27.034 18.264
4585 1 34.131 -4.487 24.747
4586 1 40.037 -8.835 30.778
4587 1 38.460 -9.402 24.393
4588 1 21.407 -4.357 37.553
4589 1 20.242 -7.762 37.405
4590 1 23.166 -2.374 42.127
4591 1 24.943 59.468 26.379
4592 1 27.633 56.830 26.020
4593 1 28.182 56.274 22.802
4594 1 12.933 42.463 32.333
4595 1 11.282 38.089 37.420
4596 1 13.890 45.561 28.416
4597 1 13.985 39.797 47.549
4598 1 13.462 38.837 56.503
4599 1 14.627 42.022 50.714
4600 1 -3.417 37.300 39.427
4601 1 0.735 32.566 34.297
4602 1 -4.151 36.185 34.652
4603 1 -17.008 16.072 72.656
4604 1 -9.042 23.381 67.173
4605 1 -12.290 19.386 74.718
4606 1 -12.747 34.365 44.104
4607 1 -8.454 33.620 47.405
4608 1 -12.700 32.108 38.375
4609 1 1.088 73.469 30.733
4610 1 2.275 74.494 27.161
4611 1 -5.881 73.595 30.000
4612 1 22.046 41.383 34.342
4613 1 28.098 41.295 23.886
4614 1 25.396 39.312 19.492
4615 1 34.691 57.197 28.838
4616 1 37.107 64.009 29.878
4617 1 37.153 65.390 29.578
4618 1 36.507 77.350 31.271
4619 1 35.489 82.743 27.366
4620 1 36.825 78.488 34.593
4621 1 35.854 18.761 64.587
4622 1 41.035 20.284 65.772
4623 1 38.293 25.031 72.197
4624 1 40.424 77.113 38.027
4625 1 41.015 79.725 47.380
4626 1 37.397 75.436 41.150
4627 1 -10.552 57.990 20.383
4628 1 -13.417 65.644 19.066
4629 1 -11.349 65.530 15.640
4630 1 77.463 -5.166 46.031
4631 1 73.943 -9.077 40.305
4632 1 69.489 -6.006 38.237
4633 1 5.360 5.159 40.324
4634 1 9.265 1.376 38.710
4635 1 10.097 6.990 43.894
4636 1 21.264 -7.324 18.122
4637 1 21.172 -13.733 19.804
4638 1 22.081 -4.258 27.359
4639 1 6.692 56.534 59.590
4640 1 7.963 55.234 66.145
4641 1 9.150 54.709 57.250
4642 1 12.179 -2.949 25.816
4643 1 14.287 5.359 30.837
4644 1 12.029 1.583 32.165
4645 1 24.929 34.342 30.316
4646 1 29.026 31.024 29.526
4647 1 26.729 32.459 33.872
4648 1 20.140 -7.982 56.426
4649 1 11.371 -7.737 54.649
4650 1 18.329 -11.776 52.517
4651 1 -45.391 -15.086 41.606
4652 1 -41.919 -13.874 33.480
4653 1 -45.551 -9.589 44.676
4654 1 -1.808 -11.410 27.362
4655 1 -0.216 -13.066 18.112
4656 1 2.051 -19.196 19.158
4657 1 16.325 22.540 39.981
4658 1 20.018 21.684 51.015
4659 1 15.062 16.730 46.587
4660 1 20.556 7.661 45.213
4661 1 17.397 0.743 44.527
4662 1 19.848 5.924 44.938
4663 1 29.161 -28.590 33.974
4664 1 33.085 -25.924 24.843
4665 1 28.960 -24.715 33.347
4666 1 38.214 12.150 39.491
4667 1 39.531 16.232 37.953
4668 1 37.823 18.030 38.134
4669 1 26.182 18.158 50.224
4670 1 31.125 17.054 53.120
4671 1 28.344 17.918 49.100
4672 1 -8.310 24.293 24.893
4673 1 -12.166 21.570 21.611
4674 1 -7.531 19.566 21.022
4675 1 -19.210 15.663 48.040
4676 1 -22.700 20.159 49.318
4677 1 -19.251 16.958 44.659
4678 1 35.682 6.295 35.608
4679 1 38.734 1.861 37.029
4680 1 35.676 2.809 35.546
4681 1 34.880 21.401 20.575
4682 1 32.838 13.316 21.047
4683 1 32.878 17.571 17.897
4684 1 -23.634 25.996 77.843
4685 1 -17.376 25.689 88.270
4686 1 -23.086 28.475 83.470
4687 1 -21.520 0.087 44.922
4688 1 -20.676 -5.121 45.983
4689 1 -18.408 -2.272 45.011
4690 1 40.775 12.594 49.554
4691 1 38.745 16.548 52.879
4692 1 43.476 12.456 48.560
4693 1 -8.059 -21.827 -2.892
4694 1 -5.401 -23.398 -4.504
4695 1 -4.018 -25.225 1.247
4696 1 32.805 17.611 22.981
4697 1 32.790 20.978 23.061
4698 1 32.758 12.734 18.245
4699 1 20.625 -20.914 1.211
4700 1 20.194 -18.696 -4.352
4701 1 23.026 -20.223 -5.851
4702 1 44.437 12.747 20.075
4703 1 41.840 11.822 15.371
4704 1 48.070 17.927 20.082
4705 1 50.179 -34.469 16.357
4706 1 49.186 -33.803 6.609
4707 1 50.236 -27.811 5.433
4708 1 53.308 -20.268 38.419
4709 1 55.216 -29.074 36.522
4710 1 53.749 -26.155 38.012
4711 1 -2.912 -3.718 42.629
4712 1 -4.995 1.767 45.439
4713 1 -6.656 2.465 47.787
4714 1 19.086 -22.021 35.414
4715 1 19.056 -20.574 40.343
4716 1 17.257 -15.476 29.267
4717 1 -14.293 2.219 83.236
4718 1 -17.437 0.796 90.964
4719 1 -18.913 3.997 89.036
4720 1 24.088 38.284 49.236
4721 1 19.980 31.257 44.702
4722 1 22.950 30.499 42.214
4723 1 7.430 34.331 40.168
4724 1 11.040 37.682 40.093
4725 1 14.202 34.409 44.263
4726 1 39.941 7.058 20.731
4727 1 41.216 14.822 18.772
4728 1 35.868 14.067 23.056
4729 1 -16.847 62.155 39.676
4730 1 -12.028 53.597 44.012
4731 1 -18.021 57.959 46.204
4732 1 19.700 -4.056 10.059
4733 1 17.598 -3.230 9.804
4734 1 18.123 -1.386 19.276
4735 1 22.262 -13.246 17.674
4736 1 16.195 -10.462 19.062
4737 1 19.350 -9.996 22.027
4738 1 7.362 1.265 27.534
4739 1 12.265 -2.580 30.544
4740 1 5.907 1.439 28.902
4741 1 35.356 -11.581 87.008
4742 1 33.351 -6.871 86.315
4743 1 29.658 -14.207 87.552
4744 1 44.556 1.564 40.315
4745 1 48.441 4.042 40.769
4746 1 49.314 4.154 52.866
4747 1 37.999 -9.345 52.237
4748 1 35.743 -14.192 55.014
4749 1 36.997 -12.134 53.486
4750 1 -41.732 10.739 42.992
4751 1 -34.010 6.169 41.096
4752 1 -36.521 10.941 41.761
4753 1 4.960 36.480 29.328
4754 1 0.846 38.973 32.287
4755 1 1.653 51.672 35.369
4756 1 4.249 20.332 28.241
4757 1 1.739 19.961 25.567
4758 1 3.550 17.513 27.843
4759 1 34.950 40.539 -4.126
4760 1 33.733 34.490 -4.021
4761 1 33.304 36.105 -1.575
4762 1 44.815 -24.156 25.657
4763 1 36.653 -27.282 22.521
4764 1 40.626 -29.938 20.891
4765 1 21.714 -7.791 68.570
4766 1 21.132 -5.476 69.656
4767 1 25.401 -8.039 64.403
4768 1 47.634 13.839 0.311
4769 1 43.432 11.356 0.434
4770 1 47.544 12.840 7.489
4771 1 28.497 18.970 40.062
4772 1 33.832 33.663 45.764
4773 1 33.292 23.700 44.765
4774 1 39.104 0.048 44.537
4775 1 41.446 -0.409 54.570
4776 1 42.896 -0.489 57.650
4777 1 35.037 -24.608 17.819
4778 1 34.619 -16.008 13.744
4779 1 40.070 -17.359 15.114
4780 1 18.169 21.069 21.616
4781 1 21.220 32.319 26.403
4782 1 19.760 30.552 21.870
4783 1 33.780 -20.555 17.780
4784 1 30.832 -15.818 14.269
4785 1 32.253 -18.105 11.807
4786 1 0.196 21.255 21.055
4787 1 4.196 16.825 26.323
4788 1 6.656 19.146 20.447
4789 1 11.157 29.297 24.183
4790 1 11.347 29.935 23.506
4791 1 8.930 33.939 32.337
4792 1 -5.392 25.025 45.225
4793 1 -7.536 23.552 47.770
4794 1 -5.391 30.079 48.595
4795 1 1.329 -6.886 31.646
4796 1 -0.640 -5.631 28.184
4797 1 1.993 -11.920 33.669
4798 1 34.693 35.325 37.393
4799 1 30.467 35.725 34.021
4800 1 34.379 30.167 45.172
4801 1 20.902 -6.902 18.680
4802 1 20.124 -11.734 9.207
4803 1 17.399 -8.509 15.806
4804 1 23.025 8.759 31.231
4805 1 22.685 14.848 28.994
4806 1 23.950 14.730 29.349
4807 1 41.989 59.700 65.219
4808 1 40.100 51.698 62.736
4809 1 35.100 60.202 65.770
4810 1 82.035 9.139 22.102
4811 1 81.786 14.253 31.830
4812 1 85.977 6.436 20.239
4813 1 43.266 46.822 30.150
4814 1 42.700 43.746 32.466
4815 1 45.890 44.264 37.155
4816 1 -0.881 6.302 52.141
4817 1 -9.467 16.346 50.536
4818 1 -8.157 6.848 53.850
4819 1 5.495 63.569 32.462
4820 1 11.050 68.156 42.720
4821 1 12.915 67.992 38.919
4822 1 -24.561 -6.985 61.619
4823 1 -23.702 -4.364 67.952
4824 1 -18.406 -10.781 65.195
4825 1 27.532 42.016 63.874
4826 1 25.851 47.855 65.823
4827 1 28.238 42.437 65.390
4828 1 73.662 25.166 67.527
4829 1 67.255 31.655 59.145
4830 1 71.012 24.077 61.670
4831 1 16.182 -2.009 62.140
4832 1 18.843 0.005 63.520
4833 1 19.931 -3.877 63.005
4834 1 3.704 -27.317 32.356
4835 1 6.603 -22.047 21.669
4836 1 3.516 -26.338 27.518
4837 1 73.889 3.312 42.616
4838 1 73.835 7.184 43.904
4839 1 68.555 8.233 41.622
4840 1 35.823 48.500 11.014
4841 1 29.483 48.116 6.135
4842 1 26.716 49.835 11.789
4843 1 -3.156 -4.555 47.530
4844 1 -6.537 -0.822 46.672
4845 1 -8.067 -2.280 48.103
4846 1 -5.273 70.164 34.367
4847 1 6.733 63.403 33.570
4848 1 1.172 68.870 29.816
4849 1 31.327 22.589 44.203
4850 1 31.046 17.378 54.311
4851 1 34.251 17.508 48.725
4852 1 7.139 17.096 -1.662
4853 1 6.707 22.177 -1.384
4854 1 3.586 19.533 3.306
4855 1 -4.200 49.184 33.899
4856 1 -9.102 52.844 34.925
4857 1 -12.179 52.176 35.723
4858 1 67.131 -3.635 58.928
4859 1 70.443 3.695 61.590
4860 1 65.750 1.284 63.707
4861 1 36.962 52.408 47.223
4862 1 36.637 51.273 44.721
4863 1 40.937 50.624 39.131
4864 1 -30.195 10.045 34.218
4865 1 -29.604 9.867 37.381
4866 1 -24.361 8.509 37.150
4867 1 -26.882 53.666 65.206
4868 1 -18.322 48.798 61.054
4869 1 -16.855 49.108 55.085
4870 1 2.662 20.181 0.168
4871 1 -0.895 13.852 6.306
4872 1 -0.007 14.863 5.199
4873 1 -4.058 60.973 18.054
4874 1 -2.474 55.203 32.412
4875 1 0.642 59.103 22.922
4876 1 50.472 17.816 50.933
4877 1 49.890 25.633 54.887
4878 1 48.475 26.848 53.720
4879 1 7.597 38.425 25.045
4880 1 5.011 38.922 26.551
4881 1 5.629 43.978 14.723
4882 1 36.453 28.760 57.282
4883 1 40.197 30.489 56.660
4884 1 41.576 27.260 47.137
4885 1 28.404 31.271 56.279
4886 1 26.014 35.659 46.827
4887 1 31.099 34.872 55.272
4888 1 -17.538 8.336 48.265
4889 1 -12.923 4.862 46.552
4890 1 -13.702 6.964 39.906
4891 1 15.526 56.765 57.750
4892 1 14.399 59.126 49.170
4893 1 20.821 55.060 46.631
4894 1 -8.627 28.299 -2.870
4895 1 -10.631 24.645 -3.499
4896 1 -10.951 27.664 2.481
4897 1 5.766 23.576 9.406
4898 1 7.162 28.407 4.646
4899 1 7.845 22.039 2.911
4900 1 -9.113 27.255 36.394
4901 1 -1.348 31.303 36.898
4902 1 -3.230 33.010 33.476
4903 1 -19.922 47.237 18.742
4904 1 -27.047 41.912 20.583
4905 1 -28.815 44.593 20.906
4906 1 35.633 51.071 52.690
4907 1 36.802 44.999 45.676
4908 1 33.532 48.189 57.437
4909 1 42.695 27.055 47.236
4910 1 49.189 25.657 44.499
4911 1 45.932 25.684 52.125
4912 1 -5.419 73.046 36.658
4913 1 -8.123 66.463 40.722
4914 1 -6.201 74.085 39.491
4915 1 39.696 -6.193 13.430
4916 1 38.758 -3.643 13.580
4917 1 44.104 -3.497 18.427
4918 1 -2.024 3.746 21.633
4919 1 -3.948 2.844 21.181
4920 1 -1.568 0.504 26.180
4921 1 47.707 8.356 48.173
4922 1 51.561 11.945 42.636
4923 1 46.208 0.861 41.401
4924 1 12.676 -3.761 17.227
4925 1 15.880 -5.598 10.478
4926 1 15.177 -9.149 11.271
4927 1 70.601 54.222 54.257
4928 1 66.496 59.025 51.462
4929 1 68.485 55.690 59.669
4930 1 20.251 36.718 44.544
4931 1 20.210 40.600 51.904
4932 1 20.922 37.120 51.062
4933 1 42.161 41.057 17.655
4934 1 36.644 40.877 16.466
4935 1 41.236 36.719 21.146
4936 1 21.583 14.795 9.483
4937 1 23.219 17.269 11.967
4938 1 24.254 12.791 16.103
4939 1 8.504 47.181 13.920
4940 1 14.852 43.829 28.625
4941 1 8.397 52.003 20.583
4942 1 27.184 49.522 8.906
4943 1 32.771 51.087 10.852
4944 1 30.115 50.138 8.099
4945 1 8.796 3.881 58.477
4946 1 6.005 7.415 62.011
4947 1 8.279 7.678 61.334
4948 1 16.017 7.378 -10.607
4949 1 22.253 7.278 -7.599
4950 1 18.404 6.847 -9.256
4951 1 29.143 36.547 39.604
4952 1 31.052 47.487 41.248
4953 1 25.969 38.918 32.573
4954 1 11.046 70.827 40.795
4955 1 10.382 69.286 37.164
4956 1 14.265 68.926 44.935
4957 1 -18.977 30.213 64.890
4958 1 -12.343 34.436 59.391
4959 1 -14.346 32.027 66.575
4960 1 14.159 49.243 60.374
4961 1 15.245 46.126 52.579
4962 1 18.512 45.133 57.413
4963 1 18.479 65.358 40.418
4964 1 12.735 57.679 42.131
4965 1 9.618 62.201 31.455
4966 1 8.530 29.556 16.247
4967 1 9.623 32.061 21.927
4968 1 0.810 29.650 17.436
4969 1 -6.459 34.683 21.656
4970 1 -5.047 40.584 21.104
4971 1 -12.976 36.365 22.186
4972 1 2.279 22.018 23.633
4973 1 2.193 18.751 28.052
4974 1 6.850 15.492 25.202
4975 1 29.306 3.756 25.263
4976 1 28.722 7.667 26.857
4977 1 23.981 3.402 16.184
4978 1 47.640 3.710 53.006
4979 1 50.137 7.795 52.560
4980 1 45.553 9.187 57.616
4981 1 6.156 44.434 36.018
4982 1 13.279 37.887 32.739
4983 1 10.694 48.079 39.128
4984 1 26.235 -9.558 60.748
4985 1 23.083 -5.316 67.072
4986 1 21.717 -5.500 59.928
4987 1 10.524 18.387 39.186
4988 1 17.569 16.712 50.104
4989 1 12.697 16.740 35.089
4990 1 -6.849 25.318 20.146
4991 1 -11.260 27.957 26.362
4992 1 -11.455 23.341 28.454
4993 1 17.584 57.742 28.374
4994 1 18.764 59.863 27.954
4995 1 20.101 62.340 28.720
4996 1 42.318 71.161 13.532
4997 1 43.873 73.795 7.119
4998 1 42.083 73.679 17.684
4999 1 -14.936 41.915 46.147
5000 1 -10.394 51.024 44.821
5001 1 -12.567 52.199 47.582
5002 1 5.611 43.302 36.638
5003 1 0.459 40.194 36.380
5004 1 5.397 36.866 35.466
5005 1 19.660 44.234 49.999
5006 1 18.889 45.594 50.926
5007 1 20.326 44.434 41.659
5008 1 3.399 46.584 44.268
5009 1 1.741 41.267 41.961
5010 1 2.771 42.396 41.065
5011 1 13.192 41.877 45.571
5012 1 10.893 34.784 56.432
5013 1 14.733 39.260 51.549
5014 1 0.708 30.306 38.967
5015 1 -0.418 26.339 41.788
5016 1 -1.642 34.352 48.047
5017 1 41.373 18.374 29.215
5018 1 38.374 30.495 29.710
5019 1 37.446 21.805 31.371
5020 1 40.101 14.950 19.652
5021 1 40.689 19.410 15.407
5022 1 37.491 21.164 17.676
5023 1 20.831 54.176 41.438
5024 1 15.522 57.383 42.929
5025 1 15.652 51.305 41.965
5026 1 -0.624 51.147 51.888
5027 1 -0.823 52.442 55.069
5028 1 -1.144 54.176 49.617
5029 1 -2.383 22.407 2.915
5030 1 -0.256 17.033 -1.447
5031 1 0.107 23.358 -1.555
5032 1 -25.236 28.385 28.579
5033 1 -17.753 30.410 22.649
5034 1 -22.412 33.679 30.055
5035 1 42.798 26.949 10.183
5036 1 48.757 24.984 14.696
5037 1 47.401 26.050 11.641
5038 1 -2.371 50.567 12.732
5039 1 -3.958 41.701 8.421
5040 1 -3.359 40.078 15.939
5041 1 -9.627 55.189 65.758
5042 1 -11.637 61.096 71.751
5043 1 -10.422 54.594 64.333
5044 1 12.666 16.612 78.151
5045 1 21.775 11.132 69.513
5046 1 12.228 20.129 68.264
5047 1 -8.881 -5.697 39.130
5048 1 -7.868 -3.361 28.596
5049 1 -6.893 -4.325 31.948
5050 1 22.828 13.120 20.137
5051 1 25.536 10.838 12.693
5052 1 23.525 8.331 13.299
5053 1 -22.431 46.338 16.389
5054 1 -20.724 47.526 21.349
5055 1 -25.777 47.942 20.560
5056 1 38.098 -11.479 40.214
5057 1 40.387 -8.884 45.092
5058 1 33.677 -10.977 48.055
5059 1 53.827 21.556 20.039
5060 1 58.224 27.982 15.213
5061 1 54.438 28.971 15.173
5062 1 42.749 28.633 33.847
5063 1 39.264 33.372 35.159
5064 1 44.559 28.588 38.127
5065 1 50.989 80.880 31.021
5066 1 47.627 81.873 30.870
5067 1 42.862 84.620 32.560
5068 1 -9.504 -1.746 35.592
5069 1 -10.165 -2.014 35.499
5070 1 -10.955 2.657 39.288
5071 1 3.508 -33.639 58.620
5072 1 7.405 -32.297 65.623
5073 1 3.742 -33.385 59.222
5074 1 -12.972 -27.775 29.103
5075 1 -10.381 -25.968 28.857
5076 1 -15.813 -19.988 20.865
5077 1 16.375 -43.335 56.824
5078 1 14.032 -39.747 53.785
5079 1 15.717 -40.425 59.519
5080 1 21.110 -2.056 28.001
5081 1 14.381 -2.453 24.214
5082 1 23.901 -4.033 25.214
5083 1 21.022 21.541 87.989
5084 1 20.056 13.905 93.017
5085 1 17.975 13.552 85.200
5086 1 24.875 -24.906 27.887
5087 1 26.827 -23.987 27.756
5088 1 27.773 -22.908 28.450
5089 1 17.776 -10.380 40.801
5090 1 18.108 -12.883 32.041
5091 1 14.932 -13.355 35.720
5092 1 21.333 5.129 50.699
5093 1 17.597 1.326 49.538
5094 1 23.019 2.321 48.455
5095 1 46.584 25.465 25.813
5096 1 42.468 26.968 22.177
5097 1 49.160 30.013 21.391
5098 1 15.468 -12.910 43.681
5099 1 11.867 -11.427 40.862
5100 1 14.503 -8.259 44.910
5101 1 46.541 20.768 31.636
5102 1 44.594 22.002 33.842
5103 1 50.612 21.762 30.065
5104 1 26.306 -29.448 51.895
5105 1 26.130 -32.740 45.381
5106 1 26.905 -33.305 43.534
5107 1 -50.235 40.217 89.091
5108 1 -53.722 39.659 90.791
5109 1 -51.057 39.652 81.797
5110 1 7.496 13.214 36.408
5111 1 2.045 10.344 28.817
5112 1 4.581 14.300 28.088
5113 1 26.224 8.262 39.913
5114 1 23.054 8.553 32.954
5115 1 29.689 4.950 36.442
5116 1 42.404 17.032 37.240
5117 1 41.675 17.298 31.263
5118 1 39.491 20.119 33.820
5119 1 49.858 20.586 20.482
5120 1 49.219 23.498 20.180
5121 1 51.148 23.191 21.151
5122 1 -7.715 9.242 8.393
5123 1 -2.174 8.651 0.253
5124 1 -6.513 8.710 0.964
5125 1 20.773 24.017 17.465
5126 1 22.358 28.250 17.176
5127 1 17.714 18.517 12.649
5128 1 -16.556 42.557 43.365
5129 1 -18.504 40.685 58.557
5130 1 -21.295 43.183 56.416
5131 1 68.360 33.365 30.221
5132 1 68.945 27.691 25.116
5133 1 65.290 28.967 25.316
5134 1 7.390 -13.272 1.207
5135 1 0.391 -11.452 3.121
5136 1 5.591 -12.085 3.882
5137 1 47.623 -47.840 58.964
5138 1 45.567 -43.616 59.871
5139 1 44.184 -41.183 57.217
5140 1 22.942 -42.249 48.755
5141 1 30.500 -34.147 47.578
5142 1 20.233 -35.765 43.181
5143 1 19.621 -55.567 39.628
5144 1 19.058 -55.397 41.916
5145 1 13.052 -55.415 40.177
5146 1 13.212 -4.647 35.556
5147 1 15.751 -4.866 23.210
5148 1 14.183 -1.050 16.122
5149 1 9.832 35.221 53.673
5150 1 6.188 32.727 48.352
5151 1 9.149 35.337 54.476
5152 1 -13.873 -2.316 42.307
5153 1 -10.183 -3.727 49.952
5154 1 -18.151 0.582 42.770
5155 1 46.318 38.971 27.217
5156 1 53.837 38.688 27.365
5157 1 49.877 43.765 32.879
5158 1 -14.211 -2.178 31.707
5159 1 -7.662 0.987 25.499
5160 1 -18.361 -1.547 27.190
5161 1 -11.863 28.399 59.070
5162 1 -15.725 27.695 41.424
5163 1 -13.165 29.625 47.774
5164 1 -19.290 -11.411 50.846
5165 1 -17.723 -13.076 48.773
5166 1 -17.554 -11.693 49.676
5167 1 28.950 44.603 30.897
5168 1 25.344 43.705 39.616
5169 1 24.232 47.497 34.369
5170 1 14.827 1.793 27.240
5171 1 9.722 9.217 36.417
5172 1 15.275 12.546 21.646
5173 1 50.136 7.399 47.167
5174 1 48.179 11.018 53.317
5175 1 49.693 6.367 54.659
5176 1 43.830 50.206 34.915
5177 1 38.115 48.075 40.146
5178 1 39.950 49.263 39.059
5179 1 54.325 -20.299 46.494
5180 1 53.146 -16.373 46.710
5181 1 49.421 -15.320 40.460
5182 1 61.911 -35.264 49.075
5183 1 61.523 -34.551 52.829
5184 1 60.733 -29.887 47.346
5185 1 -23.816 38.196 58.393
5186 1 -19.643 39.197 58.618
5187 1 -15.821 38.521 61.610
5188 1 -2.222 64.605 71.660
5189 1 -0.671 71.078 69.559
5190 1 -7.721 67.910 64.042
5191 1 2.806 22.958 17.189
5192 1 5.788 24.704 21.023
5193 1 7.613 22.951 14.948
5194 1 27.755 72.347 45.130
5195 1 27.958 63.602 47.470
5196 1 27.405 71.817 36.838
5197 1 11.051 6.008 29.220
5198 1 17.763 3.751 34.526
5199 1 17.099 1.514 38.264
5200 1 19.846 57.033 35.986
5201 1 21.100 58.289 36.593
5202 1 21.267 56.972 42.456
5203 1 40.971 -8.869 22.375
5204 1 40.899 -3.584 20.582
5205 1 39.676 -9.557 24.428
5206 1 38.216 9.093 30.282
5207 1 42.918 12.669 27.577
5208 1 45.207 8.694 33.788
5209 1 -1.913 15.705 -8.098
5210 1 -1.945 21.960 -8.402
5211 1 -1.743 15.458 -5.974
5212 1 6.145 12.326 35.003
5213 1 3.203 9.620 29.387
5214 1 4.125 14.576 34.762
5215 1 15.070 8.457 73.811
5216 1 13.055 12.600 67.230
5217 1 15.039 6.600 67.525
5218 1 23.378 -23.350 42.542
5219 1 25.449 -26.441 38.540
5220 1 25.191 -31.888 33.568
5221 1 48.116 -18.089 48.886
5222 1 44.040 -15.524 39.914
5223 1 46.336 -9.327 42.371
5224 1 -7.010 -11.642 36.370
5225 1 -6.022 -16.079 31.857
5226 1 -6.083 -11.108 29.856
5227 1 21.802 43.902 74.958
5228 1 16.309 35.657 74.704
5229 1 21.368 34.247 66.121
5230 1 33.325 29.266 50.821
5231 1 32.695 33.229 56.687
5232 1 30.533 35.846 50.480
5233 1 20.500 10.055 38.566
5234 1 10.632 8.408 37.799
5235 1 11.368 8.509 32.039
5236 1 10.147 22.809 -7.249
5237 1 8.083 24.719 -1.996
5238 1 15.905 25.448 -2.670
5239 1 16.224 29.646 44.873
5240 1 17.325 27.937 46.815
5241 1 16.961 26.232 46.370
5242 1 -1.745 53.747 50.953
5243 1 -3.262 60.247 49.628
5244 1 -0.665 61.279 44.559
5245 1 45.166 1.653 21.122
5246 1 38.782 7.745 21.423
5247 1 40.870 1.003 23.677
5248 1 34.809 20.435 12.043
5249 1 32.822 19.579 13.788
5250 1 32.225 15.906 16.233
5251 1 0.539 1.013 17.272
5252 1 1.076 5.754 11.554
5253 1 1.663 -0.471 7.534
5254 1 26.514 -4.559 60.758
5255 1 19.628 -3.237 67.828
5256 1 26.535 -2.060 67.708
5257 1 70.299 76.229 26.624
5258 1 72.819 74.800 22.039
5259 1 71.074 75.569 16.079
5260 1 31.712 36.465 60.012
5261 1 25.759 38.395 59.833
5262 1 27.137 36.998 52.459
5263 1 33.678 7.999 65.282
5264 1 31.432 12.842 62.682
5265 1 40.186 11.995 59.649
5266 1 13.119 7.477 38.353
5267 1 8.933 4.627 43.209
5268 1 10.566 -0.740 46.116
5269 1 -18.156 -1.216 72.032
5270 1 -13.279 -5.019 75.265
5271 1 -15.030 -5.459 75.486
5272 1 38.985 3.184 49.543
5273 1 39.665 13.947 48.585
5274 1 39.933 8.926 37.722
5275 1 14.826 48.263 66.158
5276 1 19.503 47.281 58.455
5277 1 17.904 44.785 60.766
5278 1 7.428 20.619 55.861
5279 1 13.361 17.097 56.215
5280 1 8.698 25.170 59.939
5281 1 31.048 -2.058 12.720
5282 1 35.544 -6.609 15.806
5283 1 32.816 0.356 13.033
5284 1 22.508 28.749 26.751
5285 1 22.002 30.979 31.156
5286 1 20.959 27.505 35.193
5287 1 49.471 25.043 26.225
5288 1 47.888 25.344 29.444
5289 1 47.088 21.455 30.353
5290 1 17.453 -16.319 52.092
5291 1 12.892 -18.261 52.538
5292 1 13.939 -15.399 41.903
5293 1 26.095 15.193 35.680
5294 1 23.286 19.842 42.710
5295 1 20.637 19.826 32.740
5296 1 15.098 -5.556 48.722
5297 1 12.154 -2.428 50.982
5298 1 9.753 -1.393 42.008
5299 1 35.454 20.289 50.524
5300 1 32.050 19.547 61.913
5301 1 37.024 17.732 59.439
5302 1 3.517 21.142 -13.836
5303 1 -0.673 22.087 -10.036
5304 1 5.159 20.423 -11.976
5305 1 19.652 -5.760 19.789
5306 1 22.338 -4.865 13.022
5307 1 19.940 -6.514 15.760
5308 1 4.786 14.900 47.095
5309 1 5.558 6.864 49.413
5310 1 6.527 8.015 46.738
5311 1 39.565 90.525 15.929
5312 1 37.511 83.020 17.457
5313 1 36.628 90.891 22.887
5314 1 13.756 49.903 63.149
5315 1 10.981 51.169 54.429
5316 1 6.831 46.426 57.885
5317 1 8.384 -8.761 -7.453
5318 1 7.789 -14.040 -5.468
5319 1 7.564 -1.476 -6.972
5320 1 11.275 57.121 32.170
5321 1 10.568 52.670 22.309
5322 1 13.521 50.706 27.286
5323 1 -10.503 10.494 38.866
5324 1 -3.882 13.460 28.992
5325 1 -0.499 7.212 35.756
5326 1 25.015 25.458 23.600
5327 1 27.544 24.740 34.309
5328 1 25.662 29.277 34.970
5329 1 6.817 5.727 3.177
5330 1 8.270 9.296 9.414
5331 1 3.471 10.397 3.705
5332 1 20.839 41.662 67.265
5333 1 19.394 41.206 70.717
5334 1 17.637 45.307 77.362
5335 1 32.473 43.355 31.441
5336 1 39.029 42.167 33.259
5337 1 30.505 42.968 36.153
5338 1 23.909 8.438 39.512
5339 1 29.353 6.090 41.997
5340 1 19.059 3.823 40.941
5341 1 20.197 31.035 36.875
5342 1 16.242 33.113 31.468
5343 1 19.309 37.336 35.553
5344 1 30.770 -4.891 35.491
5345 1 30.658 -5.254 37.393
5346 1 32.093 -3.498 41.325
5347 1 -2.248 31.103 53.557
5348 1 -6.870 26.570 51.165
5349 1 -3.925 26.752 44.138
5350 1 -14.812 16.982 16.306
5351 1 -16.298 23.028 22.923
5352 1 -15.266 23.067 19.318
5353 1 4.677 7.648 33.430
5354 1 5.799 7.410 35.450
5355 1 3.231 8.309 37.389
5356 1 -1.728 23.158 29.411
5357 1 -1.453 28.568 21.871
5358 1 2.132 22.962 26.923
5359 1 32.162 43.202 70.436
5360 1 32.844 36.545 69.842
5361 1 33.456 44.387 68.508
5362 1 14.513 43.402 58.884
5363 1 9.510 44.591 60.431
5364 1 9.698 42.097 64.643
5365 1 0.134 64.010 71.708
5366 1 1.815 55.543 70.635
5367 1 -1.647 55.753 68.796
5368 1 14.389 11.149 63.991
5369 1 21.379 13.794 58.152
5370 1 15.287 8.158 75.712
5371 1 -7.389 29.716 19.870
5372 1 -9.887 33.610 15.305
5373 1 -4.515 29.736 19.726
5374 1 2.081 77.314 48.840
5375 1 2.350 74.243 37.909
5376 1 1.900 71.929 42.736
5377 1 4.874 -15.951 49.942
5378 1 3.724 -13.820 43.436
5379 1 2.689 -15.420 50.272
5380 1 6.629 15.936 49.359
5381 1 5.819 20.443 48.064
5382 1 -1.073 10.687 52.121
5383 1 36.204 52.256 23.391
5384 1 32.003 53.804 20.533
5385 1 35.338 53.665 24.381
5386 1 -7.831 74.591 54.608
5387 1 -12.300 71.729 51.117
5388 1 -10.890 77.257 48.639
5389 1 40.592 2.435 47.482
5390 1 40.578 0.621 39.140
5391 1 37.787 -1.962 40.508
5392 1 -18.202 66.710 7.485
5393 1 -14.666 64.080 10.240
5394 1 -18.520 63.920 3.593
5395 1 19.198 54.771 88.769
5396 1 14.270 58.569 88.478
5397 1 15.609 51.222 86.171
5398 1 5.116 -6.914 44.553
5399 1 6.362 -5.638 39.520
5400 1 5.804 -1.885 40.527
5401 1 60.378 37.632 53.150
5402 1 68.010 38.685 47.966
5403 1 62.807 35.622 49.589
5404 1 -11.710 -0.581 6.425
5405 1 -10.394 -0.037 14.107
5406 1 -9.288 2.177 11.069
5407 1 9.629 33.408 53.002
5408 1 7.593 37.255 51.576
5409 1 4.986 41.933 51.554
5410 1 -3.601 30.432 43.585
5411 1 -3.487 31.683 44.494
5412 1 -2.817 37.297 32.990
5413 1 17.050 60.989 39.416
5414 1 14.181 53.531 45.297
5415 1 16.360 61.432 40.500
5416 1 21.589 -10.307 50.674
5417 1 18.577 -11.338 52.955
5418 1 19.516 -19.985 54.970
5419 1 50.427 50.704 21.392
5420 1 48.808 50.199 19.468
5421 1 51.852 50.345 13.452
5422 1 9.592 42.632 30.846
5423 1 16.297 43.729 33.571
5424 1 18.027 48.571 38.444
5425 1 7.630 17.437 34.582
5426 1 10.371 13.819 32.947
5427 1 9.941 18.194 35.703
5428 1 19.452 25.774 47.835
5429 1 15.709 26.487 49.873
5430 1 18.506 34.458 45.177
5431 1 -14.337 16.586 31.163
5432 1 -21.718 12.657 29.544
5433 1 -21.107 12.627 27.896
5434 1 3.092 -28.305 14.702
5435 1 5.164 -27.458 4.652
5436 1 -0.626 -28.983 8.433
5437 1 24.398 64.557 8.896
5438 1 28.216 66.051 1.047
5439 1 27.596 66.053 3.183
5440 1 2.555 51.741 36.898
5441 1 -1.679 46.708 34.514
5442 1 -3.233 52.986 25.390
5443 1 -7.931 25.052 64.689
5444 1 -6.886 23.910 65.681
5445 1 -10.100 18.205 60.410
5446 1 41.993 72.747 49.342
5447 1 46.236 69.746 45.468
5448 1 48.931 72.901 48.165
5449 1 -41.413 40.446 20.517
5450 1 -35.570 42.490 17.123
5451 1 -40.808 45.715 16.266
5452 1 28.655 28.003 29.642
5453 1 25.880 24.922 26.350
5454 1 26.985 21.978 36.202
5455 1 -4.903 24.255 13.023
5456 1 -5.045 23.737 21.115
5457 1 -3.601 21.621 22.721
5458 1 7.759 20.599 73.077
5459 1 0.495 22.451 77.595
5460 1 -2.413 26.836 86.373
5461 1 42.442 22.264 61.340
5462 1 47.122 24.267 61.309
5463 1 44.672 27.207 52.532
5464 1 12.636 42.203 29.213
5465 1 17.367 36.024 25.881
5466 1 15.602 42.464 20.756
5467 1 3.744 31.075 56.431
5468 1 5.558 23.166 45.847
5469 1 6.501 31.902 51.278
5470 1 -16.022 24.428 64.492
5471 1 -16.224 28.944 67.456
5472 1 -14.982 27.489 59.979
5473 1 -11.242 6.990 65.228
5474 1 -16.079 6.873 65.901
5475 1 -16.723 3.490 70.678
5476 1 19.917 34.754 43.581
5477 1 21.371 36.766 41.546
5478 1 22.915 35.902 34.962
5479 1 29.841 51.674 73.830
5480 1 29.944 51.280 73.387
5481 1 33.907 52.841 75.417
5482 1 20.542 20.678 26.306
5483 1 24.223 23.031 25.745
5484 1 20.860 18.718 26.514
5485 1 27.295 69.711 57.245
5486 1 26.020 66.418 55.667
5487 1 25.536 59.204 46.661
5488 1 37.331 57.219 51.430
5489 1 37.970 51.904 49.079
5490 1 39.706 49.677 42.187
5491 1 52.263 37.826 37.599
5492 1 51.347 36.183 33.141
5493 1 51.786 32.666 37.318
5494 1 24.074 45.810 25.010
5495 1 24.152 57.354 22.826
5496 1 22.655 51.963 22.233
5497 1 29.978 74.510 -16.177
5498 1 30.057 72.696 -21.491
5499 1 26.502 66.383 -21.283
5500 1 9.627 29.033 68.286
5501 1 9.295 30.058 63.282
5502 1 13.474 28.978 67.150
5503 1 -10.296 78.518 45.172
5504 1 -12.437 82.115 52.987
5505 1 -15.841 80.890 44.334
5506 1 29.020 29.206 33.829
5507 1 33.103 26.457 47.248
5508 1 26.867 26.503 33.360
5509 1 28.983 4.236 54.160
5510 1 23.583 0.244 52.616
5511 1 26.484 -0.427 58.271
5512 1 7.637 56.806 57.421
5513 1 9.665 57.951 53.219
5514 1 11.219 50.409 55.349
5515 1 -9.330 33.976 93.763
5516 1 -12.191 40.788 84.304
5517 1 -11.697 39.139 84.697
5518 1 -10.964 49.260 46.411
5519 1 -12.782 60.319 48.693
5520 1 -6.204 58.731 49.001
5521 1 -6.534 105.470 28.214
5522 1 -4.764 109.437 27.495
5523 1 -6.260 111.487 25.532
5524 1 21.348 22.936 59.166
5525 1 20.350 24.521 57.418
5526 1 21.255 25.689 57.125
5527 1 31.337 77.918 11.994
5528 1 29.284 81.263 10.934
5529 1 27.474 78.446 17.608
5530 1 33.760 28.139 68.008
5531 1 32.288 25.015 65.077
5532 1 33.937 30.840 66.780
5533 1 33.036 50.275 50.948
5534 1 28.111 56.940 52.400
5535 1 33.326 51.772 54.250
5536 1 59.573 22.766 19.387
5537 1 48.785 26.738 9.955
5538 1 50.827 24.450 16.003
5539 1 63.718 45.074 62.614
5540 1 62.360 36.421 78.396
5541 1 59.839 42.223 75.919
