ITEM: TIMESTEP
601000
ITEM: NUMBER OF ATOMS
5541
ITEM: BOX BOUNDS pp pp pp
-19.1 19.1
-19.1 19.1
-19.1 19.1
ITEM: ATOMS id type xu yu zu
1 1 0.812254 -50.975912 -66.068799
2 1 4.588445 -56.772112 -65.112003
3 1 -1.554596 -64.485405 -75.600323
4 1 5.031501 -58.114217 -73.082493
5 1 2.134185 -48.417662 -72.989090
6 1 5.676295 -55.446367 -72.595616
7 1 4.325068 -59.893848 -71.683705
8 1 11.420156 -58.411720 -74.572912
9 1 1.798412 -56.183684 -74.148043
10 1 6.910116 -51.080290 -80.103503
11 1 -3.157880 -67.333996 -72.927572
12 1 2.135621 -58.440266 -66.768590
13 1 5.944223 -59.834308 -77.418076
14 1 5.354258 -51.094202 -79.124436
15 1 10.806353 -54.649017 -76.731459
16 1 11.795121 -55.453194 -79.818506
17 1 -1.504801 -73.078008 -79.505325
18 1 0.996601 -57.865772 -80.201380
19 1 2.771897 -56.904709 -76.249067
20 1 1.177945 -64.007519 -80.199581
21 1 -2.378114 -51.680547 -75.554931
22 1 2.297711 -58.007643 -77.476180
23 1 8.707822 -66.870638 -72.900310
24 1 6.167572 -60.597046 -85.638697
25 1 0.179452 -65.900301 -77.931689
26 1 7.896257 -65.821733 -72.319034
27 1 0.418583 -65.032463 -85.885202
28 1 -3.141241 -60.807284 -74.490959
29 1 1.685554 -55.456820 -88.508825
30 1 3.663826 -57.403584 -81.773605
31 1 11.194089 -66.290435 -88.604996
32 1 6.411696 -49.057048 -78.829835
33 1 -0.187843 -55.408562 -75.003336
34 1 3.409094 -56.566300 -78.605047
35 1 4.593907 -62.769822 -80.141264
36 1 -5.880963 -55.823441 -80.362030
37 1 3.701831 -70.751060 -70.125023
38 1 1.105549 -68.866991 -73.530897
39 1 10.605544 -69.817008 -73.676583
40 1 -0.904397 -72.228787 -80.147224
41 1 6.835890 -67.691951 -82.165713
42 1 3.647540 -59.778227 -73.268449
43 1 1.415600 -61.710395 -75.167971
44 1 8.823474 -64.195346 -68.564136
45 1 5.080109 -60.342953 -81.137629
46 1 4.784325 -60.071776 -82.616802
47 1 2.649746 -59.404498 -76.323787
48 1 4.491582 -67.804888 -74.454646
49 1 8.100386 -64.475583 -67.117005
50 1 11.535695 -50.626069 -85.789336
51 1 11.820683 -64.063859 -71.109791
52 1 3.736640 -55.214152 -76.200179
53 1 5.527901 -55.686458 -72.822849
54 1 6.944729 -58.042271 -70.839095
55 1 12.983978 -64.898688 -63.883100
56 1 9.536752 -57.932883 -69.419632
57 1 2.265738 -61.363358 -74.865741
58 1 7.175687 -64.433756 -77.251300
59 1 2.277323 -59.513680 -79.988161
60 1 4.117778 -55.843594 -71.083793
61 1 37.671801 -68.442746 -66.055200
62 1 39.654319 -63.019226 -68.136361
63 1 38.576120 -54.673017 -63.270365
64 1 34.628335 -60.175964 -56.848058
65 1 40.707471 -62.331635 -65.641965
66 1 36.149649 -72.482288 -72.966016
67 1 43.412482 -56.592322 -62.231523
68 1 41.020807 -58.260247 -48.141779
69 1 35.123916 -62.919379 -67.946576
70 1 34.173901 -61.663338 -56.637727
71 1 34.909916 -69.773767 -60.256700
72 1 45.314005 -54.258715 -57.558791
73 1 44.973724 -57.402216 -61.646788
74 1 38.807013 -64.145430 -64.542860
75 1 37.343581 -52.960771 -56.901969
76 1 43.738006 -53.682936 -59.212609
77 1 38.415980 -57.168283 -57.944386
78 1 39.165697 -53.795501 -50.684689
79 1 30.856131 -62.459313 -55.362930
80 1 35.968383 -63.167392 -62.465639
81 1 40.688384 -59.730638 -53.750553
82 1 34.539378 -61.163703 -68.230326
83 1 34.869410 -54.760373 -48.859228
84 1 39.603602 -60.622118 -66.317574
85 1 37.464300 -60.697091 -66.274407
86 1 36.701996 -50.570536 -57.571043
87 1 37.018071 -68.926447 -58.934247
88 1 38.494230 -57.214063 -58.699744
89 1 38.917662 -56.061920 -70.438038
90 1 41.956943 -53.492389 -60.401066
91 1 40.990448 -52.700428 -54.606962
92 1 38.984837 -61.813473 -79.858270
93 1 39.137120 -59.119608 -67.659208
94 1 35.342732 -57.680964 -65.917412
95 1 37.243002 -53.937410 -61.698204
96 1 50.024993 -63.653032 -52.602224
97 1 36.267585 -52.868831 -64.485955
98 1 34.884847 -57.566285 -61.945568
99 1 36.941669 -58.251314 -58.089130
100 1 36.202776 -58.089252 -54.526554
101 1 40.878595 -56.557504 -58.660165
102 1 41.869706 -53.903771 -65.775112
103 1 37.546519 -56.573582 -61.923260
104 1 38.243533 -47.163765 -56.221903
105 1 42.440379 -60.558435 -60.619931
106 1 38.194352 -62.983906 -57.593452
107 1 42.684020 -51.659391 -57.339372
108 1 42.073719 -49.070983 -59.429980
109 1 31.944218 -54.954744 -57.504773
110 1 43.468973 -60.649174 -68.922100
111 1 37.126311 -51.842572 -54.794810
112 1 36.325096 -60.561202 -48.243189
113 1 37.027107 -65.101430 -71.264583
114 1 36.061537 -46.388476 -58.149495
115 1 41.871596 -59.981045 -59.210635
116 1 36.166505 -53.342923 -49.797756
117 1 31.438691 -54.807331 -53.554559
118 1 34.634991 -53.535531 -56.770874
119 1 27.928668 -54.133873 -58.345517
120 1 37.291618 -61.287450 -52.862823
121 1 11.752483 -53.471931 -55.168444
122 1 14.365434 -46.410324 -54.609481
123 1 15.515537 -48.605230 -59.930169
124 1 9.092366 -44.944312 -52.839924
125 1 15.729026 -48.754939 -48.722034
126 1 10.814969 -33.456552 -61.043666
127 1 18.263391 -42.662765 -61.464107
128 1 9.917055 -40.258276 -60.140159
129 1 20.463939 -55.243230 -67.690087
130 1 19.509301 -57.390957 -61.671892
131 1 16.968969 -47.705517 -56.500833
132 1 13.292656 -52.123532 -58.109279
133 1 17.897928 -48.754506 -62.147633
134 1 17.551149 -47.703882 -66.044526
135 1 15.892293 -39.338303 -62.152402
136 1 18.426809 -47.548434 -58.548181
137 1 10.863620 -52.724154 -71.643637
138 1 12.796500 -45.429800 -64.693565
139 1 16.978286 -45.317722 -67.072388
140 1 16.485874 -52.063787 -66.862011
141 1 22.331625 -48.912653 -61.511768
142 1 17.551767 -51.814634 -69.134590
143 1 18.538284 -45.244703 -62.737359
144 1 21.979173 -47.355506 -67.862980
145 1 14.826995 -47.328161 -60.058058
146 1 21.316459 -56.527073 -63.064157
147 1 16.591377 -42.313329 -74.927517
148 1 14.258418 -40.301943 -69.868636
149 1 15.893372 -44.489408 -68.820182
150 1 15.827861 -41.514701 -54.906946
151 1 16.349874 -46.921667 -60.894696
152 1 17.665626 -53.303392 -77.242378
153 1 10.991625 -48.819975 -62.393797
154 1 10.700793 -42.384116 -57.819255
155 1 21.364710 -46.721913 -64.623900
156 1 18.692271 -50.489368 -58.008081
157 1 15.778242 -53.654999 -63.977905
158 1 9.247544 -43.620688 -57.016578
159 1 15.062433 -59.408809 -60.462022
160 1 15.155128 -45.236158 -56.595311
161 1 17.102990 -45.637339 -65.164794
162 1 11.897768 -55.348307 -62.019808
163 1 13.994370 -42.883854 -64.695659
164 1 9.159448 -54.364970 -64.489442
165 1 24.016927 -43.498651 -61.872573
166 1 22.418691 -50.725080 -53.791235
167 1 18.083325 -50.671766 -67.773812
168 1 20.271279 -53.048553 -53.711283
169 1 16.751397 -48.684581 -58.455480
170 1 15.395579 -50.371877 -62.394443
171 1 17.461493 -45.683339 -65.241627
172 1 12.375777 -42.545589 -65.682429
173 1 18.190987 -50.097059 -67.441589
174 1 12.441255 -51.824205 -57.877157
175 1 21.941764 -48.901356 -45.314057
176 1 23.172105 -44.591101 -60.312701
177 1 18.038629 -44.283945 -70.652087
178 1 13.398288 -44.891584 -63.864003
179 1 15.577474 -44.410034 -64.728208
180 1 16.297631 -53.068486 -60.699182
181 2 -16.522820 -1.182314 21.714362
182 3 -20.704952 3.547100 27.771454
183 3 -13.129857 1.110861 13.852782
184 2 -30.079557 -28.600133 29.707820
185 3 -31.095530 -35.754505 27.995864
186 3 -28.161757 -29.867353 33.295884
187 2 -29.520205 39.240320 26.690675
188 3 -27.131389 32.896770 27.887230
189 3 -22.030727 38.864778 31.636338
190 2 10.347667 60.787464 -40.489355
191 3 21.502614 48.538515 -41.212455
192 3 12.625845 46.578084 -39.568227
193 2 -14.676069 -8.409191 11.169236
194 3 -10.912002 -11.396008 23.687099
195 3 -12.578400 -14.090403 17.854426
196 2 -40.856678 -1.091233 -49.102961
197 3 -41.358692 -2.691210 -38.504144
198 3 -39.143448 -1.948517 -35.203652
199 2 4.955246 -6.104596 6.201516
200 3 -0.947823 -6.557047 16.004823
201 3 -2.111367 -6.812918 5.924848
202 2 23.126069 -0.829160 25.019639
203 3 28.851153 -0.839028 26.219235
204 3 25.635148 -4.539994 22.279155
205 2 -10.218218 25.946008 -10.857722
206 3 -4.398769 25.081730 -4.533922
207 3 -13.507967 25.458349 -1.330984
208 2 36.813286 20.539168 13.448426
209 3 38.875189 21.860551 8.690888
210 3 42.040184 15.604662 9.735286
211 2 37.567883 -15.926001 8.446796
212 3 34.454805 -27.559149 4.297729
213 3 37.120456 -24.302634 6.661248
214 2 84.252918 48.736026 1.312257
215 3 82.632472 41.857956 4.241173
216 3 87.218363 45.406396 -0.063669
217 2 46.725109 16.501180 37.771358
218 3 51.407423 8.535761 38.309262
219 3 53.430626 17.887034 32.708261
220 2 -16.703815 13.667511 -14.697798
221 3 -11.072300 10.661840 -14.482162
222 3 -15.497062 5.141969 -15.490890
223 2 -22.932455 -42.644368 -18.250393
224 3 -25.334305 -44.566265 -12.739652
225 3 -24.352926 -52.387060 -10.123576
226 2 -5.271686 -10.343330 36.694352
227 3 6.642005 -14.204101 44.673170
228 3 -0.121541 -6.729057 36.881554
229 2 37.999934 0.144095 -10.300079
230 3 33.841673 10.266558 -11.384865
231 3 38.972912 7.070832 -23.862845
232 2 9.291058 47.841228 10.728895
233 3 9.576736 50.611363 -0.389254
234 3 13.605496 61.247428 -2.388828
235 2 -12.445843 39.133033 11.644142
236 3 -13.633487 40.162665 14.172584
237 3 -15.008749 29.330166 18.440605
238 2 -13.138710 31.052503 1.525610
239 3 -12.934667 26.817861 -6.386062
240 3 -9.141134 27.157678 10.813086
241 2 -4.001122 -49.507673 -12.556890
242 3 -7.143881 -47.774635 -13.078230
243 3 -7.794897 -49.223763 -21.250034
244 2 10.957633 2.732331 -4.094591
245 3 10.835841 -2.974500 -6.056655
246 3 0.935708 -1.544400 -12.944559
247 2 31.820857 28.933412 -18.712722
248 3 30.859420 29.005696 -26.540660
249 3 28.883213 31.989266 -32.195527
250 2 89.927118 -15.687590 -16.276499
251 3 86.996733 -9.035484 -27.758820
252 3 92.512136 -12.835578 -10.516734
253 2 2.576736 -39.473366 -22.377444
254 3 -0.082580 -26.364373 -18.578103
255 3 7.364886 -37.085697 -13.853373
256 2 4.692887 8.354525 34.276576
257 3 9.960657 11.348734 34.507072
258 3 -0.019637 2.532178 40.292530
259 2 -16.560230 42.760169 -3.053739
260 3 -29.121145 42.368335 2.901610
261 3 -20.132872 45.479478 -12.441929
262 2 58.965771 38.552579 -47.762037
263 3 50.070275 35.041318 -41.826335
264 3 54.187063 40.865295 -42.992553
265 2 -40.451723 17.204054 -43.986404
266 3 -49.126007 17.547598 -42.900853
267 3 -47.421812 23.717613 -36.481964
268 2 -53.773727 76.963173 22.239341
269 3 -63.774417 77.452245 10.961378
270 3 -58.300291 73.740313 23.977226
271 2 -25.835519 -10.769235 25.563308
272 3 -23.075867 -10.234034 32.796828
273 3 -26.995304 -5.352195 30.543438
274 2 6.740513 -27.648417 -22.164460
275 3 4.620189 -32.423368 -11.266398
276 3 16.097016 -24.738165 -19.049233
277 2 -7.463055 -2.114776 -45.881092
278 3 -9.634312 2.700718 -42.829915
279 3 -9.150785 4.778323 -36.469422
280 2 -26.088387 90.081634 -7.751271
281 3 -20.852447 102.183400 -11.657431
282 3 -17.337943 96.995022 -4.714781
283 2 20.289580 8.339071 -23.084071
284 3 20.979894 15.032073 -25.953429
285 3 21.839318 6.817011 -18.018967
286 2 -17.377198 -16.775715 35.662408
287 3 -10.128343 -24.343834 41.848232
288 3 -11.094045 -12.245819 39.028266
289 2 45.860452 -10.411445 29.380774
290 3 53.862342 -12.807986 32.136008
291 3 47.470040 1.121530 13.276600
292 2 41.587716 9.376414 35.180296
293 3 36.262754 11.320653 37.912877
294 3 41.048831 2.606400 30.921078
295 2 46.579352 44.934271 -62.866706
296 3 39.648068 28.256426 -53.900100
297 3 43.324769 42.464215 -68.949150
298 2 -23.788342 47.669075 14.864784
299 3 -25.212012 49.106667 15.509635
300 3 -20.664021 49.302658 15.572584
301 2 -47.160525 0.810048 -3.053180
302 3 -45.136055 5.505669 -0.224169
303 3 -44.888301 1.771443 2.777934
304 2 -0.131686 -25.706066 -11.343235
305 3 -3.781051 -38.387195 -11.900772
306 3 -10.958847 -28.985500 -8.779050
307 2 -25.856327 32.169936 12.281517
308 3 -22.350798 28.205077 10.414478
309 3 -16.643678 36.194212 12.467920
310 2 6.686574 25.676899 -12.120348
311 3 15.774611 25.698494 -25.763381
312 3 6.722464 15.762258 -24.505403
313 2 20.124006 -1.726228 10.494401
314 3 21.293855 -0.196328 -1.198448
315 3 25.481342 -0.156652 10.463010
316 2 42.388853 -28.302703 14.534407
317 3 37.320699 -29.067471 4.890820
318 3 41.235641 -30.836173 9.620233
319 2 12.254996 14.102340 5.502685
320 3 10.101093 20.968974 0.254014
321 3 10.936223 13.671731 -1.644244
322 2 11.434948 -8.120103 13.028263
323 3 11.012759 -20.908331 4.635046
324 3 10.366380 -18.006183 22.307213
325 2 0.927190 19.864101 13.102451
326 3 2.118466 17.630783 15.078937
327 3 1.298266 13.136292 28.391220
328 2 1.323318 21.548629 -47.350947
329 3 -7.895569 32.121437 -40.192882
330 3 -1.504644 28.466914 -43.367570
331 2 -0.805188 -25.474622 -33.412294
332 3 -3.260712 -39.399903 -40.235077
333 3 -6.947122 -37.344409 -40.429761
334 2 29.409940 31.304598 -8.506869
335 3 28.707988 30.687114 -8.301499
336 3 43.416798 26.695057 -11.526202
337 2 -57.059373 49.237914 -16.555715
338 3 -52.549300 40.551351 -17.382258
339 3 -53.709156 51.430026 -8.893494
340 2 -26.924770 32.948303 56.438706
341 3 -25.873024 37.842957 64.335663
342 3 -32.319418 36.399118 69.789028
343 2 31.501819 20.354703 -1.435287
344 3 33.054203 17.168317 -6.152097
345 3 27.453086 23.156349 -6.102056
346 2 18.622031 18.136968 23.229576
347 3 17.680584 25.126833 28.162031
348 3 17.206702 20.644061 19.220612
349 2 43.204556 -27.593233 -3.028400
350 3 49.688603 -26.269974 3.093113
351 3 52.059650 -20.377219 -4.020311
352 2 61.042401 -2.070738 0.917601
353 3 60.161774 -0.418894 9.086026
354 3 63.107008 1.550835 9.933645
355 2 -9.862441 48.541725 36.751297
356 3 -9.779443 41.617960 36.810231
357 3 -10.055711 44.214622 41.327709
358 2 55.914408 -3.489984 -17.789236
359 3 57.349392 -5.393119 -24.354546
360 3 51.010652 -9.426092 -21.512796
361 2 1.018257 36.197686 18.291972
362 3 0.849100 29.256833 16.598132
363 3 -0.412448 33.771051 17.866882
364 2 -0.546863 48.419825 37.631257
365 3 0.260849 45.806531 25.719187
366 3 -4.936877 41.982785 27.607470
367 2 60.021160 40.096758 -8.992075
368 3 54.588304 40.251935 -14.937748
369 3 53.104004 37.800455 -19.902828
370 2 80.127149 -0.839170 37.694090
371 3 78.711528 2.944710 34.211044
372 3 79.097187 -4.580967 32.955904
373 2 57.919546 2.977171 -2.152753
374 3 51.115967 13.837324 1.827819
375 3 57.790508 6.745611 -3.600491
376 2 -44.460872 73.801792 -10.953009
377 3 -49.986474 71.147587 -15.307671
378 3 -51.441246 69.480962 -14.812309
379 2 9.415095 2.048766 -1.491567
380 3 9.474994 6.645649 1.669643
381 3 2.760724 13.458426 -10.854103
382 2 30.105979 6.779704 8.088444
383 3 35.058493 7.698384 13.899604
384 3 34.439781 7.823098 10.493761
385 2 16.056257 47.266259 -3.939341
386 3 16.330411 58.257513 1.351867
387 3 13.617347 39.454007 10.518740
388 2 -22.122801 3.976760 22.013320
389 3 -23.872264 5.995564 27.896867
390 3 -23.269026 1.583511 18.039627
391 2 7.726854 17.005941 -11.476985
392 3 12.355644 20.475401 -17.288636
393 3 16.825300 19.260124 -16.825145
394 2 6.657363 79.527714 9.623082
395 3 -6.175842 81.469076 13.399351
396 3 0.770294 82.623834 20.044643
397 2 25.627161 78.980606 -27.476799
398 3 27.737811 74.841924 -24.640520
399 3 30.098198 66.062804 -23.072636
400 2 5.159567 45.464055 60.608475
401 3 13.325911 49.189046 49.461604
402 3 12.269422 50.000867 59.780753
403 2 -2.615157 17.861759 4.784609
404 3 -11.055566 21.123889 -2.815096
405 3 -8.966321 18.308289 0.224134
406 2 56.388232 36.310662 -25.562474
407 3 50.343326 34.486651 -29.669952
408 3 47.267695 42.856826 -28.643746
409 2 3.741848 14.633212 -19.367548
410 3 14.983893 8.236295 -17.476692
411 3 16.077389 12.431587 -18.891461
412 2 49.767657 0.153042 -32.619811
413 3 50.525754 2.787618 -30.081504
414 3 47.120302 1.452087 -33.528840
415 2 -48.499552 -28.348521 8.336294
416 3 -38.664795 -23.562425 13.760219
417 3 -41.598860 -29.410681 17.357415
418 2 -29.584416 52.773526 10.919872
419 3 -28.716699 53.287875 13.508739
420 3 -28.742844 54.725729 12.535813
421 2 -15.597080 62.425046 5.584002
422 3 -13.542863 61.637943 12.967926
423 3 -4.578464 58.188094 14.948108
424 2 25.533053 -22.280681 35.156878
425 3 29.384948 -28.457391 33.547589
426 3 27.934632 -23.847711 32.459779
427 2 -55.651356 74.024428 11.586203
428 3 -57.882359 74.945519 13.954638
429 3 -57.799355 81.045588 8.038780
430 2 44.674041 3.035109 6.826466
431 3 48.593731 7.064314 9.315783
432 3 41.812442 1.578157 8.339909
433 2 64.151609 -2.975482 26.915181
434 3 60.749566 -10.426338 28.632723
435 3 58.381449 -0.855452 28.358996
436 2 -10.019250 35.589473 48.257717
437 3 -12.667172 32.134703 48.538458
438 3 -14.508303 34.438087 40.351677
439 2 4.231932 23.558528 -56.280285
440 3 -1.098895 19.705043 -56.070101
441 3 -2.096064 14.499858 -54.013804
442 2 8.179852 31.104323 33.043004
443 3 15.089872 37.461702 38.549456
444 3 13.321106 29.529365 41.596555
445 2 29.463487 37.223358 5.061721
446 3 29.040496 32.110212 3.978671
447 3 34.155273 33.161369 8.334033
448 2 17.564042 38.356293 -64.870720
449 3 21.942764 45.026023 -64.079611
450 3 29.146922 44.126424 -66.314041
451 2 35.636095 54.906371 5.298513
452 3 35.208182 65.819208 1.138345
453 3 44.022310 63.623576 -2.423525
454 2 3.260063 -17.735083 -9.531903
455 3 10.958710 -17.984882 -11.752347
456 3 9.563371 -17.146696 -8.973028
457 2 53.477018 59.621018 -6.371515
458 3 57.826707 59.708249 1.085124
459 3 53.967731 50.706800 6.941835
460 2 -49.473471 36.005723 -20.473397
461 3 -48.398036 34.589441 -27.006142
462 3 -47.104859 36.737951 -23.396971
463 2 -35.612212 38.997097 56.259632
464 3 -29.811596 44.620219 48.266952
465 3 -34.384709 41.178095 49.123610
466 2 16.604012 -36.916690 -40.149968
467 3 12.203204 -42.247779 -24.088791
468 3 14.052507 -46.315974 -26.383973
469 2 11.142020 4.969261 -5.854113
470 3 10.606637 7.016098 -6.575787
471 3 9.308887 8.371890 -6.021223
472 2 -9.434796 18.991726 17.298333
473 3 -2.370864 23.782764 16.131995
474 3 -18.006726 4.425111 13.472572
475 2 17.779902 2.713596 52.535179
476 3 19.299143 3.867341 50.935901
477 3 26.108992 12.034815 59.215333
478 2 26.162088 43.601355 5.637710
479 3 32.639494 35.185763 11.756749
480 3 35.120089 44.309614 -2.940759
481 2 3.421125 21.617201 26.726369
482 3 6.344514 16.204472 18.275228
483 3 6.341661 12.316551 25.554250
484 2 26.863034 39.618865 -21.827481
485 3 28.145617 42.227357 -10.528808
486 3 24.019261 47.144212 -20.567321
487 2 18.959302 37.676618 -13.832691
488 3 15.141663 43.116259 -22.868043
489 3 12.306306 43.422462 -17.141262
490 2 53.879748 51.506477 -13.847902
491 3 49.703187 54.951566 -4.678586
492 3 55.671939 48.773967 -14.011537
493 2 39.649821 22.838056 -3.319536
494 3 53.793789 13.475156 4.725685
495 3 47.067461 20.949127 -1.442181
496 2 -65.433583 28.505895 -6.052882
497 3 -64.950678 29.683807 -7.777119
498 3 -69.043533 35.810825 3.047986
499 2 -49.492982 44.523111 19.162963
500 3 -50.770531 42.909264 21.655732
501 3 -49.859365 43.407501 3.477565
502 2 20.005928 7.647806 27.108867
503 3 15.908117 13.579527 23.268938
504 3 25.001231 12.714777 14.715127
505 2 10.182889 -15.001166 -4.245962
506 3 11.856637 -8.439414 -13.360149
507 3 6.573250 -6.391117 -24.774576
508 2 32.534271 62.236319 -13.674168
509 3 32.300073 57.160444 -5.957290
510 3 40.232234 48.128212 -13.268908
511 2 -7.898536 45.079491 47.549909
512 3 -9.718459 43.046275 48.520917
513 3 -13.440041 47.342483 52.110026
514 2 -17.820848 75.307502 -1.939368
515 3 -23.870064 82.677528 -3.933321
516 3 -14.364487 75.491421 -5.954370
517 2 51.945747 49.347088 61.840796
518 3 41.751758 56.928123 62.029718
519 3 45.147418 52.287065 62.814853
520 2 48.959689 11.104592 16.843814
521 3 41.133765 9.747584 11.519863
522 3 42.811611 6.646400 17.097575
523 2 -0.197099 12.238502 11.926945
524 3 7.029054 15.834451 23.218148
525 3 -0.039541 13.374430 14.567322
526 2 7.241785 12.054339 23.049470
527 3 12.851691 8.504883 20.989794
528 3 5.764186 16.775628 8.139459
529 2 36.310815 25.794188 -19.888749
530 3 31.371086 29.536611 -6.477184
531 3 42.071417 25.272012 -15.841274
532 2 6.917345 87.498502 -17.511616
533 3 4.662564 73.976918 -30.010889
534 3 6.244185 79.097379 -18.013870
535 2 28.568554 77.799047 -46.815464
536 3 29.534722 83.341564 -49.971096
537 3 25.109426 79.182322 -39.825075
538 2 23.843756 10.312411 11.437662
539 3 15.447782 0.519941 21.986191
540 3 17.715510 -4.472175 12.262172
541 2 36.693316 35.603225 35.789753
542 3 31.293844 39.562769 29.575151
543 3 31.363127 34.096146 31.264876
544 2 -11.759743 65.060891 15.304541
545 3 -9.463920 58.645040 12.806259
546 3 -2.852325 53.766742 14.591448
547 2 -14.000027 -17.044558 12.440991
548 3 -14.278082 -17.974877 19.640304
549 3 -19.566896 -17.641196 13.009035
550 2 58.533985 54.294448 -24.115808
551 3 51.106933 56.783477 -7.207115
552 3 59.333380 55.332403 -16.825141
553 2 1.137065 18.523698 35.266650
554 3 4.590162 23.937798 17.346805
555 3 -4.719548 20.957945 22.233165
556 2 13.747322 49.589753 -30.822738
557 3 7.326171 49.124878 -36.073102
558 3 12.237716 47.492183 -23.300514
559 2 -15.261439 20.991781 -6.436525
560 3 -6.871141 23.952704 3.445408
561 3 -6.237474 27.436806 -4.564524
562 2 5.408871 46.378357 20.085662
563 3 4.609792 32.613790 13.882558
564 3 1.620986 45.025240 19.153279
565 2 23.463563 100.805794 -9.611714
566 3 28.816878 106.798775 -11.746020
567 3 30.298157 97.151216 3.264771
568 2 -2.231830 71.753649 6.478995
569 3 13.167078 63.634162 3.307590
570 3 2.193831 57.007162 -3.754268
571 2 13.378836 69.194783 -3.491586
572 3 10.239675 68.634338 -2.197253
573 3 15.878224 72.257762 -9.793219
574 2 -22.056042 72.776795 5.228907
575 3 -21.884883 71.986518 8.305869
576 3 -26.243363 64.807872 17.045049
577 2 -34.028938 46.461602 21.851624
578 3 -32.554018 37.299016 24.431343
579 3 -33.298224 34.000258 29.170864
580 2 43.738129 -11.987050 22.912026
581 3 41.964267 -13.363950 22.085625
582 3 39.962109 -11.829051 21.179757
583 2 -26.950508 5.511775 46.657350
584 3 -25.249551 5.888742 53.998371
585 3 -29.444917 2.732789 44.151821
586 2 4.197206 27.328691 -9.627033
587 3 0.202240 33.940979 0.339741
588 3 9.068259 31.361414 1.238885
589 2 78.961611 79.946888 -0.464870
590 3 75.108196 81.578920 5.067629
591 3 82.787491 68.325133 8.226116
592 2 46.194127 -12.074834 2.550482
593 3 45.232234 -9.532189 -12.797565
594 3 54.065491 -12.503536 -2.655027
595 2 24.748735 62.143318 -22.451108
596 3 21.039981 59.540424 -18.538305
597 3 23.621793 60.977852 -18.469708
598 2 51.551833 -12.166419 -4.976244
599 3 57.108063 -6.109521 -8.106305
600 3 51.746619 -14.508373 0.001205
601 2 17.103986 88.817444 16.351582
602 3 16.080619 87.197678 20.773286
603 3 21.595823 80.198375 13.689847
604 2 41.218477 3.091738 -16.336594
605 3 35.905295 17.180639 -2.973038
606 3 38.373472 11.468611 -21.685463
607 2 36.981475 42.560065 50.945552
608 3 38.940674 31.231283 38.459082
609 3 42.391020 23.516021 44.668151
610 2 -27.203026 22.345510 -75.485636
611 3 -33.952775 15.903752 -68.631245
612 3 -21.449289 13.389434 -81.636629
613 2 -2.336258 53.476465 29.912867
614 3 -4.583079 43.863766 15.573476
615 3 -2.270820 52.161261 27.774933
616 2 44.698285 64.601144 -15.978416
617 3 40.435936 57.417526 -19.973618
618 3 44.169723 54.576359 -18.510246
619 2 16.838185 7.334244 -13.252260
620 3 6.921575 8.367271 -17.794170
621 3 15.281072 0.911134 -15.097404
622 2 46.740651 64.073794 25.636571
623 3 46.167492 67.158493 22.186213
624 3 41.569871 62.826306 28.014863
625 2 15.783942 35.953579 -33.408470
626 3 13.785674 39.783138 -28.099808
627 3 19.591944 40.630737 -23.426752
628 2 15.033942 62.241435 19.015379
629 3 28.309346 66.568297 20.908063
630 3 25.578244 64.824327 6.537852
631 2 -16.956720 64.296651 12.526643
632 3 -14.209357 73.859640 0.278160
633 3 -20.018658 66.370626 0.674298
634 2 40.028373 27.554987 16.450739
635 3 41.095669 17.735798 7.073018
636 3 44.819601 20.978536 12.376784
637 2 16.511919 71.896760 1.883361
638 3 14.453313 75.127237 3.965486
639 3 17.369938 78.043240 10.077676
640 2 3.010046 70.807566 -24.451228
641 3 4.072281 68.346248 -23.564337
642 3 3.538016 68.644240 -26.949979
643 2 86.853163 31.421875 3.215129
644 3 86.334953 34.432785 11.679441
645 3 83.121361 38.772722 20.506672
646 2 18.985444 -8.318036 28.022477
647 3 20.079520 1.067654 33.916894
648 3 20.905120 -10.383312 21.687557
649 2 -12.419606 68.120103 3.398671
650 3 -7.751972 66.078255 6.544023
651 3 -10.826657 67.674815 -1.335470
652 2 3.712486 60.841896 -55.319960
653 3 8.127751 59.011938 -51.582683
654 3 5.627330 51.462116 -46.806321
655 2 -25.739789 59.831419 -54.877991
656 3 -29.443318 61.108244 -49.503926
657 3 -29.318717 67.641077 -53.185216
658 2 -5.539061 79.701096 5.946609
659 3 -4.767046 81.299666 3.221710
660 3 -0.484324 73.933852 -1.139522
661 2 -38.256796 24.093348 9.143335
662 3 -37.130927 30.885469 13.132940
663 3 -37.088830 29.690974 17.193582
664 2 4.077905 10.713937 -49.283479
665 3 7.670926 15.735014 -49.809478
666 3 -1.103332 30.406060 -47.324275
667 2 33.075202 27.262871 -21.497329
668 3 37.143769 35.613133 -31.432747
669 3 35.453421 41.433648 -26.337299
670 2 22.522046 84.217836 38.952748
671 3 32.302082 91.852819 43.205524
672 3 29.476349 84.280394 51.562928
673 2 -9.223811 31.682260 -17.127082
674 3 -10.931285 39.826177 -18.963156
675 3 -15.272981 37.510061 -13.386012
676 2 30.184821 37.621890 27.081215
677 3 35.219641 33.121775 19.065495
678 3 32.443743 31.458387 31.530208
679 2 -14.436503 39.903215 13.916846
680 3 -7.127692 39.606502 13.175797
681 3 -10.182463 39.620437 22.463061
682 2 11.250839 47.026523 -36.562690
683 3 10.974116 49.534835 -44.043743
684 3 2.882100 46.219772 -43.326031
685 2 -11.673702 44.690288 4.607464
686 3 -16.358810 32.813580 5.290798
687 3 -21.623313 35.588066 4.633150
688 2 -31.822854 -26.338343 10.071129
689 3 -24.590123 -28.024567 9.462579
690 3 -27.892241 -31.225034 10.742714
691 2 -29.331295 18.608552 54.085175
692 3 -23.349660 9.553985 48.563116
693 3 -23.323987 19.188874 47.131530
694 2 14.351469 2.063531 0.462210
695 3 23.515422 -1.500927 5.049673
696 3 13.545869 9.367490 -6.746318
697 2 -21.576219 51.420101 14.991171
698 3 -21.033765 56.060681 14.879895
699 3 -17.969633 57.948501 14.055427
700 2 -26.311250 5.084945 7.651399
701 3 -21.332335 10.275117 12.142128
702 3 -21.734326 11.683710 9.755218
703 2 15.325550 10.327167 35.681408
704 3 13.143990 7.424777 32.796605
705 3 16.209644 9.638688 32.502197
706 2 -42.788907 -8.927880 31.409383
707 3 -45.184277 -9.035003 27.139758
708 3 -42.938250 -0.342443 16.314799
709 2 -2.194816 -10.784910 17.443829
710 3 3.290658 -12.600862 15.222951
711 3 0.285456 -18.635792 18.230183
712 2 31.131014 38.141930 -33.924103
713 3 30.638758 41.246520 -20.591262
714 3 27.853865 45.716370 -45.577496
715 2 35.209046 8.988980 -26.572397
716 3 40.606168 9.599734 -5.749736
717 3 41.896929 3.872349 -24.031646
718 2 20.392029 -31.438282 25.138937
719 3 19.210496 -38.515204 21.235020
720 3 22.908996 -34.537345 26.670794
721 2 53.226510 38.230356 -4.868087
722 3 60.836187 43.487652 -11.102353
723 3 46.031312 42.509439 -7.735939
724 2 -15.780851 67.667076 -30.116470
725 3 -15.239580 63.250961 -28.737384
726 3 -22.990669 64.426040 -29.054366
727 2 -53.486034 -4.941212 -11.498596
728 3 -54.973696 3.970582 -7.111240
729 3 -55.184283 -0.731416 -9.129517
730 2 16.194668 15.283325 -23.910579
731 3 12.676048 4.860636 -13.049734
732 3 14.640853 11.080693 -27.258792
733 2 20.735956 -14.876328 28.367095
734 3 22.789570 -15.953350 25.298349
735 3 12.487410 -16.343321 26.531632
736 2 5.638472 31.877384 15.188808
737 3 2.560256 33.051489 29.793300
738 3 6.795951 38.604007 26.249045
739 2 -6.931134 21.728539 46.894453
740 3 -1.031290 33.946143 58.142978
741 3 -10.585436 24.313683 54.380075
742 2 50.671002 -60.813335 63.840132
743 3 37.850771 -55.669080 55.806570
744 3 49.073283 -55.078720 54.842489
745 2 97.720575 27.817941 15.253572
746 3 98.130546 25.584433 9.129058
747 3 96.458500 32.456934 6.453987
748 2 -44.331014 -24.245318 35.394617
749 3 -47.181022 -27.999335 43.161326
750 3 -48.080152 -22.753652 38.743375
751 2 20.583039 -1.694005 12.483976
752 3 27.688227 4.706490 22.956359
753 3 23.996801 -10.039473 6.906456
754 2 17.978674 -25.335644 8.812657
755 3 14.356169 -40.465560 10.224190
756 3 15.081839 -42.811037 7.342390
757 2 7.256307 13.382035 20.045338
758 3 13.980218 9.377550 8.994269
759 3 9.069939 12.454095 18.828428
760 2 23.528132 32.881747 9.143617
761 3 19.995876 37.469108 -3.119002
762 3 22.069378 37.437894 9.032785
763 2 39.402075 -17.248508 5.186055
764 3 27.981783 -15.406326 8.378221
765 3 33.266975 -7.395079 13.059294
766 2 -12.431836 -13.212048 31.562195
767 3 -17.643437 -17.256163 32.694304
768 3 -13.616838 -12.114314 42.865662
769 2 87.770017 8.589321 -4.884532
770 3 83.491601 3.313500 -8.461540
771 3 77.376248 9.262331 -6.159999
772 2 -25.664449 46.106485 -13.717584
773 3 -25.990695 54.765538 -10.775100
774 3 -24.440610 45.058462 -11.280315
775 2 6.650570 24.837001 23.739817
776 3 9.691409 18.459225 28.590763
777 3 3.835161 25.624405 30.793381
778 2 21.138591 18.686815 18.471571
779 3 20.770386 17.554259 20.505996
780 3 23.503013 17.059587 24.022119
781 2 -22.469800 -14.277005 25.930871
782 3 -17.628132 -13.347697 23.178516
783 3 -22.451685 -6.811495 19.075339
784 2 -4.035198 6.064365 5.591385
785 3 -7.204397 9.740014 3.992550
786 3 1.752327 5.250972 14.513522
787 2 -26.577581 33.688858 35.960071
788 3 -28.752039 31.403368 28.172687
789 3 -35.555066 38.490857 21.432450
790 2 20.952150 -54.092479 -22.997948
791 3 18.817058 -51.605058 -30.716280
792 3 13.193795 -49.462896 -32.339612
793 2 15.452686 1.876391 36.617074
794 3 18.220254 -3.100488 26.992308
795 3 17.016917 -4.675586 21.956378
796 2 62.328590 1.836548 65.372308
797 3 63.014259 7.814797 60.483667
798 3 55.641755 6.217904 60.489073
799 2 40.598891 14.923588 -19.592124
800 3 46.815517 16.545167 -15.173674
801 3 48.645303 21.272428 -20.642982
802 2 35.532627 46.090283 2.203136
803 3 39.818344 51.598183 -1.041375
804 3 31.411258 52.220516 -1.215084
805 2 10.819958 -49.831357 16.092573
806 3 13.081719 -41.080634 11.134492
807 3 8.981452 -41.132610 18.354931
808 2 -2.417297 75.588877 -11.800446
809 3 -6.696251 67.351177 -25.670108
810 3 -0.551696 67.783202 -18.095980
811 2 19.166466 12.999912 -4.696853
812 3 11.136300 5.566473 5.569499
813 3 4.223837 17.950369 5.454285
814 2 17.637616 3.366563 -6.599498
815 3 17.483177 -2.423196 -19.556485
816 3 15.629219 -4.017922 -15.861679
817 2 -48.278211 20.054394 49.269895
818 3 -41.357189 30.643263 55.419027
819 3 -45.833848 19.682683 61.597805
820 2 -5.638237 52.201506 44.921947
821 3 -4.447272 51.077792 45.114494
822 3 -5.404636 57.898939 39.115984
823 2 70.487770 -6.037006 -12.800225
824 3 67.678390 -20.029691 -10.505714
825 3 73.162964 -15.623907 11.225161
826 2 32.974253 13.168114 -11.556560
827 3 36.592642 28.160938 -10.424745
828 3 39.631184 23.602847 -4.963718
829 2 70.752847 1.987137 68.423264
830 3 70.534014 -0.599355 66.490552
831 3 62.315042 0.242529 60.121100
832 2 -8.005121 9.332272 5.348140
833 3 -5.278938 19.852903 11.628846
834 3 -10.277982 12.659534 5.688217
835 2 -4.370423 15.285006 12.981158
836 3 -5.211975 9.409241 7.981791
837 3 -6.955537 17.623987 11.411103
838 2 21.180912 24.698331 -9.721820
839 3 25.920711 23.096008 -8.038970
840 3 19.748878 30.112791 -11.504056
841 2 5.855684 2.421400 7.261845
842 3 1.463321 7.464332 -3.938886
843 3 9.685910 6.515094 -1.098845
844 2 -30.175798 -24.497891 25.446507
845 3 -36.397310 -38.114962 28.842932
846 3 -29.602602 -23.858483 13.181128
847 2 -1.282490 50.102312 57.328118
848 3 1.410391 43.720448 65.501078
849 3 4.691714 43.628710 60.124832
850 2 -34.694008 54.412114 58.998151
851 3 -23.876991 49.995832 64.127154
852 3 -33.485369 58.874169 62.537348
853 2 34.604757 47.174352 -10.377733
854 3 34.297154 42.551887 -7.657430
855 3 33.846281 41.014133 -14.993249
856 2 7.456344 7.726461 -2.444883
857 3 7.124679 3.175741 -1.112862
858 3 -0.471222 8.280273 -0.460363
859 2 16.145089 -11.209018 -57.086879
860 3 13.466111 -23.005420 -71.392472
861 3 16.473928 -18.379767 -51.721874
862 2 65.689474 7.926880 -11.349031
863 3 71.098468 -3.007453 -12.724450
864 3 68.731637 9.453923 -14.464798
865 2 49.109297 16.113489 39.740028
866 3 46.018888 14.637945 30.874996
867 3 49.304346 24.589451 42.025364
868 2 49.131436 9.609475 -28.559454
869 3 53.286817 9.389695 -26.351152
870 3 47.727592 1.579611 -29.976560
871 2 18.212894 16.436798 5.095795
872 3 21.128408 20.942209 14.441677
873 3 19.556152 18.524199 12.491991
874 2 11.071787 17.735193 0.832766
875 3 10.306785 17.116037 0.569831
876 3 11.718744 15.369907 -1.678509
877 2 65.591104 59.219135 30.151548
878 3 65.035423 58.387187 23.170490
879 3 67.137526 67.478915 28.274387
880 2 20.463568 44.702563 -30.425952
881 3 29.522110 43.868861 -35.798549
882 3 24.261813 44.676946 -24.398194
883 2 -32.961397 14.098198 -3.917295
884 3 -37.321097 22.508757 -6.141388
885 3 -40.437913 7.140134 0.079076
886 2 -17.525322 -1.861687 37.140955
887 3 -24.026905 5.853375 39.674607
888 3 -13.139156 0.309399 34.697983
889 2 34.901099 29.206523 -10.120126
890 3 33.321027 36.107489 -15.293341
891 3 32.025018 32.620009 -16.982850
892 2 -27.836251 -40.010055 1.759420
893 3 -28.498847 -44.564935 11.472482
894 3 -26.464871 -38.184320 2.352789
895 2 20.632842 75.626207 34.568592
896 3 15.210966 72.638299 30.331236
897 3 19.033243 70.440733 29.059490
898 2 18.654621 69.176550 32.269102
899 3 20.764667 61.658674 26.603307
900 3 19.983728 71.891917 38.180331
901 2 0.729558 28.626381 -20.404337
902 3 -2.112664 31.950053 -8.101074
903 3 5.261473 39.134437 -17.677709
904 2 63.860884 50.206879 3.810628
905 3 64.891068 47.378782 6.730485
906 3 67.393762 49.627531 5.038166
907 2 48.119509 0.707027 -47.031654
908 3 47.160667 -7.448476 -39.085668
909 3 53.036882 -0.963874 -41.887964
910 2 30.693901 -22.779135 64.138976
911 3 34.683177 -26.107523 63.255305
912 3 31.876419 -22.823368 67.855975
913 2 62.424045 34.894191 40.260987
914 3 54.370239 48.404660 34.829151
915 3 58.305141 39.439530 34.848413
916 2 47.505986 29.877639 -57.538761
917 3 49.175462 28.233303 -56.045283
918 3 58.218979 31.662988 -55.069432
919 2 50.612140 7.039197 18.114073
920 3 54.855076 18.604005 9.024251
921 3 55.235004 16.302020 -0.084686
922 2 35.745568 -18.867882 42.698937
923 3 40.838652 -18.770453 40.992199
924 3 42.721705 -12.341223 47.497916
925 2 -34.842828 46.496055 4.618031
926 3 -42.065452 47.181506 11.126345
927 3 -41.525753 50.490234 13.418422
928 2 52.066447 -7.937338 -33.752751
929 3 52.486189 -4.620328 -28.832512
930 3 48.273302 -5.843482 -18.231579
931 2 -25.350435 20.374085 -2.205564
932 3 -17.483093 10.481417 2.436455
933 3 -20.403563 13.656664 -2.437416
934 2 3.386811 -7.464456 -35.087161
935 3 -0.322724 -2.061251 -31.493278
936 3 1.967654 1.004273 -37.814930
937 2 8.402803 47.506490 13.899294
938 3 4.313097 47.610073 28.435581
939 3 4.115177 40.525869 30.557462
940 2 -12.955524 17.287341 52.296501
941 3 -14.170921 20.417016 53.644109
942 3 -10.382672 14.994349 58.641115
943 2 -2.494030 23.086537 22.579111
944 3 -2.696892 20.950387 22.716178
945 3 2.774450 27.694865 34.088776
946 2 64.048651 21.513033 40.021075
947 3 75.127608 15.947131 46.908368
948 3 65.079383 15.734847 41.726868
949 2 -26.352145 14.077877 13.637341
950 3 -31.583907 13.697199 18.784353
951 3 -26.702736 12.631012 12.032325
952 2 59.405467 2.916423 25.850337
953 3 54.022639 1.353466 19.359989
954 3 65.743588 1.257206 23.620148
955 2 39.204264 32.227470 1.804046
956 3 32.782368 38.287395 -10.304521
957 3 38.500194 39.670242 -6.917077
958 2 10.099581 28.435867 16.593844
959 3 0.245312 27.959305 23.542537
960 3 6.589083 32.164625 11.322240
961 2 -3.993211 -5.660339 34.500929
962 3 -4.114470 -4.328909 34.437740
963 3 -12.960991 1.328579 39.945077
964 2 -18.573666 11.169513 68.475145
965 3 -18.673947 15.086790 75.028962
966 3 -20.405806 20.643858 56.921963
967 2 31.066977 47.055905 -19.569147
968 3 35.216563 55.679958 -19.496373
969 3 27.012696 50.262597 -22.960112
970 2 -9.590256 25.199754 -16.214026
971 3 -3.012098 29.497222 -6.185031
972 3 -5.219423 31.666275 -8.759025
973 2 15.943250 71.719660 -11.258523
974 3 10.621789 68.988891 -15.484106
975 3 16.773307 73.634921 -5.289827
976 2 -25.198279 50.709468 -16.323358
977 3 -17.811690 35.896911 -11.623879
978 3 -12.885995 47.321197 -14.334963
979 2 14.993078 73.084142 7.418285
980 3 9.102659 64.723945 21.955953
981 3 14.110228 62.662719 15.624589
982 2 -3.032831 22.394175 32.847218
983 3 -5.167942 26.360936 24.611322
984 3 -4.151022 27.554560 25.496830
985 2 -8.727549 27.032288 12.372862
986 3 -11.121924 22.590104 14.010238
987 3 -13.831613 18.564276 13.285012
988 2 26.526294 -9.049641 11.000410
989 3 28.708297 -11.752345 5.675697
990 3 29.805930 -16.458330 -6.733557
991 2 47.354362 29.763430 50.064067
992 3 45.770044 33.461431 55.897916
993 3 56.907431 42.753340 56.584435
994 2 33.200233 23.802484 -1.411531
995 3 39.806576 17.747782 1.503622
996 3 35.817138 17.809582 1.552646
997 2 -1.491028 17.105844 -5.984882
998 3 5.655053 19.654970 -10.913209
999 3 10.549132 7.586224 -1.548387
1000 2 8.351507 27.363466 18.552158
1001 3 11.346616 35.386340 13.883398
1002 3 15.964882 33.023329 21.504588
1003 2 -27.527793 41.414915 -1.670429
1004 3 -23.693319 46.531027 -2.909746
1005 3 -20.736563 49.534485 1.937496
1006 2 -17.046081 20.564726 -18.235600
1007 3 -22.666891 21.529798 -8.054813
1008 3 -22.446937 16.751148 -3.612252
1009 2 3.897976 39.962090 -17.101600
1010 3 8.232304 47.248833 -9.890972
1011 3 10.084261 52.294177 -12.629071
1012 2 -30.481553 72.636083 31.772937
1013 3 -25.692649 68.058544 44.125440
1014 3 -31.750986 72.713982 36.503125
1015 2 4.777790 78.019369 -30.780105
1016 3 7.763003 80.552547 -22.051015
1017 3 9.737624 76.521386 -29.709499
1018 2 33.648062 45.019122 -3.988215
1019 3 33.686527 44.428679 -8.322301
1020 3 44.705738 40.576294 -5.828815
1021 2 8.608597 -1.914965 61.309354
1022 3 19.677145 1.971547 63.814286
1023 3 13.428314 -7.043603 62.366578
1024 2 -17.598000 59.360390 -40.826920
1025 3 -13.533422 56.878466 -45.898275
1026 3 -11.207710 61.220802 -42.716257
1027 2 58.810484 -1.881914 -17.172220
1028 3 55.605546 0.986765 -14.960790
1029 3 52.239344 -8.960493 -8.571826
1030 2 41.338202 18.381884 9.453829
1031 3 45.302481 20.359378 11.804868
1032 3 37.671268 19.592802 12.830952
1033 2 64.867681 67.145634 5.631243
1034 3 67.203931 66.379155 17.483750
1035 3 65.627818 62.627677 13.281934
1036 2 85.127288 18.049747 19.000992
1037 3 86.418690 24.337075 23.655716
1038 3 83.527819 21.225425 24.587382
1039 2 -12.049048 62.399362 -25.631064
1040 3 -11.721492 64.061304 -12.873653
1041 3 -15.370350 77.127915 -28.650043
1042 2 16.395445 40.899516 19.360026
1043 3 11.283656 32.271971 7.938745
1044 3 12.439174 39.763416 20.022032
1045 2 40.382661 72.840512 9.007523
1046 3 41.317642 64.978195 3.882005
1047 3 47.224933 58.932812 -9.107085
1048 2 -28.783628 51.784947 35.116287
1049 3 -25.479868 55.712567 42.025491
1050 3 -31.258665 55.668467 39.099047
1051 2 -2.020676 27.642421 22.743496
1052 3 -0.733541 26.862828 13.373638
1053 3 1.931887 18.144117 16.063917
1054 2 63.501545 14.326562 -8.028789
1055 3 65.755645 6.168064 -5.105024
1056 3 63.075866 2.165656 8.503635
1057 2 2.777100 42.789004 44.034999
1058 3 7.118327 39.006140 55.346202
1059 3 3.869936 31.074490 53.504019
1060 2 -0.463722 5.452997 50.622840
1061 3 -3.460591 -1.510109 38.140891
1062 3 -0.900024 4.199489 48.723939
1063 2 23.660014 32.907451 -3.937816
1064 3 19.358315 34.807532 9.347984
1065 3 18.232741 36.455642 6.718614
1066 2 51.595368 66.400114 23.665566
1067 3 49.332681 65.224451 8.100278
1068 3 41.042226 63.393950 15.581675
1069 2 70.344605 31.889897 5.675442
1070 3 70.331435 30.438339 1.255650
1071 3 69.309929 27.957130 1.613356
1072 2 52.221876 40.808171 9.767816
1073 3 55.573692 44.782956 9.418608
1074 3 58.978931 32.935128 5.562101
1075 2 95.340272 -13.706294 18.417111
1076 3 106.259566 -7.449520 13.692016
1077 3 107.205921 -8.880135 16.377982
1078 2 31.834464 43.076017 17.889705
1079 3 31.208507 32.531672 15.215329
1080 3 32.839278 30.236878 24.041582
1081 2 -44.527477 20.229590 -26.479599
1082 3 -36.527433 26.286045 -16.724814
1083 3 -43.805557 26.973785 -9.965081
1084 2 4.009007 28.121251 10.834283
1085 3 4.496367 19.014387 9.472645
1086 3 -0.431179 26.959380 5.079313
1087 2 15.421292 27.465047 38.521063
1088 3 17.473729 31.829321 43.767476
1089 3 17.621861 30.639371 37.185374
1090 2 51.441215 30.401219 -24.996052
1091 3 45.196793 23.587225 -20.853871
1092 3 43.778334 37.583827 -9.206609
1093 2 25.969369 69.508174 -42.213129
1094 3 27.368666 65.686737 -45.549874
1095 3 14.729878 58.731096 -42.460382
1096 2 33.061588 32.070156 12.125740
1097 3 26.984683 28.128401 8.777368
1098 3 30.334128 28.256410 5.812618
1099 2 18.849545 50.370352 -18.522217
1100 3 16.373500 52.946045 -8.507448
1101 3 15.832423 54.054471 -12.240263
1102 2 81.324418 27.860561 -36.896584
1103 3 74.581889 21.024103 -48.396509
1104 3 84.899945 26.550656 -53.339730
1105 2 -10.983239 69.511492 1.589681
1106 3 -18.269384 75.086364 -7.341225
1107 3 -6.788239 67.484024 1.528659
1108 2 21.300288 7.990122 20.381591
1109 3 30.418880 6.835734 19.003499
1110 3 32.701631 -0.498315 14.446288
1111 2 72.410897 34.689955 32.096718
1112 3 59.561725 38.763460 29.856592
1113 3 69.524534 34.251638 28.501584
1114 2 45.087201 71.057282 18.812921
1115 3 43.183911 60.567797 4.125455
1116 3 49.779674 67.628195 18.255574
1117 2 -8.530572 66.738858 28.099410
1118 3 -12.908473 69.346583 25.931483
1119 3 -11.993748 65.977888 17.513704
1120 2 -9.292730 66.896253 -19.559022
1121 3 -11.313688 71.464498 -10.171943
1122 3 -6.189732 80.648566 -23.197452
1123 2 -0.476781 56.837574 17.995847
1124 3 -4.611960 47.167617 28.115493
1125 3 4.567596 48.649989 26.905829
1126 2 -30.171000 87.646949 10.522461
1127 3 -24.338909 88.725739 -3.666232
1128 3 -25.394504 87.332548 4.979461
1129 2 62.239594 36.939554 33.036525
1130 3 61.176964 42.909499 35.429540
1131 3 51.128721 38.510267 37.363358
1132 2 23.408616 15.988914 5.927408
1133 3 25.506805 22.404413 -4.906831
1134 3 31.763883 16.522417 -3.022917
1135 2 30.867412 -7.675431 -15.955940
1136 3 29.246087 -17.587601 -23.306631
1137 3 29.397650 -11.621811 -16.903482
1138 2 -19.685325 40.995018 -12.882990
1139 3 -15.618899 37.689219 -2.920750
1140 3 -15.876848 37.887053 -2.878662
1141 2 34.490800 54.432746 -48.252650
1142 3 37.294527 42.402992 -51.559739
1143 3 39.067945 50.281355 -38.456483
1144 2 4.800741 13.656057 6.704156
1145 3 8.288751 13.987859 6.628187
1146 3 -0.615760 11.894249 13.340597
1147 2 15.104800 69.228499 -0.992829
1148 3 17.292548 55.184994 -7.574711
1149 3 19.635415 69.297599 2.038706
1150 2 -1.252846 27.153519 -18.594495
1151 3 -0.856609 34.777234 -17.364009
1152 3 5.566868 26.439092 -19.172407
1153 2 78.158444 35.452111 -37.658455
1154 3 80.868456 33.823411 -37.304048
1155 3 81.211989 38.035808 -41.985541
1156 2 -6.240985 31.685677 -8.308227
1157 3 -5.687493 33.058487 1.083004
1158 3 -10.088175 29.775342 -4.444597
1159 2 45.289592 73.011184 53.929200
1160 3 46.064689 74.020361 49.224064
1161 3 52.049044 80.824871 51.588703
1162 2 12.466951 27.020379 -14.473531
1163 3 9.001585 29.729924 -15.724292
1164 3 20.081757 28.068703 -13.368771
1165 2 22.277368 60.089386 48.805918
1166 3 27.856700 64.608191 59.004323
1167 3 24.528120 66.492024 59.700447
1168 2 8.548297 24.376542 51.375177
1169 3 11.889060 21.739531 54.509338
1170 3 6.561346 23.230978 50.979577
1171 2 12.322199 49.947200 7.780791
1172 3 14.325488 61.076125 -3.562990
1173 3 8.232206 59.572228 2.175119
1174 2 40.333808 9.463853 12.829923
1175 3 38.433320 7.631446 23.194054
1176 3 46.090223 11.841242 22.069141
1177 2 -27.507512 85.041285 12.685939
1178 3 -21.876678 97.753343 15.210772
1179 3 -24.709150 89.863324 18.114464
1180 2 81.396360 23.463436 -2.230390
1181 3 95.835625 35.052416 -8.679978
1182 3 82.601820 25.537558 -0.409623
1183 2 -2.052777 26.823848 -37.212874
1184 3 -7.782618 38.242942 -40.041025
1185 3 -5.380608 22.867207 -36.380724
1186 2 -0.208526 43.293250 -3.633042
1187 3 -13.469849 46.183463 3.959314
1188 3 -8.797497 43.952553 1.484109
1189 2 74.441228 114.567297 30.400480
1190 3 67.551952 136.929256 20.546428
1191 3 75.145092 123.271013 21.614101
1192 2 12.174188 94.730998 59.094358
1193 3 17.229691 98.907227 61.042191
1194 3 16.034595 106.142300 62.594157
1195 2 -37.923673 -17.962835 -11.631200
1196 3 -47.908679 -16.689781 -8.119874
1197 3 -44.760348 -7.693910 -11.267666
1198 2 33.243427 -4.259935 -16.589302
1199 3 30.437311 -4.153830 -2.864376
1200 3 36.050065 -6.688754 -7.661392
1201 2 -52.849540 14.905351 -5.825139
1202 3 -64.321111 15.163485 -3.185851
1203 3 -54.207017 20.613485 -8.246326
1204 2 57.258291 13.043222 20.986469
1205 3 53.540363 13.974141 19.114042
1206 3 57.286901 7.823013 28.448992
1207 2 14.098774 -16.136588 -1.632931
1208 3 17.923288 -0.763485 -10.249306
1209 3 16.593135 -11.600797 -10.158547
1210 2 21.623424 51.293609 40.544357
1211 3 24.085205 45.561742 44.644173
1212 3 20.227543 45.964622 40.549337
1213 2 -22.465422 25.801488 -8.821579
1214 3 -21.854286 14.940465 -12.208856
1215 3 -23.052671 25.011640 -5.339718
1216 2 61.262571 7.277162 26.731161
1217 3 65.926785 13.867948 27.474788
1218 3 59.442473 1.472576 31.291625
1219 2 78.201459 -1.614796 -13.688059
1220 3 73.676127 1.316561 -22.406229
1221 3 80.644872 5.346567 -21.444529
1222 2 52.153370 17.474436 5.774386
1223 3 51.522059 21.734975 4.455521
1224 3 56.371868 9.482448 1.134490
1225 2 29.772333 30.458918 64.393656
1226 3 34.628743 27.758552 63.699807
1227 3 40.110778 29.621137 64.821884
1228 2 27.488151 19.210265 12.254631
1229 3 16.617002 18.669908 15.390656
1230 3 22.221191 10.129448 16.659734
1231 2 33.343334 -10.109477 20.424086
1232 3 33.774476 -3.123502 16.367259
1233 3 37.146592 -0.790011 9.319261
1234 2 -8.211998 3.873010 20.257739
1235 3 -8.662802 3.794765 20.888302
1236 3 -6.550846 -1.013917 19.813441
1237 2 32.297530 32.163681 10.956320
1238 3 38.705212 38.266702 26.526929
1239 3 31.524666 32.434177 10.052625
1240 2 67.635529 17.617218 -2.490027
1241 3 61.956245 20.336750 11.084160
1242 3 60.367674 14.273283 11.719113
1243 2 13.157646 15.338355 6.228842
1244 3 19.597034 3.271454 -0.317826
1245 3 19.237476 5.161834 6.265599
1246 2 34.047678 36.745050 53.549560
1247 3 33.355340 41.093422 51.552367
1248 3 37.255587 33.496346 44.521838
1249 2 -27.856331 32.267648 -24.774429
1250 3 -20.852604 32.008140 -19.539841
1251 3 -28.232273 28.902596 -22.360833
1252 2 17.946945 43.448349 -38.993756
1253 3 16.946543 35.818425 -37.372532
1254 3 13.757612 49.046640 -48.200026
1255 2 29.284405 1.341734 25.179085
1256 3 29.597473 2.343541 25.318870
1257 3 23.493229 -3.092272 32.356563
1258 2 31.647523 14.529378 67.219496
1259 3 31.736889 11.852587 73.912439
1260 3 30.190325 14.756382 75.006815
1261 2 25.964507 35.629811 38.831027
1262 3 28.050406 38.538551 38.872157
1263 3 19.436987 30.588969 35.870781
1264 2 54.943311 9.348114 2.547018
1265 3 47.957268 12.900413 5.178434
1266 3 53.371494 1.924376 9.411943
1267 2 40.819773 7.482572 21.179926
1268 3 45.674900 2.547099 25.677146
1269 3 39.756541 4.837712 23.343928
1270 2 44.629051 16.352055 -6.387003
1271 3 49.141367 21.308382 -16.634144
1272 3 46.491942 19.433911 -8.601591
1273 2 -32.854353 -53.801621 61.442806
1274 3 -33.351191 -52.074338 61.625487
1275 3 -32.634812 -44.734349 56.068382
1276 2 46.072105 60.511602 38.550225
1277 3 46.499612 57.910396 35.289358
1278 3 48.514453 48.176668 31.952634
1279 2 -25.681991 -8.966134 25.940323
1280 3 -20.054540 -11.169738 16.869610
1281 3 -25.488834 -5.159302 23.911610
1282 2 33.120528 -20.545644 -42.535449
1283 3 31.259323 -37.857656 -46.214182
1284 3 32.651196 -30.917243 -43.928969
1285 2 -8.794376 42.733578 18.476979
1286 3 -2.201971 42.451092 22.389859
1287 3 -6.235779 41.963466 19.598336
1288 2 62.259415 36.215070 7.802018
1289 3 61.698530 35.889045 9.058261
1290 3 62.264361 23.370835 -2.694465
1291 2 7.604297 -19.819875 8.719251
1292 3 1.887424 -25.572842 15.134612
1293 3 -1.333916 -24.485253 4.164445
1294 2 24.024184 8.025662 -24.630981
1295 3 23.440827 19.960068 -23.505656
1296 3 26.359628 11.749363 -49.181326
1297 2 -5.880256 -1.712189 -9.791378
1298 3 -5.416782 2.672046 -15.869268
1299 3 -0.933186 7.214119 -17.923989
1300 2 31.185749 -2.641024 58.702402
1301 3 35.563877 0.157759 56.648070
1302 3 25.887792 -2.666609 59.153169
1303 2 -14.659714 26.735768 2.690553
1304 3 -8.963745 21.086572 5.180343
1305 3 -15.510881 26.407620 3.863206
1306 2 56.747023 23.246044 -33.680384
1307 3 61.025149 25.871489 -24.741705
1308 3 61.872289 23.498563 -32.495234
1309 2 89.216636 15.262692 20.891520
1310 3 88.412631 19.894579 19.830184
1311 3 93.097863 17.105847 23.664193
1312 2 -75.849322 48.872057 -0.342438
1313 3 -77.160198 45.782642 0.496894
1314 3 -77.954503 53.450907 7.442243
1315 2 34.987408 18.610277 69.538513
1316 3 28.483276 12.806274 62.689335
1317 3 35.125760 9.618819 79.579494
1318 2 29.468848 41.958532 33.635333
1319 3 24.654896 38.456815 14.628490
1320 3 30.864521 41.468424 21.423865
1321 2 5.597835 19.007742 -16.772004
1322 3 2.921264 13.121398 -25.125722
1323 3 -1.878550 15.789184 -7.335567
1324 2 47.973420 -22.979538 21.380358
1325 3 44.660120 -16.614216 27.892828
1326 3 39.333261 -20.638170 17.811386
1327 2 18.301074 30.175281 19.016744
1328 3 16.268746 19.720764 25.110703
1329 3 14.485988 29.163987 23.445992
1330 2 28.098019 -21.476815 19.015549
1331 3 29.893298 -19.593176 19.977867
1332 3 29.653868 -21.799051 23.443233
1333 2 0.184395 23.917506 29.368849
1334 3 4.166937 20.963284 25.109263
1335 3 0.461457 23.317143 26.187972
1336 2 19.505773 43.269856 21.340544
1337 3 18.884136 42.465580 12.751372
1338 3 21.517245 42.383194 12.913832
1339 2 10.092579 37.944039 13.708476
1340 3 11.424155 49.039886 16.208198
1341 3 11.816654 41.564414 21.230105
1342 2 21.982888 -3.622535 -6.969787
1343 3 20.699652 -6.987089 -16.278197
1344 3 23.548071 -6.118035 -18.857921
1345 2 60.892719 15.135835 -43.462500
1346 3 60.178832 13.851239 -25.468919
1347 3 58.508586 8.244724 -40.284094
1348 2 59.813309 -2.007775 34.443547
1349 3 61.587064 -0.017884 41.533921
1350 3 62.981341 1.117228 40.370666
1351 2 16.211940 -4.642184 38.388546
1352 3 23.013788 -2.838701 34.155813
1353 3 19.620386 -2.519187 45.689687
1354 2 22.753157 10.978437 -4.679285
1355 3 17.749097 18.253611 0.927183
1356 3 12.992686 10.718165 -3.400061
1357 2 -3.547601 -0.748806 28.456902
1358 3 5.238500 -3.831210 20.771000
1359 3 -4.519442 -6.887252 25.357862
1360 2 14.322994 49.279484 11.780330
1361 3 1.497164 35.509315 1.326156
1362 3 1.068544 39.182610 3.101602
1363 2 51.596413 -8.782211 -27.834855
1364 3 46.047141 1.719551 -27.225491
1365 3 48.270252 -12.929450 -19.889003
1366 2 13.409187 60.995957 69.781942
1367 3 16.017034 60.284317 78.678953
1368 3 9.045409 61.150337 66.211206
1369 2 -1.380439 4.768460 17.670571
1370 3 -8.021590 -6.007506 23.046761
1371 3 -6.757975 4.325777 11.336609
1372 2 11.279159 -11.582660 -17.904506
1373 3 17.152671 -7.541804 -19.284774
1374 3 11.132495 -1.407837 -22.976059
1375 2 -16.061398 24.135115 0.374301
1376 3 -11.938495 35.135420 -5.677391
1377 3 -20.144843 41.937619 -6.562903
1378 2 90.009364 -1.269828 13.805962
1379 3 85.226061 -4.567641 16.659272
1380 3 90.232812 -4.420855 9.240563
1381 2 18.656995 43.968073 39.967374
1382 3 19.005079 39.972708 36.738815
1383 3 16.058449 37.546852 35.524014
1384 2 36.214855 8.372102 -30.788966
1385 3 38.993489 13.107353 -19.759025
1386 3 37.402709 0.500179 -22.487342
1387 2 53.317186 -3.892877 -2.485735
1388 3 51.989236 -4.015452 -13.115387
1389 3 66.949355 7.846078 -6.857771
1390 2 -13.588296 20.437072 10.651904
1391 3 -13.568533 17.172911 9.414442
1392 3 -12.100635 21.783681 10.870906
1393 2 30.004709 31.261784 68.458433
1394 3 22.357765 30.756788 74.659900
1395 3 24.341405 38.739002 76.153608
1396 2 -28.404128 -2.650890 63.435707
1397 3 -30.725249 -2.981821 60.014869
1398 3 -29.422523 -1.416671 63.774440
1399 2 23.234343 5.406648 2.872993
1400 3 14.702878 3.287162 7.099440
1401 3 20.397191 11.948601 16.103006
1402 2 24.954852 12.389964 -3.658072
1403 3 14.564888 23.819772 11.408420
1404 3 21.853787 6.000497 7.593446
1405 2 45.826108 50.945800 40.399665
1406 3 37.004652 49.016013 33.320849
1407 3 47.631481 43.051492 42.116222
1408 2 -4.654929 -3.835347 -46.963447
1409 3 -3.395334 2.527051 -26.879226
1410 3 -0.861459 0.397883 -38.239278
1411 2 29.015498 88.315261 20.838408
1412 3 35.319724 86.463190 17.193809
1413 3 36.988528 89.174448 21.159981
1414 2 23.464204 74.322333 -4.746320
1415 3 24.263457 65.795771 -7.204027
1416 3 19.974075 75.975221 -3.975522
1417 2 19.218104 39.324559 -33.102683
1418 3 19.420474 46.011261 -25.038819
1419 3 14.504140 48.353523 -26.742250
1420 2 16.669102 29.529057 51.496894
1421 3 13.602646 35.005526 42.864433
1422 3 13.030156 38.989786 41.042611
1423 2 81.547294 16.242428 24.137445
1424 3 75.869908 16.014725 18.952395
1425 3 82.677810 18.048361 37.415761
1426 2 -25.436283 32.262900 -28.107622
1427 3 -27.139117 41.183433 -26.602801
1428 3 -34.522159 47.061238 -17.795111
1429 2 -66.738931 -8.815735 -2.381773
1430 3 -65.735493 -3.430210 3.686495
1431 3 -54.487784 -5.152194 -6.306854
1432 2 -40.284773 -29.819611 -29.855978
1433 3 -44.981387 -34.189140 -32.196196
1434 3 -46.969683 -34.853947 -35.290546
1435 2 -15.187858 56.524369 -0.737323
1436 3 -19.887744 60.145118 1.201690
1437 3 -14.293124 49.352410 8.290865
1438 2 4.565115 40.543105 -28.408482
1439 3 11.653321 33.249178 -24.448142
1440 3 8.506904 34.495448 -30.741799
1441 2 -15.397730 36.797301 6.215928
1442 3 -12.320152 42.153288 7.168052
1443 3 -9.930029 28.716315 -2.474435
1444 2 -41.370432 27.487289 -29.185733
1445 3 -50.131978 31.286055 -23.725213
1446 3 -43.357539 28.335703 -28.246859
1447 2 6.952088 39.017648 5.563984
1448 3 7.947018 49.811159 9.770496
1449 3 12.221085 30.786639 10.231048
1450 2 -0.479691 32.594331 15.195303
1451 3 4.471326 34.848752 16.521851
1452 3 5.005931 31.260646 19.504473
1453 2 24.689625 30.249473 -7.052781
1454 3 18.402321 29.965255 6.761008
1455 3 17.560326 31.637893 1.252302
1456 2 33.140120 44.221509 28.544467
1457 3 30.987029 41.042413 26.832333
1458 3 32.244332 46.922265 41.072881
1459 2 77.441405 29.579133 24.054299
1460 3 78.223330 17.481499 38.065936
1461 3 70.825510 21.399988 33.601204
1462 2 24.601766 39.744281 51.627417
1463 3 26.897938 34.466644 53.755546
1464 3 18.447268 39.675765 46.662900
1465 2 64.822087 81.448729 30.635859
1466 3 62.730137 70.177714 37.569797
1467 3 64.691971 85.482065 31.543508
1468 2 -61.527288 21.650896 38.279592
1469 3 -51.891797 29.002599 43.211673
1470 3 -55.325578 14.677010 42.085219
1471 2 -33.858235 -10.291347 12.853363
1472 3 -32.171134 -8.599560 17.227784
1473 3 -35.379667 -12.354431 5.281426
1474 2 -30.722972 45.523964 41.303122
1475 3 -31.924761 46.316150 57.464352
1476 3 -37.116297 53.272177 52.384675
1477 2 -34.914794 48.177759 -12.375558
1478 3 -32.105863 59.137036 -11.342931
1479 3 -32.053309 68.478753 -12.224766
1480 2 -27.530064 73.897544 -11.662321
1481 3 -25.533713 77.872423 -13.241717
1482 3 -23.191615 77.881014 -9.112830
1483 2 -34.392905 57.505460 21.823916
1484 3 -28.862386 60.138705 21.777248
1485 3 -33.285079 57.605797 29.939628
1486 2 -15.024337 31.905997 3.163530
1487 3 -19.861621 32.137192 1.091768
1488 3 -22.354779 31.137915 0.424868
1489 2 -1.922079 -14.059276 -3.892542
1490 3 -3.598938 0.193024 -4.669187
1491 3 -4.825673 -8.207780 -5.166664
1492 2 49.482142 6.946170 -43.853557
1493 3 44.918787 6.011737 -53.018633
1494 3 40.126625 7.536570 -38.258505
1495 2 34.526117 52.177925 55.955035
1496 3 29.539650 48.787316 46.850796
1497 3 28.521088 50.221675 46.647052
1498 2 17.769906 3.781543 23.435990
1499 3 16.134237 -6.943474 4.230345
1500 3 14.159274 6.361070 5.079442
1501 2 31.872177 65.404633 -49.478984
1502 3 28.556168 58.397108 -47.108860
1503 3 32.482507 63.443615 -44.837209
1504 2 36.895564 60.247222 24.299972
1505 3 31.980233 63.432500 22.037403
1506 3 41.307977 58.387381 21.562236
1507 2 16.866355 40.814245 33.023218
1508 3 17.452257 39.717953 20.507042
1509 3 19.718073 43.161701 25.576986
1510 2 -21.339006 48.347870 5.227352
1511 3 -24.712040 52.494200 -1.560076
1512 3 -22.393264 49.891865 1.332317
1513 2 61.350597 -4.120384 45.134059
1514 3 73.999576 -1.987063 51.500137
1515 3 69.956520 -1.457884 41.324244
1516 2 0.980439 36.392265 25.662069
1517 3 -0.604412 37.821306 27.867061
1518 3 -5.196290 26.878544 27.057851
1519 2 -31.191314 -13.083591 20.536797
1520 3 -38.336398 -10.347985 28.951428
1521 3 -38.540207 -8.784334 27.439620
1522 2 45.227409 56.749119 58.945181
1523 3 49.028451 61.742145 49.356743
1524 3 45.722531 57.756293 46.529005
1525 2 17.453171 36.230258 -22.835503
1526 3 24.212930 26.694904 -20.231513
1527 3 15.771436 39.177397 -19.957717
1528 2 70.015764 18.989887 35.889521
1529 3 67.076849 10.753167 36.254737
1530 3 72.714860 15.014973 32.588970
1531 2 11.535007 46.834269 -5.739606
1532 3 11.626899 44.668150 -21.588665
1533 3 5.616105 56.588436 -24.215775
1534 2 35.185303 11.898692 13.720084
1535 3 30.034304 11.928104 2.150169
1536 3 29.629917 8.803265 3.166299
1537 2 58.825394 60.057921 8.295566
1538 3 52.532365 63.982622 14.466235
1539 3 56.846970 60.953879 10.661913
1540 2 40.919329 37.856209 -7.669366
1541 3 40.638956 32.691622 -6.827204
1542 3 44.809531 38.243558 -18.670145
1543 2 93.255298 11.773385 21.394097
1544 3 91.928319 8.533620 25.804564
1545 3 96.190909 11.306521 18.231587
1546 2 -10.225222 -7.561784 38.282076
1547 3 -2.454557 -7.539951 29.423798
1548 3 -6.090011 -8.941336 37.344171
1549 2 21.081210 19.600748 -35.457469
1550 3 22.387527 11.205488 -28.449975
1551 3 19.273982 19.304600 -28.272410
1552 2 12.930187 21.539496 5.818666
1553 3 13.838568 8.127143 -1.152275
1554 3 17.892547 16.793853 -2.194382
1555 2 15.533743 50.321006 6.322848
1556 3 9.139409 53.698288 9.368033
1557 3 8.369776 51.371347 -1.481061
1558 2 -14.890557 49.714770 4.866845
1559 3 -3.316264 42.354555 6.618450
1560 3 -10.223277 48.554329 16.368635
1561 2 66.748831 16.288730 -8.197198
1562 3 72.662188 13.659655 -11.173170
1563 3 78.232117 8.764521 -3.600126
1564 2 41.183483 37.499562 25.968644
1565 3 40.817146 47.898293 23.299014
1566 3 36.410188 37.427135 24.998784
1567 2 53.691321 -23.777060 -9.257217
1568 3 57.189033 -24.139146 1.982999
1569 3 57.688429 -19.593541 -14.181046
1570 2 31.296504 61.733159 45.107719
1571 3 36.507358 64.206646 35.079464
1572 3 28.156370 61.761363 33.641506
1573 2 102.359569 64.766597 -5.995552
1574 3 102.035381 70.424221 -14.451723
1575 3 103.307501 67.928502 -6.946884
1576 2 5.971929 -5.710114 -39.411249
1577 3 -0.201575 -7.527862 -33.979698
1578 3 -1.503868 -1.451392 -28.479539
1579 2 31.482885 45.613015 8.384626
1580 3 24.539624 54.530012 15.108814
1581 3 32.178287 46.469193 19.430095
1582 2 75.093425 6.337177 -8.540783
1583 3 73.184373 11.074752 -8.987070
1584 3 75.539175 12.770343 -8.561082
1585 2 21.209881 10.091517 23.034056
1586 3 32.843800 14.223814 12.364808
1587 3 26.232772 6.787321 24.803205
1588 2 0.949480 58.238854 6.102988
1589 3 2.264528 51.553625 7.724557
1590 3 4.038435 57.095294 -0.035009
1591 2 -29.295922 51.353349 -15.451532
1592 3 -17.597877 46.288631 -13.009297
1593 3 -20.910104 48.113977 -7.619168
1594 2 1.028131 56.354811 38.215754
1595 3 1.220055 57.819257 37.923679
1596 3 -2.235210 59.046829 40.206135
1597 2 -6.540367 40.684980 20.070536
1598 3 -9.817463 32.571971 25.048277
1599 3 -7.398583 39.771299 26.153211
1600 2 -19.215867 47.241924 24.043958
1601 3 -16.893110 48.988769 18.039017
1602 3 -11.847699 46.755828 13.590410
1603 2 21.939664 101.221722 24.334839
1604 3 22.865966 99.826889 34.639398
1605 3 18.289342 97.817794 27.301597
1606 2 9.980535 -9.735258 17.442847
1607 3 12.411997 -6.454371 7.782414
1608 3 8.128829 -7.633961 12.078453
1609 2 23.298366 66.825336 18.380589
1610 3 21.886387 63.736723 17.136307
1611 3 26.241457 68.521450 24.714007
1612 2 29.722692 42.059871 28.399221
1613 3 25.170606 42.081480 13.649704
1614 3 29.635347 42.932848 21.032753
1615 2 27.877049 26.119138 -22.344189
1616 3 21.209186 32.154741 -35.356188
1617 3 24.540470 26.363014 -27.606067
1618 2 48.621062 19.896201 -7.387878
1619 3 47.005389 21.721219 -0.187464
1620 3 46.026595 27.083223 -1.967846
1621 2 27.733097 -7.713337 12.305086
1622 3 27.818512 2.256139 14.059598
1623 3 30.028482 -10.057286 22.718731
1624 2 -5.886032 31.305020 -36.885646
1625 3 -5.547091 25.330051 -39.347018
1626 3 0.370236 25.265680 -38.567853
1627 2 -0.346208 38.107962 24.733631
1628 3 6.204800 33.793926 30.788931
1629 3 6.823205 37.954777 21.424885
1630 2 -0.995746 68.190312 21.913481
1631 3 2.967888 57.712900 13.901687
1632 3 4.264778 53.334640 30.205026
1633 2 -3.130763 45.819959 55.446227
1634 3 -13.347491 40.456340 50.739178
1635 3 -8.972083 51.143737 57.704217
1636 2 29.881840 68.209930 -14.593700
1637 3 19.265620 68.012453 -10.894102
1638 3 22.942665 63.993402 -13.422301
1639 2 17.207467 51.677479 15.913534
1640 3 17.720866 40.385043 13.406800
1641 3 21.753051 44.350518 23.339760
1642 2 56.296629 34.415438 -8.829991
1643 3 57.627857 32.463773 -8.645333
1644 3 50.065157 32.837719 -14.037819
1645 2 41.956490 19.243962 64.609108
1646 3 46.656113 7.841318 67.480620
1647 3 47.196693 19.595093 66.708651
1648 2 2.124082 87.149222 -35.862171
1649 3 4.658449 91.715943 -36.616196
1650 3 -0.289918 90.357425 -36.809099
1651 2 17.663185 71.023110 8.940625
1652 3 17.000572 69.285724 5.093606
1653 3 26.399392 75.893939 -3.658902
1654 2 61.728242 12.592161 43.130689
1655 3 64.228558 11.934626 40.465351
1656 3 60.988368 9.363914 49.238454
1657 2 21.541677 -15.519560 -27.658908
1658 3 18.937744 -13.669929 -27.735783
1659 3 27.068655 -11.532512 -33.015822
1660 2 74.572417 12.188668 -15.924288
1661 3 76.677376 13.174197 -4.429015
1662 3 77.476088 13.753137 -20.336817
1663 2 -4.947079 15.814460 -17.561526
1664 3 -0.987178 17.633798 -16.927282
1665 3 -0.271216 20.326831 -13.158322
1666 2 -23.684549 38.691128 61.493516
1667 3 -17.842746 48.648689 57.461030
1668 3 -26.996253 30.187795 55.461869
1669 2 29.509752 103.859430 24.647950
1670 3 29.440386 100.971771 20.576466
1671 3 25.132495 107.218292 17.627620
1672 2 -7.186310 37.216799 12.589969
1673 3 -4.115982 38.495705 -0.349477
1674 3 -9.421475 38.799067 17.082365
1675 2 -13.304359 66.697005 1.195147
1676 3 -8.461123 69.895978 -1.906521
1677 3 -8.518234 71.019966 -1.001923
1678 2 26.576769 42.028700 15.659969
1679 3 25.897612 43.197982 16.586080
1680 3 21.570387 46.478808 2.776441
1681 2 -40.808529 38.215439 33.106425
1682 3 -42.035120 40.955700 25.422385
1683 3 -39.743490 29.707874 37.398113
1684 2 -17.963261 85.066129 83.755857
1685 3 -22.225297 78.679258 87.720814
1686 3 -22.976101 68.929875 79.977285
1687 2 37.396236 88.040642 -19.506979
1688 3 29.880453 90.400134 -13.996258
1689 3 35.754431 96.538035 -19.596207
1690 2 23.635130 7.149351 -17.923270
1691 3 23.121783 11.146614 -18.145470
1692 3 20.871597 5.003417 -27.106233
1693 2 9.676315 -17.835196 28.461699
1694 3 11.760322 -0.937681 23.549888
1695 3 6.324006 -15.878568 24.550511
1696 2 10.181295 44.812335 -6.756621
1697 3 19.679417 43.550138 -5.175574
1698 3 9.334334 45.766272 -11.369213
1699 2 62.957905 46.062269 4.648368
1700 3 57.440043 47.216052 2.519810
1701 3 61.772628 41.469525 5.743305
1702 2 41.411965 44.822172 15.799927
1703 3 42.835207 42.293314 10.258852
1704 3 40.842417 35.861419 9.881366
1705 2 -27.555429 -7.714966 36.121444
1706 3 -31.595763 -9.834969 30.283101
1707 3 -29.547274 -4.651555 33.059810
1708 2 -4.855015 -14.621595 35.927451
1709 3 0.972634 -20.605332 42.323140
1710 3 -1.079322 -17.519859 35.026542
1711 2 19.392431 -3.443989 -25.785966
1712 3 19.227876 -6.820321 -10.480578
1713 3 18.950766 -7.613817 -12.696233
1714 2 46.308347 24.660070 62.335800
1715 3 40.303107 24.867825 64.815763
1716 3 39.657227 24.618361 58.970340
1717 2 1.373059 43.366983 54.796279
1718 3 7.617966 43.326515 58.035742
1719 3 8.110693 54.725866 60.746249
1720 2 -45.825664 47.493264 10.455200
1721 3 -35.311374 43.961796 5.499755
1722 3 -36.318029 41.026894 19.326348
1723 2 49.991481 7.581910 13.950593
1724 3 58.520310 11.221262 6.809814
1725 3 57.597962 17.140223 17.029802
1726 2 10.585391 -36.833853 -4.628805
1727 3 21.831231 -39.433805 -15.986847
1728 3 17.938037 -29.575389 -14.416520
1729 2 21.597722 1.334736 -11.316277
1730 3 14.775954 -7.469105 -7.265068
1731 3 23.761912 -2.905984 -10.403646
1732 2 58.458213 19.073318 26.411198
1733 3 53.160706 24.023530 31.301759
1734 3 51.480846 15.991783 24.133994
1735 2 30.315136 7.923103 13.231927
1736 3 32.521337 11.461389 5.378082
1737 3 25.185770 12.960084 3.085990
1738 2 18.630001 4.398632 -15.195676
1739 3 24.328913 7.949195 -4.426249
1740 3 22.992996 11.285873 -11.754024
1741 2 5.402802 -19.852637 -38.259432
1742 3 6.662329 -19.661979 -42.459963
1743 3 4.732292 -17.557714 -46.345116
1744 2 28.383260 -6.611351 24.350757
1745 3 24.407329 -6.190968 14.154913
1746 3 27.711981 0.052890 20.383458
1747 2 2.352676 -5.645469 33.367967
1748 3 0.073678 -6.787732 31.444236
1749 3 1.297625 -4.899199 24.371469
1750 2 28.306383 11.811180 43.451620
1751 3 29.854762 17.133020 29.897919
1752 3 26.547930 17.581535 42.819715
1753 2 -10.942566 -4.990246 -4.537509
1754 3 -13.531459 -5.158133 -2.698799
1755 3 -8.184531 -0.132412 -11.315511
1756 2 -13.294921 15.652811 -3.691624
1757 3 -7.445313 3.002251 -4.696129
1758 3 -8.049476 10.241527 -8.541530
1759 2 16.846324 -2.707142 1.672493
1760 3 12.282663 1.445216 2.571003
1761 3 13.923751 4.632893 -1.336910
1762 2 61.464577 19.089757 22.946225
1763 3 57.147913 18.165854 18.270507
1764 3 60.631996 12.174160 14.445265
1765 2 12.901653 -18.606383 79.811685
1766 3 13.519498 -15.832731 68.695800
1767 3 17.297727 -21.655644 61.843218
1768 2 18.364697 14.715242 6.788477
1769 3 16.909251 17.723961 4.529561
1770 3 23.677854 10.946579 3.421234
1771 2 27.464387 18.759370 13.156200
1772 3 24.047401 2.823017 24.404187
1773 3 24.949273 17.272461 17.789267
1774 2 11.457647 9.006427 -18.689770
1775 3 18.593619 15.096617 -24.432726
1776 3 14.177318 13.845306 -16.647575
1777 2 61.278816 33.564316 -15.153484
1778 3 59.147915 32.036876 -15.484148
1779 3 55.848478 40.506384 -11.327987
1780 2 1.324888 17.223874 -7.605700
1781 3 9.417266 17.955913 -14.187552
1782 3 7.789311 24.077622 -9.725725
1783 2 -40.968621 53.156640 -11.768524
1784 3 -46.960340 60.311152 -5.295628
1785 3 -41.347544 47.132345 -17.665919
1786 2 41.883741 -7.248703 25.280848
1787 3 39.951474 -1.917494 19.980719
1788 3 40.205113 -2.986046 11.385115
1789 2 5.322935 34.023537 17.739909
1790 3 7.129707 33.254911 15.231397
1791 3 11.011488 38.443036 10.607972
1792 2 64.841250 2.989789 -2.662361
1793 3 62.113381 7.463432 -5.173004
1794 3 69.313558 -2.190084 -9.760361
1795 2 3.616658 49.503542 -25.893996
1796 3 5.362365 37.989777 -28.948462
1797 3 0.476456 45.441765 -29.419918
1798 2 4.476810 7.076886 65.338749
1799 3 7.649895 13.098575 57.472401
1800 3 8.751505 15.872514 53.425809
1801 2 29.142318 58.043198 43.034516
1802 3 28.859098 48.485853 39.382593
1803 3 34.287374 50.298175 43.890577
1804 2 51.460519 -24.972083 24.875344
1805 3 58.371783 -27.117057 22.039514
1806 3 50.789860 -20.842379 22.256729
1807 2 8.646900 9.127341 1.955146
1808 3 13.027253 9.571201 13.654553
1809 3 5.290152 20.976703 1.306720
1810 2 81.047424 4.013260 32.961981
1811 3 88.397946 7.360665 25.456551
1812 3 80.281263 0.799947 36.553893
1813 2 -3.622715 -39.429281 45.832609
1814 3 -10.749739 -33.671575 39.864339
1815 3 -9.633273 -31.519367 45.745455
1816 2 14.832073 -0.153744 19.611437
1817 3 22.606587 -8.129735 22.394329
1818 3 17.540299 -5.630888 19.261175
1819 2 -27.071245 12.676568 48.579831
1820 3 -31.181134 3.067800 49.649826
1821 3 -26.146365 9.006502 37.767600
1822 2 11.210679 30.710872 60.668964
1823 3 11.974221 32.418292 42.297538
1824 3 5.383405 35.187092 52.626344
1825 2 -34.704978 -29.585925 28.290094
1826 3 -28.390401 -22.864092 23.239162
1827 3 -33.181499 -24.684995 32.028688
1828 2 79.979297 -36.346559 22.251470
1829 3 80.598875 -30.225995 25.751080
1830 3 79.400490 -27.049919 16.563813
1831 2 -6.507166 19.939683 10.300866
1832 3 -0.382920 23.121235 6.854172
1833 3 -6.200320 16.690632 -1.863060
1834 2 66.105377 18.057383 38.067319
1835 3 65.983885 27.022311 42.852255
1836 3 68.739762 19.205391 36.848508
1837 2 49.090446 15.810621 -3.266185
1838 3 45.156647 10.794630 -1.651684
1839 3 45.456283 7.137331 -3.499874
1840 2 -25.445382 -11.477361 71.516211
1841 3 -21.842371 -6.360310 77.848422
1842 3 -27.039326 -8.467791 82.388676
1843 2 52.600196 9.733035 13.466071
1844 3 53.971074 15.314016 9.544382
1845 3 53.879113 5.845332 6.684728
1846 2 88.345829 20.319021 -5.446205
1847 3 87.558654 25.640893 11.268955
1848 3 86.583927 27.857228 2.168992
1849 2 0.891315 17.250619 65.918710
1850 3 -2.348513 12.698314 59.650383
1851 3 2.226026 14.583115 61.485660
1852 2 52.323891 36.723758 15.103124
1853 3 61.574650 22.845437 31.003192
1854 3 57.138253 30.100689 22.129528
1855 2 -19.242998 -45.556163 13.137236
1856 3 -14.876821 -52.711527 16.600361
1857 3 -24.361304 -47.441008 27.296185
1858 2 10.202092 65.504476 19.855294
1859 3 12.316761 67.596308 19.511192
1860 3 8.967898 73.464998 14.375637
1861 2 -66.093273 32.743634 35.691895
1862 3 -58.370557 32.182469 36.404880
1863 3 -63.248067 40.971311 32.823254
1864 2 6.824329 -15.921102 7.832674
1865 3 7.804507 -21.165880 22.729755
1866 3 8.011442 -14.299378 5.336996
1867 2 -0.777193 0.429895 -3.689486
1868 3 -3.300933 2.205586 -5.398890
1869 3 -0.066964 9.514452 -0.258501
1870 2 -9.513643 87.664526 18.629788
1871 3 2.038028 81.544718 15.193498
1872 3 3.947249 92.227035 11.269989
1873 2 44.568145 20.745319 -7.047109
1874 3 40.416484 17.093183 -11.383165
1875 3 41.527453 16.770271 5.523132
1876 2 -31.497982 44.245709 53.877607
1877 3 -31.337971 37.135203 55.513972
1878 3 -29.561991 43.234613 57.523542
1879 2 9.311555 48.459335 80.977032
1880 3 9.188435 56.967821 83.871876
1881 3 9.020773 34.876760 79.152908
1882 2 -8.300912 -5.979022 70.787930
1883 3 -11.342039 -4.458951 73.397045
1884 3 -11.902881 -10.659106 78.054846
1885 2 12.998183 36.508732 40.982634
1886 3 13.386522 37.277618 36.276101
1887 3 12.718277 39.886358 37.660963
1888 2 48.718471 9.699586 -12.993292
1889 3 52.009718 10.619073 -10.485885
1890 3 47.917778 4.045665 -11.517122
1891 2 24.677025 -9.122495 30.822038
1892 3 29.132548 -11.747750 27.703722
1893 3 22.910937 -14.552055 36.542912
1894 2 91.608001 -0.387913 -32.618782
1895 3 96.792086 -10.129203 -22.441868
1896 3 90.460932 -9.726779 -26.433206
1897 2 -48.039202 9.931971 53.418488
1898 3 -53.337744 9.373736 41.950586
1899 3 -47.212229 4.321620 37.670605
1900 2 -3.977082 -9.123836 -28.080267
1901 3 -1.241794 -3.815629 -32.023668
1902 3 -1.298506 7.391940 -28.072873
1903 2 -4.466266 2.868556 1.154622
1904 3 1.460364 6.420092 -2.975224
1905 3 7.608371 4.785193 3.897893
1906 2 91.450172 -5.580280 38.693937
1907 3 85.896074 -4.286219 37.441654
1908 3 90.649235 -7.912792 34.365212
1909 2 49.078204 -26.748692 -14.463334
1910 3 46.319067 -22.479283 -20.971049
1911 3 49.703991 -32.445254 -24.448308
1912 2 22.307966 50.177390 4.494308
1913 3 19.916928 46.342211 -2.309297
1914 3 29.071611 48.470265 2.010939
1915 2 70.107063 31.244376 -7.762584
1916 3 71.439998 35.498103 -4.504162
1917 3 72.527148 37.822002 -3.001682
1918 2 12.484687 -12.877056 21.860133
1919 3 6.811520 -11.149813 22.257582
1920 3 14.349713 -8.566888 22.318768
1921 2 69.293228 59.532624 49.820522
1922 3 72.997592 61.438869 43.232835
1923 3 71.836047 62.946860 58.601144
1924 2 10.828110 30.691354 50.885477
1925 3 6.722038 28.699808 45.042453
1926 3 5.792994 25.011392 54.283164
1927 2 -40.076793 8.360361 24.980194
1928 3 -31.974783 13.632404 17.796408
1929 3 -36.891110 13.687545 16.959741
1930 2 -12.555315 23.941287 22.332936
1931 3 -11.741342 23.605849 28.635122
1932 3 -16.462375 22.009205 24.801575
1933 2 -13.105321 7.827710 -28.778992
1934 3 -12.436002 17.474278 -26.361309
1935 3 -11.243086 21.686960 -18.745278
1936 2 9.021851 27.293110 -19.998828
1937 3 6.754300 32.386245 -22.106181
1938 3 3.212908 33.133315 -20.185596
1939 2 56.991073 -14.111393 14.364902
1940 3 48.686521 -11.481945 -5.506332
1941 3 50.010224 -13.327772 0.744415
1942 2 77.109298 36.123366 -17.274452
1943 3 76.474591 39.115422 -17.253841
1944 3 82.086179 38.229138 -17.430009
1945 2 32.857490 69.825062 64.718388
1946 3 27.803627 72.938610 57.388644
1947 3 16.948475 78.329392 54.088074
1948 2 -7.964355 46.415748 16.192040
1949 3 -6.981018 40.544032 23.835385
1950 3 -16.853790 42.341485 18.996103
1951 2 7.918157 33.215533 62.461572
1952 3 7.955549 32.858198 58.721647
1953 3 12.397662 32.083861 66.093738
1954 2 -10.682250 30.554536 30.402155
1955 3 -13.021414 26.805170 36.200297
1956 3 -8.214922 26.808468 24.946548
1957 2 74.255513 39.559431 40.996300
1958 3 69.839761 42.199805 39.833299
1959 3 73.049296 34.653190 44.979932
1960 2 -26.393360 48.886830 2.863263
1961 3 -19.675197 50.869115 14.674490
1962 3 -25.246328 47.447687 8.317030
1963 2 29.006350 45.620976 -22.115443
1964 3 35.525809 52.746333 -10.527337
1965 3 29.967543 46.668130 -15.652379
1966 2 42.812213 -24.477590 26.024077
1967 3 37.844308 -35.451689 29.096735
1968 3 45.738754 -36.939736 31.699686
1969 2 -32.483053 -8.541225 31.689938
1970 3 -47.920326 0.038847 28.162866
1971 3 -42.148764 3.025884 28.788003
1972 2 28.873178 15.361576 35.742635
1973 3 29.479839 25.386766 21.652520
1974 3 25.476351 18.754970 27.694022
1975 2 10.783256 3.444536 75.908168
1976 3 11.214310 8.402655 68.807525
1977 3 11.329811 0.811091 72.814958
1978 2 -41.522875 -24.432148 15.430312
1979 3 -46.259620 -30.570232 7.396625
1980 3 -43.515331 -25.000857 2.861909
1981 2 1.087614 19.201282 82.646880
1982 3 1.243984 18.535707 83.709257
1983 3 0.101930 24.020522 81.987979
1984 2 5.461123 70.133249 30.468911
1985 3 5.895112 72.324574 25.339576
1986 3 2.208233 63.332046 24.542312
1987 2 23.156509 10.459041 24.314695
1988 3 24.669506 11.731843 38.119408
1989 3 23.342958 6.929585 31.843281
1990 2 16.801961 52.747431 45.544160
1991 3 20.346089 59.140704 38.716063
1992 3 13.814115 56.446394 39.806318
1993 2 41.728144 24.399397 45.407477
1994 3 44.556940 24.230179 46.127136
1995 3 49.120843 24.426031 28.885515
1996 2 23.937506 47.367829 39.117729
1997 3 20.380026 51.739783 42.122039
1998 3 24.030678 43.591452 43.047850
1999 2 88.665623 -7.341514 17.252872
2000 3 93.678185 -7.629896 16.952300
2001 3 89.676838 -7.018473 13.329483
2002 2 23.425234 14.947746 77.970305
2003 3 21.730037 26.015889 80.196907
2004 3 22.464515 25.939586 84.258625
2005 2 18.259942 24.792918 51.466328
2006 3 21.117194 18.030732 44.201189
2007 3 24.550366 16.146371 46.073146
2008 2 53.535467 17.040358 -8.573841
2009 3 49.036635 12.468498 -10.694867
2010 3 49.730767 14.261290 -1.255424
2011 2 71.860001 6.631275 30.520383
2012 3 78.230910 6.595170 27.563208
2013 3 76.821229 4.412569 22.375432
2014 2 -16.883857 19.388092 35.744699
2015 3 -23.767411 17.106124 25.427206
2016 3 -25.293644 20.057944 40.367520
2017 2 16.469131 15.715160 22.641678
2018 3 22.400890 21.854780 24.535940
2019 3 23.185658 7.150726 29.471628
2020 2 -19.140361 -11.833800 24.538231
2021 3 -14.567032 3.600922 33.144620
2022 3 -17.636750 -4.726695 17.707714
2023 2 23.482439 48.761619 36.821631
2024 3 23.066711 45.676656 36.569499
2025 3 19.589120 47.165169 30.143069
2026 2 -19.265270 56.606514 25.875974
2027 3 -16.907636 53.552935 21.612506
2028 3 -15.972100 61.342805 33.106583
2029 2 9.785539 76.894115 62.521918
2030 3 14.734623 82.153277 62.909806
2031 3 8.345279 74.800907 62.240119
2032 2 -14.785227 17.573259 35.286943
2033 3 -22.604135 21.230847 38.806165
2034 3 -16.562369 19.626002 33.493254
2035 2 1.993203 55.977867 25.264111
2036 3 -0.274602 54.531863 30.854854
2037 3 2.947912 46.538914 34.342959
2038 2 -48.605228 35.299925 2.414921
2039 3 -56.474921 32.713912 5.148404
2040 3 -46.949833 28.470104 3.723948
2041 2 26.678208 49.867786 8.770300
2042 3 23.024349 51.850888 13.524034
2043 3 30.669333 51.484833 9.583925
2044 2 36.488490 12.643048 35.722245
2045 3 30.233428 3.528967 31.366389
2046 3 35.095163 14.601990 34.414370
2047 2 13.740069 62.936731 -0.973392
2048 3 14.915824 61.467157 4.357019
2049 3 19.710770 58.227618 8.142394
2050 2 76.599438 4.150542 -8.888649
2051 3 69.962381 4.431592 -0.753660
2052 3 70.482076 7.496508 1.707812
2053 2 -18.469824 63.791192 31.448961
2054 3 -23.267991 48.889896 33.252783
2055 3 -18.901392 56.931688 24.975419
2056 2 -60.647477 10.139663 39.402578
2057 3 -57.634784 0.148477 35.978611
2058 3 -57.098949 2.340920 25.868247
2059 2 -14.404032 53.152550 20.517188
2060 3 -15.356490 58.131709 7.152109
2061 3 -21.526019 54.938061 -4.115926
2062 2 -43.822344 23.755117 -0.239122
2063 3 -36.138501 26.199641 8.094160
2064 3 -41.442466 28.953571 2.976477
2065 2 15.746748 66.757081 -14.594076
2066 3 22.336722 66.555620 -21.659358
2067 3 15.857257 63.548855 -17.162941
2068 2 -13.947423 -4.139093 16.886310
2069 3 -15.498910 6.710671 13.849967
2070 3 -6.557405 -6.348363 14.832783
2071 2 25.864959 61.127033 37.649820
2072 3 17.424041 70.952478 37.444017
2073 3 29.000541 59.250148 32.461801
2074 2 24.124247 50.136006 8.438656
2075 3 34.851656 52.306458 18.127232
2076 3 31.802876 52.506139 12.685933
2077 2 24.707996 78.921530 36.218414
2078 3 21.374050 79.079697 38.942559
2079 3 17.946190 70.261820 49.047723
2080 2 4.972224 61.238131 75.094978
2081 3 -1.274679 57.212835 72.777215
2082 3 8.106755 60.240319 73.218078
2083 2 43.192434 74.299945 -27.802029
2084 3 53.628882 65.248610 -17.258604
2085 3 46.901762 71.080164 -22.193826
2086 2 -16.122660 42.506998 -18.559538
2087 3 -14.708031 38.000428 -8.069005
2088 3 -13.869195 42.287357 -17.819921
2089 2 18.051062 -15.462240 9.421388
2090 3 20.074152 -7.334068 8.669970
2091 3 22.199466 -5.583084 23.209918
2092 2 31.818467 49.263820 -0.350879
2093 3 28.624993 42.165613 -7.248888
2094 3 31.684088 48.353253 -2.884373
2095 2 48.296289 43.183266 42.341209
2096 3 41.379070 51.364638 35.176730
2097 3 43.974197 43.920180 37.645314
2098 2 -27.092771 19.299395 5.118228
2099 3 -26.331510 16.692101 -1.639227
2100 3 -24.624864 13.715818 -4.065758
2101 2 -3.668735 44.695488 3.167503
2102 3 -5.309144 50.117267 -5.377346
2103 3 -2.436626 37.780492 -4.687909
2104 2 51.323852 57.059769 17.156692
2105 3 55.054921 55.481234 27.085200
2106 3 53.812718 46.323023 15.989942
2107 2 20.019493 4.917394 12.542841
2108 3 31.412989 20.931727 12.121024
2109 3 24.633099 5.025896 6.904002
2110 2 -72.943716 49.645235 -8.737174
2111 3 -70.485549 55.706561 0.876074
2112 3 -71.084372 51.083843 -0.055322
2113 2 38.215897 37.178414 24.236630
2114 3 37.055866 37.355086 29.840151
2115 3 40.797324 34.296393 28.979365
2116 2 27.371421 11.753727 -9.451350
2117 3 39.372481 16.152048 -6.056722
2118 3 34.356500 11.815446 -8.367634
2119 2 12.415805 25.910294 45.652820
2120 3 15.137902 22.693345 48.785738
2121 3 12.380888 30.025799 49.221540
2122 2 76.636260 74.272030 -9.163752
2123 3 83.567013 80.697938 -1.446898
2124 3 86.688734 74.310778 -3.050581
2125 2 9.916701 92.616553 -14.387285
2126 3 13.369049 90.564507 -16.508910
2127 3 2.510835 82.540705 -19.957357
2128 2 70.394790 34.799620 -5.120565
2129 3 71.733496 32.288088 -19.324450
2130 3 68.309818 34.134162 -24.823838
2131 2 67.261341 74.443025 31.984267
2132 3 68.628287 74.695249 32.645729
2133 3 68.071296 68.782204 40.437925
2134 2 -10.186693 -1.687541 19.730058
2135 3 -8.650387 -4.036474 17.465064
2136 3 -12.604751 6.536883 14.413246
2137 2 -62.708774 81.450223 -0.553099
2138 3 -60.052777 83.355023 -3.821116
2139 3 -64.920463 75.243287 -6.728731
2140 2 28.360302 87.111333 7.125387
2141 3 28.919573 81.866106 6.517621
2142 3 31.819005 80.677982 -6.782569
2143 2 29.713552 73.748866 92.761100
2144 3 31.145328 72.646015 95.342298
2145 3 31.716839 73.416546 98.348582
2146 2 -14.879844 48.716838 -18.177050
2147 3 -12.836920 47.514375 -10.526038
2148 3 -11.206776 56.301437 -20.551572
2149 2 38.078983 31.708378 18.129614
2150 3 43.995949 30.266945 9.181376
2151 3 32.110404 28.760197 18.424521
2152 2 49.595761 74.893782 54.918166
2153 3 52.183453 92.420061 57.012882
2154 3 53.229486 87.883741 61.801046
2155 2 2.718148 83.810270 22.837222
2156 3 11.359504 86.948358 17.858349
2157 3 9.960438 81.954591 18.911652
2158 2 36.420766 105.919701 29.049621
2159 3 26.228974 111.649101 22.501919
2160 3 38.832192 112.311156 31.259902
2161 2 37.757485 96.944179 -17.050655
2162 3 37.079643 103.775776 -23.326997
2163 3 42.560126 96.677975 -17.282983
2164 2 47.556873 45.511230 55.376954
2165 3 47.606901 49.270052 48.656698
2166 3 50.672700 58.973962 32.894115
2167 2 81.192003 13.789096 -16.130362
2168 3 78.625819 1.565515 -14.138650
2169 3 73.364758 8.616761 -23.779484
2170 2 7.717960 21.589056 -19.081662
2171 3 8.461332 16.471150 -17.715427
2172 3 12.980601 25.418321 -20.994174
2173 2 -0.432084 -20.225225 -0.228067
2174 3 -6.326760 -18.376662 -18.472674
2175 3 -3.769510 -22.627924 -5.957957
2176 2 -16.579645 -10.169916 44.261604
2177 3 -18.973407 -6.209354 47.494102
2178 3 -16.339426 -16.330203 58.214262
2179 2 0.208530 41.175525 -8.995413
2180 3 -1.280643 39.113395 -9.130341
2181 3 -1.669231 29.829502 -2.154411
2182 2 30.714975 13.702828 18.672122
2183 3 26.420774 8.448466 12.937897
2184 3 27.228610 13.388333 23.484987
2185 2 -48.700322 -13.509721 10.100554
2186 3 -37.923402 -17.396381 -9.245002
2187 3 -37.480221 -22.486133 7.010266
2188 2 5.971886 -14.750835 7.062177
2189 3 7.412600 -15.329210 8.054780
2190 3 8.772405 -27.702221 14.728437
2191 2 53.980980 2.504265 -3.447224
2192 3 54.939524 -1.970221 8.968197
2193 3 55.365773 3.250470 6.745692
2194 2 74.784224 1.937985 34.020932
2195 3 68.837389 -3.915320 27.585932
2196 3 69.440399 -9.617320 43.739104
2197 2 61.271177 -30.542202 22.596721
2198 3 60.055482 -30.470583 20.582385
2199 3 61.470108 -37.225017 23.206015
2200 2 24.224578 -23.192455 18.744067
2201 3 24.788719 -35.500091 4.791508
2202 3 22.135186 -20.670631 18.139010
2203 2 29.790015 34.787476 12.732524
2204 3 36.758315 37.876437 12.052340
2205 3 26.855182 32.310517 2.787378
2206 2 97.487476 -9.185473 41.206568
2207 3 103.646602 5.599204 53.399379
2208 3 95.585172 5.988254 50.978603
2209 2 93.249246 8.573962 21.464588
2210 3 102.373934 5.770024 24.283506
2211 3 98.927057 7.408902 26.957577
2212 2 -21.664744 28.968857 22.537129
2213 3 -17.860393 32.424474 22.729812
2214 3 -16.442365 29.521962 38.830306
2215 2 3.667789 15.160324 -12.695657
2216 3 11.763066 20.416217 -16.755372
2217 3 12.491819 16.235011 -5.944372
2218 2 -28.915923 -25.900224 3.179157
2219 3 -23.404914 -29.298359 7.450941
2220 3 -23.755564 -23.304671 0.844324
2221 2 38.219670 -0.074182 9.876034
2222 3 39.100815 0.808987 5.131562
2223 3 34.298735 1.265209 15.206763
2224 2 -7.617582 -1.773365 59.252185
2225 3 -9.460777 2.706478 76.479636
2226 3 -10.268628 -5.274418 70.312628
2227 2 29.101796 -39.483253 39.436885
2228 3 34.311864 -37.017084 47.741486
2229 3 28.447813 -45.473330 36.634033
2230 2 21.462776 36.731463 33.421714
2231 3 25.662755 34.527442 15.160884
2232 3 25.550650 44.480839 27.404580
2233 2 -25.729316 -11.669801 51.987294
2234 3 -22.301839 -7.572939 64.957693
2235 3 -33.642539 -14.906208 63.686000
2236 2 42.440483 -3.807261 7.609792
2237 3 49.851082 -5.319690 6.943896
2238 3 51.436744 -1.110286 12.086418
2239 2 23.914281 -6.480186 21.978606
2240 3 27.891354 -22.933697 19.916091
2241 3 28.747163 -24.670236 18.400504
2242 2 57.059650 7.779204 -23.168437
2243 3 60.832837 8.938235 -23.085575
2244 3 64.559867 8.905003 -20.827319
2245 2 74.690116 -13.437999 22.893249
2246 3 73.373687 -12.135832 27.649373
2247 3 76.980075 -6.154060 32.948526
2248 2 -7.496832 -18.573173 -7.249289
2249 3 -3.407088 -3.222997 -13.078029
2250 3 -14.349953 -13.489598 -6.369626
2251 2 -41.033790 -8.919717 22.291271
2252 3 -35.446242 -13.872876 24.758157
2253 3 -42.311400 -11.677493 24.472975
2254 2 10.669572 30.417031 15.102859
2255 3 6.296572 25.278791 10.056539
2256 3 12.566480 31.940487 6.063002
2257 2 -17.579734 46.434366 10.768032
2258 3 -16.996854 44.305485 7.159508
2259 3 -8.508430 47.539075 17.718302
2260 2 26.121270 25.139836 27.940848
2261 3 24.217740 29.049336 20.815167
2262 3 26.867201 23.461117 27.873334
2263 2 -14.774146 42.412120 28.515393
2264 3 -10.412924 39.872704 22.605694
2265 3 -17.707928 36.460304 21.297653
2266 2 -3.862351 33.409889 -6.529340
2267 3 -2.970211 30.185887 0.975768
2268 3 -5.771305 30.740034 -2.418817
2269 2 23.882020 22.564219 44.708482
2270 3 24.734036 26.785468 36.196235
2271 3 20.991823 17.724577 53.404523
2272 2 31.728870 29.657017 5.895879
2273 3 32.687264 30.731279 16.845264
2274 3 28.316480 27.778274 9.937888
2275 2 14.674101 14.701925 20.706067
2276 3 14.456540 16.033853 22.850036
2277 3 7.263254 0.741638 24.698350
2278 2 -9.497432 38.822769 -28.187850
2279 3 -7.624028 42.662949 -30.421689
2280 3 -6.839901 34.747596 -35.777768
2281 2 26.622252 -0.951695 -2.213692
2282 3 23.068242 3.252825 4.090223
2283 3 21.712187 -4.490487 -8.883918
2284 2 35.316687 30.620880 -7.460398
2285 3 34.807456 27.594615 -11.718829
2286 3 40.017781 31.095274 -4.440252
2287 2 71.657006 46.654668 0.077858
2288 3 77.282861 40.032210 -3.272680
2289 3 71.485237 42.654176 6.616091
2290 2 -47.229225 70.487132 -32.635158
2291 3 -38.634463 71.020905 -34.060913
2292 3 -39.730691 67.840249 -39.829420
2293 2 18.955546 -16.808621 52.567922
2294 3 19.439400 -16.143031 44.111405
2295 3 13.176113 -13.647297 47.478807
2296 2 -10.615041 -8.017645 63.467975
2297 3 -6.015606 -10.693053 60.088611
2298 3 -9.277385 -6.386431 57.788142
2299 2 -59.907963 -35.571000 30.556522
2300 3 -59.925169 -33.364262 40.061614
2301 3 -52.006926 -37.972327 36.051103
2302 2 15.817828 6.937982 -25.044128
2303 3 13.686452 11.084392 -18.686820
2304 3 16.484849 9.546364 -25.216597
2305 2 13.653684 27.471532 67.447094
2306 3 13.107357 33.615526 71.248305
2307 3 19.912520 31.407224 76.841249
2308 2 51.648946 75.332749 13.698606
2309 3 54.943040 84.901824 31.708490
2310 3 55.696555 68.763103 27.440101
2311 2 14.352672 4.747648 14.869006
2312 3 18.532878 7.275059 16.319833
2313 3 20.343647 6.882259 26.042985
2314 2 24.957529 -25.864449 41.534608
2315 3 16.422657 -29.961809 38.455335
2316 3 21.778106 -26.828845 40.188472
2317 2 36.052568 23.058633 -50.771218
2318 3 43.764878 23.683326 -49.062653
2319 3 39.002295 19.360905 -55.965018
2320 2 8.511813 1.202651 -32.202521
2321 3 12.476196 -3.996889 -29.676512
2322 3 12.243132 5.181995 -28.196937
2323 2 19.384930 25.663442 35.023913
2324 3 14.762268 23.347130 28.617901
2325 3 15.964876 25.717806 28.588146
2326 2 49.495197 43.221630 4.327488
2327 3 52.569269 40.720261 8.711203
2328 3 54.402041 47.787328 12.126846
2329 2 -30.224235 78.887864 -20.363139
2330 3 -37.014399 71.321338 -14.738465
2331 3 -32.028113 78.614297 -14.995424
2332 2 8.493559 49.436444 61.747665
2333 3 2.210464 53.031060 68.744241
2334 3 -1.471166 44.491925 58.287894
2335 2 36.411977 -47.350132 6.716651
2336 3 33.143026 -38.140745 11.750795
2337 3 27.979676 -39.270374 10.831059
2338 2 63.790948 66.586044 34.411505
2339 3 72.624455 55.945367 37.755945
2340 3 70.292919 56.318674 25.171360
2341 2 22.149925 35.841674 45.341867
2342 3 21.141882 26.661971 42.075515
2343 3 17.204345 33.780718 45.727792
2344 2 2.462655 63.593886 16.222649
2345 3 0.696944 66.370272 22.301071
2346 3 3.563548 55.421633 36.045911
2347 2 -9.181246 56.748522 -12.455030
2348 3 -14.263187 51.544168 -16.142270
2349 3 -16.418239 49.822249 -14.196450
2350 2 40.340911 12.726246 16.066905
2351 3 47.459459 9.954885 19.675672
2352 3 43.957378 8.047077 20.096599
2353 2 15.444964 92.698915 44.885339
2354 3 9.950283 83.752767 44.307471
2355 3 12.179231 93.747326 45.176784
2356 2 4.887562 -20.790779 61.780445
2357 3 3.016216 -24.983630 62.969903
2358 3 4.358013 -24.329914 58.378865
2359 2 -12.271347 14.505882 25.441990
2360 3 -11.192630 4.455987 37.451747
2361 3 -14.272353 7.930708 21.761633
2362 2 -0.894182 30.542867 17.702141
2363 3 -4.716004 22.845696 13.422079
2364 3 -8.193285 32.236146 10.115035
2365 2 31.561475 3.033701 -6.005567
2366 3 26.722710 6.110207 -9.919131
2367 3 30.168554 -5.276866 -3.432163
2368 2 59.177948 34.139717 65.004625
2369 3 48.220264 33.352306 76.222687
2370 3 57.233939 43.589923 73.789634
2371 2 -15.217010 10.629221 47.022450
2372 3 -12.798770 9.708043 56.695584
2373 3 -15.159707 11.717831 51.388820
2374 2 -10.232108 9.910699 16.862151
2375 3 -3.289705 -0.508371 24.120254
2376 3 -3.310189 1.924746 26.012957
2377 2 39.387089 78.775086 91.106774
2378 3 44.780743 71.829496 80.261063
2379 3 36.597395 80.641363 82.806562
2380 2 51.336174 44.821484 -13.902531
2381 3 52.730824 41.965388 -11.255075
2382 3 49.803859 47.215809 -16.816770
2383 2 30.321972 41.213887 6.938699
2384 3 32.985150 45.858479 16.176697
2385 3 27.625080 44.431731 19.536940
2386 2 -34.863238 13.451128 100.870886
2387 3 -36.078194 24.969260 93.336365
2388 3 -32.960531 17.703446 96.959803
2389 2 -42.463264 -2.226314 48.513188
2390 3 -33.300683 -3.086297 34.747647
2391 3 -36.952557 7.806974 46.629029
2392 2 -49.148938 25.234590 32.237370
2393 3 -42.810710 24.022789 21.690590
2394 3 -46.627926 14.774937 16.345422
2395 2 28.245534 37.377377 29.215461
2396 3 24.001322 32.745190 28.602764
2397 3 17.180968 30.879514 17.046688
2398 2 1.343246 20.685186 9.540802
2399 3 7.483188 15.825508 9.917275
2400 3 4.360184 15.699387 16.376527
2401 2 34.241984 77.751762 8.747874
2402 3 34.119694 78.000249 7.025964
2403 3 39.584491 75.638123 16.768814
2404 2 0.608106 51.416095 14.179933
2405 3 6.834876 57.179906 10.693541
2406 3 6.887188 52.786404 5.861082
2407 2 81.368259 85.632906 11.269891
2408 3 82.519636 92.616645 6.913911
2409 3 73.221663 77.968309 1.150339
2410 2 63.593990 7.813740 9.329852
2411 3 64.979488 -3.982529 14.115469
2412 3 71.471131 -4.290377 15.423448
2413 2 41.410142 33.326341 -2.141668
2414 3 44.889900 38.305059 6.441125
2415 3 39.047803 31.140979 3.672601
2416 2 -31.322004 74.870721 6.612682
2417 3 -34.986077 62.043718 22.815549
2418 3 -38.440213 68.035442 23.580330
2419 2 -10.167734 61.537051 49.953915
2420 3 -8.648927 61.821527 46.003099
2421 3 -5.863320 60.638953 42.112553
2422 2 26.486204 40.539298 53.924003
2423 3 35.893332 43.987181 50.746132
2424 3 28.323348 47.445310 50.035773
2425 2 -0.539707 93.861130 2.635918
2426 3 -2.228234 90.742382 -13.942308
2427 3 0.233339 87.708975 -0.386164
2428 2 -8.193298 9.506663 48.638118
2429 3 -7.334643 14.305569 55.031192
2430 3 -12.469239 12.331774 50.292264
2431 2 -7.043272 7.114173 57.516605
2432 3 -9.562435 -3.607219 58.563525
2433 3 2.924205 9.625771 58.062926
2434 2 14.111372 80.794896 -9.959130
2435 3 20.576800 90.592673 -8.324395
2436 3 8.500330 93.297743 -5.953272
2437 2 25.384292 32.666579 59.662962
2438 3 23.600760 25.948284 57.282561
2439 3 29.855138 36.505183 56.698257
2440 2 72.183166 45.683861 52.001318
2441 3 75.535706 44.209736 39.649319
2442 3 71.668770 43.609653 58.797825
2443 2 91.269140 25.616278 -32.133174
2444 3 85.546965 20.668877 -34.276757
2445 3 85.935397 24.332109 -30.058071
2446 2 71.280036 22.483956 28.918832
2447 3 73.865712 20.590904 24.030265
2448 3 66.706794 19.923018 27.565675
2449 2 -4.650479 -8.828102 -29.144683
2450 3 0.748027 -8.578187 -29.407813
2451 3 -0.670851 -11.974577 -24.586600
2452 2 29.355139 56.986367 50.347333
2453 3 20.292745 60.915435 47.867156
2454 3 27.653746 64.663626 54.754437
2455 2 72.926963 20.610321 47.939990
2456 3 68.534145 25.490682 41.038831
2457 3 74.536600 13.673186 43.717324
2458 2 64.204182 26.448545 61.752135
2459 3 67.095168 23.017777 66.787034
2460 3 60.088902 19.973353 76.173453
2461 2 88.040160 53.871286 78.289760
2462 3 91.719858 59.868263 74.519874
2463 3 79.843764 56.901242 69.870857
2464 2 -9.488145 70.781769 19.097872
2465 3 -4.528282 73.607306 16.676029
2466 3 -12.600095 61.998888 28.927968
2467 2 -51.213780 35.482413 28.042163
2468 3 -40.756782 48.420163 24.403969
2469 3 -43.522350 38.541343 23.575391
2470 2 3.800150 52.508755 1.904968
2471 3 -1.778187 55.688734 -1.530392
2472 3 -0.163461 59.281917 -0.212215
2473 2 32.251335 46.385123 16.085560
2474 3 35.677797 43.110249 13.778801
2475 3 34.562072 56.180091 0.358216
2476 2 -2.899638 -20.244276 -12.327293
2477 3 -3.130890 -8.408925 -25.359588
2478 3 4.157066 -18.225543 -17.005354
2479 2 9.022222 40.224991 19.769359
2480 3 7.285419 47.238651 10.344262
2481 3 1.421497 37.975955 10.077197
2482 2 32.479609 30.108298 8.208170
2483 3 32.940224 25.158121 -4.716248
2484 3 37.822150 35.621459 -2.072162
2485 2 53.475795 112.614474 -28.657483
2486 3 45.820139 103.183804 -35.204611
2487 3 42.905377 109.551320 -36.801253
2488 2 -7.117006 37.746522 5.169908
2489 3 -14.656753 46.517907 3.260629
2490 3 -2.305716 49.156906 0.763379
2491 2 45.132132 55.503725 -20.183040
2492 3 49.368076 60.366602 -19.264131
2493 3 43.977104 55.425639 -13.783266
2494 2 17.000540 80.257154 38.786527
2495 3 15.797003 81.374171 35.964608
2496 3 9.335705 84.579546 35.010456
2497 2 24.687486 29.923835 5.230582
2498 3 28.705677 29.907640 7.303922
2499 3 27.292844 29.748549 2.954397
2500 2 -9.549675 16.434455 43.585226
2501 3 -3.881405 14.049902 53.437046
2502 3 -10.427443 14.231230 65.500234
2503 2 -4.210549 23.177301 19.734438
2504 3 -2.774106 27.303724 12.311220
2505 3 -4.335939 29.798411 18.842112
2506 2 17.587183 49.445565 55.016535
2507 3 23.672707 64.935638 65.700933
2508 3 18.601648 57.522500 53.956515
2509 2 -19.613793 61.503586 1.904838
2510 3 -23.509123 59.730569 -4.222090
2511 3 -29.984505 55.202669 -10.130563
2512 2 -16.269305 70.507187 34.500341
2513 3 -15.938301 92.060548 36.550643
2514 3 -12.092796 78.807357 31.973513
2515 2 3.749019 46.375466 14.845027
2516 3 9.167745 47.227746 14.378765
2517 3 0.899203 44.731041 9.839697
2518 2 37.516518 27.287682 27.370851
2519 3 42.427848 29.543165 30.801033
2520 3 42.435480 31.154066 35.477860
2521 2 -19.686974 91.147553 66.385123
2522 3 -13.105783 93.733361 59.665121
2523 3 -17.171671 96.105328 57.345691
2524 2 30.783898 63.197286 26.412089
2525 3 36.504973 62.078787 27.591663
2526 3 32.997933 57.367854 25.268290
2527 2 16.111918 84.261678 28.680180
2528 3 22.634683 83.483754 19.430666
2529 3 25.061711 89.666116 27.047179
2530 2 72.022594 69.167385 36.412257
2531 3 71.456526 67.975339 25.940939
2532 3 77.826953 66.759057 33.215425
2533 2 52.637702 25.140445 -4.738044
2534 3 54.684471 25.835287 -4.195434
2535 3 50.783925 25.680160 -0.536924
2536 2 52.454039 96.225290 -1.958714
2537 3 54.928339 92.196360 2.675315
2538 3 59.833171 93.361533 6.316970
2539 2 10.616630 69.122263 43.749329
2540 3 17.931335 79.094760 45.220194
2541 3 14.254354 65.336069 42.838568
2542 2 1.362226 -5.371125 11.125415
2543 3 5.340901 -3.428962 -0.272739
2544 3 10.019388 -9.869069 13.762791
2545 2 12.661757 17.372572 10.289695
2546 3 13.655731 15.728859 10.852944
2547 3 9.026689 16.105477 9.126567
2548 2 -3.806048 -31.389906 72.304127
2549 3 -4.879112 -29.018821 69.365861
2550 3 -4.602669 -31.034114 69.128922
2551 2 9.273478 13.959051 6.921131
2552 3 10.801082 9.669573 7.802331
2553 3 10.115378 10.163027 11.872800
2554 2 21.667439 -8.305105 16.341452
2555 3 16.554640 -11.622419 -1.762540
2556 3 19.218411 -21.228085 9.982374
2557 2 -27.480880 -30.435951 39.720790
2558 3 -30.572069 -26.116194 52.064360
2559 3 -33.378806 -19.479060 54.559984
2560 2 90.364673 17.300365 17.833656
2561 3 87.329363 15.786396 15.189145
2562 3 83.730241 18.211903 15.136240
2563 2 59.019925 -16.768820 -13.854976
2564 3 57.568952 -13.239484 -0.284423
2565 3 49.290785 -14.318996 -16.587660
2566 2 25.218404 11.443024 34.798872
2567 3 19.854782 18.408447 34.091957
2568 3 27.882095 9.823290 37.975407
2569 2 64.568602 8.744270 76.564487
2570 3 61.211098 5.774491 72.367887
2571 3 59.123403 3.592915 69.277860
2572 2 52.065301 42.472519 19.285330
2573 3 58.750171 46.380537 11.412126
2574 3 61.155481 34.799488 12.950890
2575 2 73.157856 72.374052 29.478943
2576 3 73.386635 61.411916 27.635137
2577 3 75.174783 72.001498 28.249170
2578 2 70.419807 -13.175159 26.105825
2579 3 72.451700 -19.033111 20.662680
2580 3 78.096572 -20.558655 12.444968
2581 2 29.643051 33.532217 76.235257
2582 3 29.716669 39.257655 82.347575
2583 3 26.257302 39.762718 78.468331
2584 2 8.947119 -1.031370 -17.710549
2585 3 2.916782 6.332766 -9.484427
2586 3 9.294823 -13.288898 -13.862103
2587 2 -49.384435 20.632857 76.516102
2588 3 -50.880631 11.990165 80.872517
2589 3 -47.161936 13.764233 77.496036
2590 2 8.560041 10.323040 9.990291
2591 3 6.301227 9.033503 8.228087
2592 3 9.469409 8.644050 14.119327
2593 2 -52.141209 27.555268 12.718950
2594 3 -54.829646 18.918734 12.413589
2595 3 -52.472699 24.074274 9.641236
2596 2 15.246532 -1.458300 45.913172
2597 3 16.418144 -5.511686 47.454126
2598 3 13.698634 -9.697886 57.975141
2599 2 23.318080 27.887082 42.781555
2600 3 11.791339 37.992987 27.861969
2601 3 13.575751 37.205033 36.856871
2602 2 9.350848 0.019801 -12.289186
2603 3 8.837855 -0.255130 -1.943312
2604 3 8.920834 -2.158533 -7.199493
2605 2 37.524203 -9.838903 38.804818
2606 3 34.364204 -9.658024 52.498767
2607 3 44.230463 -6.449844 39.588802
2608 2 26.343177 14.683251 59.077065
2609 3 27.619824 23.750358 59.102362
2610 3 29.481901 13.772359 54.647382
2611 2 6.438885 25.560755 17.526484
2612 3 -0.828574 18.025102 8.535164
2613 3 8.670399 17.473616 12.548897
2614 2 34.796699 49.198198 14.024160
2615 3 29.640537 34.231806 11.600217
2616 3 33.358383 36.574131 1.687828
2617 2 22.321389 16.925110 5.159846
2618 3 22.495103 7.212347 -4.320143
2619 3 19.235863 9.863370 -11.940665
2620 2 -25.491130 3.999031 39.929739
2621 3 -25.318852 -0.173029 38.829231
2622 3 -22.228714 -9.120543 43.073592
2623 2 -19.680925 5.666232 39.864448
2624 3 -21.170451 3.250622 47.521897
2625 3 -18.420678 -5.245796 38.037960
2626 2 -2.101077 -32.141226 5.047802
2627 3 -12.028459 -30.817674 17.240860
2628 3 -4.062176 -33.059374 5.907301
2629 2 8.423840 36.036912 5.823380
2630 3 4.509313 38.476096 13.262422
2631 3 8.455793 45.507132 20.667151
2632 2 74.939324 35.081272 9.262740
2633 3 75.448425 34.817075 11.360072
2634 3 75.958137 38.828647 15.859846
2635 2 42.025992 -14.096728 25.741305
2636 3 43.793486 -10.993988 26.205916
2637 3 44.027092 -6.587980 27.829091
2638 2 -2.025846 -22.356170 98.096614
2639 3 1.505784 -14.951015 92.879210
2640 3 0.034281 -12.973865 97.154524
2641 2 7.299639 20.215874 24.420692
2642 3 8.160580 11.178280 40.037103
2643 3 6.139223 21.751538 35.037871
2644 2 46.759974 33.714744 67.218546
2645 3 46.457071 28.609945 73.487339
2646 3 46.757046 37.191552 71.880245
2647 2 37.522451 26.583494 31.474499
2648 3 32.137206 22.433741 23.757123
2649 3 38.067430 29.059347 33.827816
2650 2 -39.805584 24.761437 11.874714
2651 3 -38.445969 24.799823 18.345779
2652 3 -33.881727 29.462840 13.307760
2653 2 50.174651 29.160684 48.900531
2654 3 46.982824 27.977827 59.444937
2655 3 43.345451 31.408005 46.771322
2656 2 36.049943 -0.291265 51.678537
2657 3 37.745200 14.292196 44.374775
2658 3 32.923557 13.408865 39.423876
2659 2 -11.271215 -10.034406 -9.856843
2660 3 -9.771423 -18.439243 -13.363528
2661 3 -14.159452 -5.037145 -15.297682
2662 2 37.366771 6.728768 6.350297
2663 3 35.288001 5.400279 14.240213
2664 3 39.096624 11.879352 19.265206
2665 2 -22.315927 -42.648116 52.928452
2666 3 -20.379991 -35.638819 53.869981
2667 3 -16.002309 -30.719313 53.282961
2668 2 15.143324 38.329095 48.138699
2669 3 11.682240 37.472495 45.087655
2670 3 7.532008 31.115338 36.711410
2671 2 14.540674 0.592248 10.388865
2672 3 14.377287 1.856021 1.768264
2673 3 17.493176 -3.496647 10.416999
2674 2 18.810394 20.250304 -28.857795
2675 3 18.374406 14.772651 -20.044284
2676 3 19.409216 21.550825 -11.253698
2677 2 79.091327 13.831714 12.496333
2678 3 71.765196 28.009195 15.935177
2679 3 72.232842 29.236230 11.187412
2680 2 82.911969 25.108191 49.587782
2681 3 71.810805 27.619946 52.282474
2682 3 82.442486 17.968995 56.346311
2683 2 33.592513 13.752500 13.752882
2684 3 32.395941 8.797319 23.266639
2685 3 30.470809 9.059447 15.647638
2686 2 22.745289 -12.108886 51.455424
2687 3 19.759987 -16.182364 52.502460
2688 3 26.213425 -8.304451 45.946196
2689 2 67.897577 17.717635 -11.193043
2690 3 71.905481 21.464299 -20.124064
2691 3 66.319270 20.092715 -17.525423
2692 2 62.357902 -20.102215 19.304412
2693 3 53.702297 -17.709262 11.067096
2694 3 58.350470 -19.575676 19.492559
2695 2 -29.968366 -11.937714 46.210286
2696 3 -34.385344 -11.926334 37.636361
2697 3 -31.287614 -11.139062 42.196803
2698 2 73.420251 24.707116 7.695602
2699 3 69.404265 23.260463 14.104722
2700 3 71.451768 19.581321 19.602138
2701 2 26.723231 46.136470 41.767768
2702 3 29.441902 54.414783 40.254298
2703 3 26.321436 56.402587 31.170451
2704 2 27.680344 45.731040 70.239517
2705 3 22.112455 50.810793 61.561391
2706 3 20.285431 48.869514 57.362909
2707 2 8.598636 1.496343 24.116255
2708 3 -2.636355 1.110401 35.741992
2709 3 4.149059 10.817798 39.108794
2710 2 31.401692 10.190711 63.576139
2711 3 23.383168 15.930952 51.293484
2712 3 25.399346 14.252479 57.208740
2713 2 -60.969908 5.681410 29.653292
2714 3 -60.976736 -0.005681 29.788234
2715 3 -60.330172 4.019974 31.552831
2716 2 14.335257 16.334794 54.424354
2717 3 16.723523 13.313317 43.830803
2718 3 10.576943 16.863849 58.653789
2719 2 20.394677 26.105003 4.876261
2720 3 12.940112 27.787225 1.084291
2721 3 23.702472 23.576364 10.527827
2722 2 -52.849811 58.977105 -9.264997
2723 3 -53.832654 60.705308 -5.116362
2724 3 -42.571633 51.878548 0.422351
2725 2 -13.385351 76.461447 12.231213
2726 3 -16.849575 75.567845 17.443131
2727 3 -11.118304 73.092801 19.075403
2728 2 -12.593295 39.305180 68.221406
2729 3 -9.022733 31.085107 64.579484
2730 3 -5.004916 33.107279 53.171148
2731 2 -5.176203 77.235497 -0.934872
2732 3 -6.664201 77.988443 -4.442554
2733 3 0.481350 76.444977 -10.116249
2734 2 -21.404339 75.370737 -26.753395
2735 3 -14.115510 76.289710 -33.361381
2736 3 -21.827313 75.281397 -30.095338
2737 2 47.381622 44.745305 60.029759
2738 3 54.885081 44.493529 66.893274
2739 3 51.151423 45.659930 66.942600
2740 2 -45.933577 -17.126703 43.271646
2741 3 -40.167530 -11.672166 48.487748
2742 3 -49.245586 -16.084742 50.198605
2743 2 40.876361 -3.964078 -8.329169
2744 3 43.102356 9.907238 -2.344018
2745 3 36.200780 -2.562240 -17.927663
2746 2 58.314021 49.792561 65.715399
2747 3 63.292212 55.307122 67.152189
2748 3 57.055490 51.638670 75.925923
2749 2 -22.378905 29.301120 36.564152
2750 3 -22.924024 31.804121 33.371546
2751 3 -21.033488 27.418818 29.677143
2752 2 25.154690 64.956521 14.125495
2753 3 22.974442 54.427569 12.493815
2754 3 24.848564 63.291865 10.534458
2755 2 47.085890 37.949054 47.144946
2756 3 38.431691 39.588878 49.919472
2757 3 43.725102 46.851183 47.474801
2758 2 0.679275 25.858127 42.440534
2759 3 5.416598 20.613683 50.128590
2760 3 6.604823 20.649443 40.163760
2761 2 -5.901580 21.156269 59.636696
2762 3 0.054200 18.094996 49.167820
2763 3 -3.448305 19.124707 52.172430
2764 2 37.970018 48.241634 35.666868
2765 3 33.407459 40.796843 34.892088
2766 3 39.300812 46.972565 46.550490
2767 2 8.977704 83.667259 -9.490823
2768 3 2.265856 78.379437 -11.598245
2769 3 15.615170 82.685415 -3.547562
2770 2 19.840894 35.850766 32.126692
2771 3 16.429330 28.995480 27.641410
2772 3 22.965396 34.841154 20.544733
2773 2 22.225754 45.910728 33.241322
2774 3 10.998617 35.867082 38.931765
2775 3 17.418167 35.103502 30.716439
2776 2 7.924683 29.113560 25.090188
2777 3 2.247102 33.360171 32.846076
2778 3 3.875010 34.476737 32.777094
2779 2 22.520219 40.687754 9.541932
2780 3 20.138824 49.556782 -12.990838
2781 3 18.689079 33.913060 -8.243809
2782 2 -22.245298 56.884437 48.496835
2783 3 -30.749286 49.369091 51.394595
2784 3 -23.874313 53.803513 45.273079
2785 2 90.767119 6.853724 48.831445
2786 3 98.535463 3.402871 48.578036
2787 3 95.651679 9.657261 52.591383
2788 2 22.851934 49.056023 28.407948
2789 3 22.478677 55.829997 20.011224
2790 3 24.695013 58.256400 19.707711
2791 2 -28.425269 48.234496 34.011477
2792 3 -22.689603 37.053537 31.857887
2793 3 -30.605590 36.158729 31.379144
2794 2 -27.469686 8.443988 38.552410
2795 3 -34.755714 12.810403 44.900682
2796 3 -23.299540 16.217416 29.066242
2797 2 43.021942 -3.162727 33.055865
2798 3 42.421949 -11.654398 20.453609
2799 3 41.409849 -0.270076 24.660989
2800 2 -6.866790 73.707400 -34.916668
2801 3 -13.605817 71.267120 -34.590243
2802 3 -4.363917 72.057286 -35.222080
2803 2 1.292465 33.658917 -0.750334
2804 3 8.626900 25.757122 0.983826
2805 3 3.309445 38.618136 -6.683984
2806 2 64.999446 21.919820 12.269998
2807 3 66.823660 18.688184 16.449964
2808 3 60.665169 24.924735 22.807675
2809 2 104.196038 25.844871 17.046819
2810 3 109.550345 27.554148 15.975384
2811 3 102.651132 31.188811 16.279273
2812 2 19.260146 25.885931 65.443495
2813 3 20.183775 19.350071 58.011134
2814 3 22.148621 22.734379 49.045635
2815 2 50.021899 46.437996 25.950273
2816 3 45.833950 45.788902 30.820488
2817 3 48.083030 42.496815 32.457411
2818 2 4.624442 53.153401 41.359358
2819 3 -5.236359 45.957046 32.171753
2820 3 1.952213 48.229017 25.638093
2821 2 68.865096 49.698967 71.314833
2822 3 60.997261 53.091185 72.699437
2823 3 53.586773 48.015501 72.186940
2824 2 45.666892 19.531737 0.072611
2825 3 43.702627 27.731803 2.136580
2826 3 42.043321 17.724092 -1.665680
2827 2 42.552578 58.010018 17.099831
2828 3 44.822300 57.246178 20.249915
2829 3 47.046604 63.576329 9.303026
2830 2 26.023929 50.466321 89.589849
2831 3 28.750092 51.404205 79.245826
2832 3 33.433730 47.215761 84.282561
2833 2 -13.092814 68.594857 41.578138
2834 3 -7.287857 75.841013 45.287760
2835 3 -17.790026 73.688334 51.047313
2836 2 35.860377 17.554997 48.237614
2837 3 41.516200 5.611407 48.879427
2838 3 40.691282 7.110911 51.811454
2839 2 11.817892 74.438311 16.379751
2840 3 19.302115 72.877185 25.731709
2841 3 19.739767 73.934035 28.346715
2842 2 10.211331 63.523061 37.640372
2843 3 8.827325 68.464575 33.541258
2844 3 12.940218 59.472092 35.860053
2845 2 40.754129 59.038398 -1.967267
2846 3 37.187833 57.836115 7.075519
2847 3 38.594471 50.255713 0.106783
2848 2 26.107177 41.673633 -25.819834
2849 3 34.223826 42.753190 -38.137014
2850 3 37.193444 43.600255 -31.757137
2851 2 3.423708 52.349912 65.051972
2852 3 2.110560 58.962753 60.190257
2853 3 9.517581 55.069969 65.545976
2854 2 52.365646 10.982412 9.553325
2855 3 52.394558 11.720264 22.344551
2856 3 55.778770 7.683605 16.053047
2857 2 11.805023 59.635173 4.896589
2858 3 14.201872 65.633712 6.240023
2859 3 10.109598 60.206577 2.708543
2860 2 37.232544 55.474783 25.879798
2861 3 34.545355 55.398234 12.969644
2862 3 38.784678 56.776707 25.323773
2863 2 74.326869 31.040253 67.223989
2864 3 73.149604 27.033093 60.366517
2865 3 77.559172 22.222859 65.019839
2866 2 6.151214 -26.846056 33.127303
2867 3 2.816133 -27.374352 26.663690
2868 3 -0.675300 -34.443808 22.411496
2869 2 24.642356 37.383242 10.531158
2870 3 32.943465 44.225257 21.701443
2871 3 33.266724 39.338599 10.395613
2872 2 76.711542 -13.605193 17.995770
2873 3 78.102272 -15.771415 11.183378
2874 3 81.101740 -10.521103 11.125687
2875 2 -11.418759 15.556987 58.067181
2876 3 -15.494218 11.766832 54.565577
2877 3 -14.350060 13.465102 51.519320
2878 2 11.764761 26.519122 -21.589477
2879 3 12.687495 27.080657 -34.975851
2880 3 9.438914 21.600656 -28.307011
2881 2 44.911854 13.651060 2.098436
2882 3 37.400589 10.736483 0.416574
2883 3 33.466407 4.876621 -4.037315
2884 2 11.608008 -38.756279 36.637399
2885 3 15.945087 -34.499748 20.392171
2886 3 11.647594 -36.503012 21.471465
2887 2 39.262764 11.121655 52.895417
2888 3 44.884027 2.764061 44.695012
2889 3 49.761352 7.031965 46.311600
2890 2 53.242058 -52.083050 -6.168680
2891 3 46.817557 -47.539927 -0.633272
2892 3 42.813609 -45.877125 -14.352391
2893 2 74.986282 -10.000441 20.851016
2894 3 77.669543 -13.696213 27.967860
2895 3 67.830682 -15.676316 19.713896
2896 2 86.159505 13.124220 19.579905
2897 3 81.140219 13.239321 15.049312
2898 3 81.720369 7.444218 15.000241
2899 2 17.740196 -36.839117 17.891097
2900 3 24.542255 -36.602349 26.382163
2901 3 18.562233 -44.662729 27.695042
2902 2 46.376326 -15.476027 30.251565
2903 3 48.841737 -24.795238 28.327738
2904 3 43.386419 -17.791369 24.957690
2905 2 -4.446879 -4.227000 106.056032
2906 3 -5.667529 -6.148037 97.897077
2907 3 -5.095400 -4.123664 96.865907
2908 2 -0.217096 26.211073 14.588972
2909 3 7.183287 27.700373 28.235828
2910 3 3.406014 17.352320 20.831472
2911 2 60.472608 1.028292 30.964206
2912 3 63.078772 -4.632407 23.931531
2913 3 65.938892 -0.221753 22.437694
2914 2 -3.460306 -22.784467 17.719884
2915 3 -2.767167 -25.189873 14.503223
2916 3 2.103516 -26.376392 3.304689
2917 2 17.498176 45.444597 8.808532
2918 3 8.179398 40.117778 3.044483
2919 3 16.961145 46.945144 2.706182
2920 2 57.857123 14.517903 19.682582
2921 3 51.498718 22.499190 30.579333
2922 3 53.865707 12.962706 34.348826
2923 2 13.068142 -23.618852 15.235688
2924 3 13.188117 -28.964047 18.986706
2925 3 18.288238 -20.092758 14.831760
2926 2 25.239917 20.175555 42.024040
2927 3 18.211471 20.892247 34.716652
2928 3 24.231392 16.523463 35.009964
2929 2 -13.739815 -12.184945 68.503266
2930 3 -14.086176 -7.315631 72.922947
2931 3 -22.013142 -14.237824 61.622973
2932 2 42.627279 26.890007 40.564797
2933 3 44.332647 14.542533 45.432168
2934 3 46.933287 29.638218 40.503629
2935 2 83.189519 -11.692104 30.695039
2936 3 80.330409 -5.120514 30.971241
2937 3 78.593700 -8.998715 30.375206
2938 2 24.682099 13.168246 6.635816
2939 3 20.767651 9.621673 -5.219717
2940 3 23.570338 7.227325 2.327019
2941 2 73.676780 -33.428477 54.763811
2942 3 81.392429 -30.748437 54.789770
2943 3 73.830327 -34.772848 52.503161
2944 2 24.025214 10.734130 12.654029
2945 3 24.377730 28.470406 14.381106
2946 3 28.170537 20.067625 5.955750
2947 2 4.482599 31.821568 25.214254
2948 3 0.733459 27.939046 20.508674
2949 3 1.719110 31.742846 29.823545
2950 2 3.114389 53.275374 -17.286699
2951 3 0.184251 57.097883 -15.999152
2952 3 2.083317 57.567714 -20.171702
2953 2 -3.473571 12.499866 48.421815
2954 3 -8.791002 14.019283 44.125684
2955 3 -8.193353 12.912051 57.504911
2956 2 22.500536 38.456153 21.602706
2957 3 25.943960 47.121502 25.677940
2958 3 30.425305 44.561694 31.493366
2959 2 39.424730 25.674880 40.028440
2960 3 35.235113 31.015473 37.658661
2961 3 31.050446 30.876069 35.535438
2962 2 26.813426 68.367408 42.671640
2963 3 22.204575 60.488240 40.986384
2964 3 22.694836 56.829782 39.408190
2965 2 18.147349 30.924129 57.888993
2966 3 21.603606 40.072998 62.468694
2967 3 16.621400 37.688930 54.178328
2968 2 7.785890 5.053623 51.464504
2969 3 7.676219 4.472514 53.147262
2970 3 6.623450 11.505479 59.899841
2971 2 -13.989627 19.953619 48.009267
2972 3 -10.615059 -1.570407 35.874804
2973 3 -7.724262 6.130295 56.364228
2974 2 -0.937603 -17.985041 4.327649
2975 3 1.183182 -9.895347 6.802902
2976 3 -0.474461 -13.246501 9.504724
2977 2 52.071417 13.976138 1.192605
2978 3 53.181594 16.118638 -1.569427
2979 3 50.357436 7.653504 3.910855
2980 2 73.144434 6.850728 28.309109
2981 3 69.164375 1.564673 28.513576
2982 3 73.187898 6.166848 19.011964
2983 2 43.343140 -37.285952 26.979311
2984 3 43.627220 -22.191801 27.111425
2985 3 42.864595 -25.145180 32.752232
2986 2 -26.054111 10.216226 63.348459
2987 3 -21.114396 18.157293 52.680510
2988 3 -14.960977 9.698619 53.295750
2989 2 22.394298 18.384971 38.829200
2990 3 22.551702 17.559977 36.626124
2991 3 22.835239 18.716051 27.058930
2992 2 39.029992 29.017286 12.421025
2993 3 36.593380 44.348315 13.424991
2994 3 41.538003 35.420665 17.777471
2995 2 28.555010 55.686526 18.643346
2996 3 31.443851 64.024684 11.189581
2997 3 33.200865 55.510004 15.661715
2998 2 35.939989 4.392711 13.111542
2999 3 41.482851 -5.622153 17.342347
3000 3 42.281267 2.434519 16.054599
3001 2 24.174383 28.848053 11.192326
3002 3 35.414535 23.050687 19.775967
3003 3 28.262289 25.331734 16.013964
3004 2 -3.965691 11.588455 52.731367
3005 3 -6.620294 4.278106 43.233578
3006 3 -11.411053 2.263463 40.782938
3007 2 26.586368 -11.320688 57.770205
3008 3 31.868492 -12.734082 44.958251
3009 3 34.621015 -13.814354 51.360127
3010 2 8.595318 9.460896 16.621404
3011 3 1.064766 10.848209 12.506727
3012 3 5.166582 16.492482 10.727028
3013 2 23.776164 2.131007 56.864083
3014 3 23.576807 7.203782 51.638753
3015 3 24.162637 9.222207 62.464658
3016 2 -41.306539 41.442221 -26.421273
3017 3 -40.572207 44.677881 -12.479677
3018 3 -42.970061 39.773696 -13.235010
3019 2 71.703244 12.136879 46.860232
3020 3 82.451983 10.462317 53.473795
3021 3 75.746496 11.520576 53.897970
3022 2 -38.780208 27.961922 38.205596
3023 3 -31.745569 26.591789 49.447775
3024 3 -34.657014 27.038265 48.078152
3025 2 33.983324 21.198931 3.758680
3026 3 34.649809 21.520442 14.257818
3027 3 33.928898 22.006492 9.725777
3028 2 5.435137 10.112588 41.437430
3029 3 7.173286 16.052070 37.933695
3030 3 23.455728 16.759456 34.285959
3031 2 59.401961 23.338623 62.159526
3032 3 59.421228 18.782558 65.054556
3033 3 52.667128 13.657529 67.217688
3034 2 -7.949414 30.236063 36.077213
3035 3 -12.339675 34.883382 41.829990
3036 3 -9.431973 30.045811 45.330914
3037 2 -59.411580 5.800687 66.011167
3038 3 -54.507362 4.677244 59.381518
3039 3 -48.386543 6.661851 63.335565
3040 2 15.226168 26.027649 48.564779
3041 3 14.157062 34.469457 53.591335
3042 3 12.684473 33.079844 52.008410
3043 2 16.587294 24.417513 57.006574
3044 3 13.010073 19.318282 58.130256
3045 3 7.940713 21.474085 62.572859
3046 2 59.693203 67.726973 15.201392
3047 3 59.786203 61.469502 20.518364
3048 3 57.030060 54.908705 21.230981
3049 2 76.103518 -1.656174 4.605527
3050 3 77.341066 -2.766654 6.258749
3051 3 81.243202 -8.586230 12.964839
3052 2 -50.366618 66.953733 26.158802
3053 3 -51.591489 59.392635 17.751021
3054 3 -45.997378 61.291190 23.415643
3055 2 -18.572767 16.203653 59.339914
3056 3 -15.701206 19.794727 49.275966
3057 3 -13.509172 20.688858 57.549278
3058 2 49.447884 72.763924 24.729876
3059 3 51.540719 71.976479 33.028546
3060 3 52.063649 70.135089 22.925644
3061 2 7.978018 53.141382 33.262341
3062 3 11.846437 55.159268 33.740485
3063 3 8.419629 64.298248 43.209761
3064 2 43.745954 17.974486 28.700297
3065 3 55.412945 27.276069 13.398894
3066 3 53.294150 22.244187 18.193458
3067 2 45.048312 13.721767 61.470119
3068 3 40.339606 12.864812 61.625787
3069 3 43.252190 23.345085 63.060413
3070 2 45.782049 17.950622 -2.663503
3071 3 44.013420 19.948761 1.215824
3072 3 40.705390 19.809407 -1.352065
3073 2 5.645341 79.120718 24.136846
3074 3 7.954990 71.104529 38.588725
3075 3 6.496183 76.546363 27.860743
3076 2 38.538969 54.814363 42.280466
3077 3 51.767304 56.520032 52.555981
3078 3 49.466449 62.330399 49.281564
3079 2 52.693313 43.505156 70.007874
3080 3 52.306183 43.385814 73.199455
3081 3 41.105955 48.982218 74.730053
3082 2 33.237752 44.956925 17.463283
3083 3 32.368550 45.048681 12.819492
3084 3 38.423691 48.150011 15.564974
3085 2 42.673030 -16.803604 52.920170
3086 3 42.887216 -17.291958 47.813681
3087 3 40.839140 -13.822245 53.770012
3088 2 7.334416 38.102329 46.165340
3089 3 9.978682 38.713132 55.005523
3090 3 11.550979 36.129856 49.974855
3091 2 -10.932792 33.855852 -14.853535
3092 3 -13.889852 33.767193 -6.700461
3093 3 -10.784835 24.974653 -9.985996
3094 2 21.125365 82.494723 66.353935
3095 3 30.131000 75.419558 74.072180
3096 3 22.811599 70.090574 73.051735
3097 2 -4.915952 44.526962 57.386700
3098 3 -12.862485 49.386960 71.663621
3099 3 -12.427682 59.501878 66.291379
3100 2 23.741318 78.158804 -37.904924
3101 3 23.246580 78.025051 -54.624238
3102 3 21.029806 78.692261 -29.862976
3103 2 20.494520 39.357976 36.956743
3104 3 22.459651 47.847283 39.058727
3105 3 18.343038 47.563145 44.318807
3106 2 44.497305 -5.572777 33.487075
3107 3 40.496346 -5.870836 29.874437
3108 3 40.779467 -9.870690 21.180456
3109 2 35.650527 46.803630 -7.228390
3110 3 40.466586 40.786062 -7.174147
3111 3 35.769697 43.960963 -8.066562
3112 2 48.064499 39.939998 15.210846
3113 3 44.746793 42.950388 12.711537
3114 3 46.815535 40.070879 15.654200
3115 2 -14.431468 0.294674 66.917340
3116 3 -19.381785 -0.832899 68.445018
3117 3 -20.631938 -7.470087 67.670355
3118 2 26.330923 22.347637 24.520114
3119 3 39.280455 19.060999 27.938976
3120 3 28.535639 12.931092 24.927821
3121 2 45.367875 72.025426 15.665619
3122 3 43.334050 72.540897 9.304974
3123 3 45.334659 69.036298 9.901463
3124 2 74.285050 61.513032 4.904676
3125 3 77.498433 57.939493 -2.677007
3126 3 72.748963 63.891582 5.637739
3127 2 69.119752 58.081391 41.236617
3128 3 65.586606 58.274535 27.552616
3129 3 67.272693 56.086003 22.318093
3130 2 5.860647 25.668285 25.327265
3131 3 5.641401 24.876836 28.754094
3132 3 8.073409 20.484592 38.994991
3133 2 34.159170 91.482428 67.056212
3134 3 33.464800 87.686123 68.360583
3135 3 34.286801 97.008311 74.642352
3136 2 34.681235 31.300976 32.583487
3137 3 39.538411 32.159662 36.189760
3138 3 30.310861 22.952894 40.189779
3139 2 25.804266 18.266539 50.234471
3140 3 22.579204 26.655540 66.309236
3141 3 27.269881 27.639390 52.601813
3142 2 57.542135 15.286651 -13.994372
3143 3 59.495179 33.746586 -12.629927
3144 3 53.642498 26.329517 -21.458636
3145 2 57.446782 60.617636 -6.696374
3146 3 52.096967 63.574797 -1.737132
3147 3 56.436941 66.381250 -1.055952
3148 2 30.146185 34.283835 64.061373
3149 3 37.459097 28.140636 55.845056
3150 3 39.455284 28.542582 56.993893
3151 2 37.595815 56.679316 -5.154244
3152 3 34.502190 54.424437 -10.031394
3153 3 39.045566 61.025940 -4.756572
3154 2 -13.384728 41.857236 46.436218
3155 3 -3.191888 50.601438 49.978894
3156 3 -8.829385 33.552171 55.772347
3157 2 28.635334 15.430841 46.497286
3158 3 31.547469 23.048875 49.101004
3159 3 24.872338 20.873612 35.899186
3160 2 47.114999 65.688489 17.702307
3161 3 52.715587 71.144220 36.278166
3162 3 44.902108 69.278088 34.429142
3163 2 8.923471 72.484162 30.626721
3164 3 14.378506 78.336336 25.421574
3165 3 13.861007 66.030780 30.701983
3166 2 19.954480 59.472062 20.165940
3167 3 17.623547 54.356029 12.724581
3168 3 20.729061 56.629176 10.067060
3169 2 24.425231 -10.813850 20.843981
3170 3 21.046229 -4.782715 14.153523
3171 3 24.585347 -12.285518 13.048103
3172 2 -41.709681 -13.602642 37.104339
3173 3 -51.410945 -5.884769 35.182438
3174 3 -53.179028 -9.096476 37.559745
3175 2 27.523703 23.136176 23.093023
3176 3 20.963162 32.330074 21.573540
3177 3 23.182001 28.669312 23.227903
3178 2 13.653784 15.933347 48.239477
3179 3 13.238268 13.746764 59.755640
3180 3 14.090178 21.903475 45.131709
3181 2 38.002518 -37.652273 33.000874
3182 3 41.558273 -36.653838 32.849316
3183 3 40.399212 -32.667248 36.686315
3184 2 22.670758 5.703979 25.571156
3185 3 20.990844 9.025917 26.551694
3186 3 27.227032 6.272012 30.709879
3187 2 4.655733 1.442183 24.123233
3188 3 -3.252491 4.524229 19.488986
3189 3 -0.648545 2.720555 27.634223
3190 2 -1.867781 5.866708 16.569281
3191 3 -7.210729 3.922491 21.439378
3192 3 -8.110846 4.194056 25.743660
3193 2 17.190806 15.506121 51.098004
3194 3 17.027941 8.725084 48.039253
3195 3 16.479355 14.428786 46.535018
3196 2 72.684879 -12.015782 25.965080
3197 3 73.040385 -12.428761 30.526524
3198 3 74.967844 -12.893081 29.305446
3199 2 105.780526 24.161542 58.238731
3200 3 101.186808 28.775471 44.705947
3201 3 97.855541 19.984517 58.141371
3202 2 16.396871 16.498333 52.301278
3203 3 15.373595 6.658701 57.177386
3204 3 14.683953 1.064235 59.652177
3205 2 -10.411371 14.454220 76.690959
3206 3 -11.625819 12.695532 73.127032
3207 3 -6.115492 15.062207 75.665127
3208 2 6.070202 24.661529 27.165958
3209 3 5.827802 10.617126 27.980598
3210 3 4.828788 19.447907 23.832428
3211 2 10.755240 25.179178 41.744865
3212 3 6.084009 19.757835 42.143556
3213 3 9.418958 25.752972 33.042752
3214 2 48.304882 -10.069554 71.717897
3215 3 44.232464 -9.314025 80.231019
3216 3 45.981309 -0.654832 86.758981
3217 2 -4.246141 29.786214 39.069242
3218 3 -5.230133 25.452279 36.348855
3219 3 3.556245 25.367118 39.577208
3220 2 11.577108 6.637809 59.217524
3221 3 11.158123 4.108602 54.104307
3222 3 5.310918 -1.014972 48.076784
3223 2 14.196227 -9.036929 10.946868
3224 3 16.604183 -10.357197 10.418186
3225 3 13.928108 -8.868070 -1.672657
3226 2 52.317020 30.900127 -16.344831
3227 3 57.142515 35.028591 -20.208347
3228 3 45.027147 25.671553 -13.781697
3229 2 48.623598 3.784504 8.012907
3230 3 38.188768 6.221394 15.358623
3231 3 43.838738 5.013153 7.957126
3232 2 33.691756 -23.582046 53.938008
3233 3 26.038563 -11.167258 57.189624
3234 3 31.659073 -18.628551 65.426552
3235 2 15.924723 -20.537727 36.784561
3236 3 16.456556 -24.131434 46.706165
3237 3 16.214482 -20.125067 39.450124
3238 2 1.564401 29.590762 36.524349
3239 3 4.051660 31.323647 39.627004
3240 3 -5.494233 34.558707 37.366850
3241 2 47.752328 42.211070 5.627829
3242 3 47.761711 34.843021 -8.860941
3243 3 47.665486 39.874297 -11.419279
3244 2 46.069766 8.093725 60.206245
3245 3 51.434609 13.897744 57.347128
3246 3 44.033643 8.303069 70.619305
3247 2 -1.089371 7.983809 9.541074
3248 3 -3.823790 11.018529 8.295218
3249 3 -7.953062 8.088842 4.945177
3250 2 6.717185 -19.650180 3.887801
3251 3 4.697459 -11.085221 9.695483
3252 3 5.667740 -14.120029 10.141349
3253 2 42.628939 29.959185 73.691254
3254 3 43.902664 49.417285 81.077940
3255 3 46.471991 45.077771 63.196633
3256 2 5.107366 6.221864 30.050526
3257 3 18.949702 7.901995 31.453879
3258 3 6.626667 8.138781 27.520965
3259 2 10.650100 12.356865 59.613738
3260 3 14.825536 0.162326 65.128418
3261 3 14.805367 5.717804 53.999713
3262 2 30.897907 -5.501140 20.570641
3263 3 35.883226 -8.166691 23.944411
3264 3 30.434873 0.757922 17.352395
3265 2 38.975001 23.519075 32.204320
3266 3 30.660543 23.232779 23.373405
3267 3 34.376927 22.213367 32.775142
3268 2 -4.723304 14.962749 52.305748
3269 3 -2.301029 6.472096 53.820233
3270 3 3.291889 5.285333 53.100275
3271 2 31.530785 8.413731 66.101483
3272 3 33.206386 5.690592 70.464250
3273 3 38.811905 12.881271 67.310389
3274 2 62.017313 -10.819561 17.913374
3275 3 63.153027 -0.757364 25.647012
3276 3 59.565953 -0.520445 24.672552
3277 2 49.909183 -9.980649 62.621465
3278 3 42.906373 -14.831338 61.094424
3279 3 49.318877 -16.761207 60.618374
3280 2 42.074063 -6.888598 21.455430
3281 3 42.167641 -9.271818 11.780303
3282 3 42.775769 -11.047127 10.862500
3283 2 45.202330 41.113100 17.815668
3284 3 49.732906 34.393359 20.283262
3285 3 41.967950 35.261926 11.980217
3286 2 7.694474 8.578702 44.363836
3287 3 6.213832 22.301285 39.826719
3288 3 15.685445 17.830211 40.500758
3289 2 -27.607703 20.324748 6.802479
3290 3 -25.228756 13.565750 25.124292
3291 3 -25.161112 12.061911 21.899329
3292 2 37.633470 -6.002064 60.472965
3293 3 41.815568 -10.031279 59.329193
3294 3 44.444006 -0.892954 52.425089
3295 2 -0.372145 21.204041 62.488807
3296 3 -2.855780 12.531707 64.613942
3297 3 3.312896 11.947243 54.432867
3298 2 49.298738 -3.498099 33.248983
3299 3 49.358604 2.827613 32.564568
3300 3 42.644721 -8.693937 39.193988
3301 2 -2.532890 22.478192 4.124919
3302 3 0.751745 19.912758 6.757932
3303 3 2.681987 22.544887 10.614810
3304 2 -2.695145 49.637279 30.587871
3305 3 -4.394226 52.195801 23.199969
3306 3 -0.810459 47.562776 20.689547
3307 2 7.376715 42.425348 19.320466
3308 3 8.829250 40.053569 22.129483
3309 3 14.384393 37.967737 28.161858
3310 2 49.505378 23.298018 40.242577
3311 3 45.593382 25.728787 41.865205
3312 3 56.904464 31.155652 39.947446
3313 2 -25.647419 0.771209 27.194874
3314 3 -27.772416 3.624585 24.699041
3315 3 -31.021736 0.102860 26.102546
3316 2 63.186481 24.673458 25.697028
3317 3 60.846130 15.854811 36.293663
3318 3 57.065723 21.643481 37.114440
3319 2 10.885537 20.187708 48.502758
3320 3 12.519920 27.127847 48.572194
3321 3 8.725059 22.974993 50.445012
3322 2 83.921138 49.799585 17.276018
3323 3 80.649125 57.252210 28.647877
3324 3 79.002567 45.600093 23.633945
3325 2 -29.017399 35.407708 18.950179
3326 3 -27.683327 25.044628 28.795119
3327 3 -24.959063 36.131551 25.839769
3328 2 105.988185 47.494526 39.884396
3329 3 102.880404 51.095566 52.206275
3330 3 102.747231 53.459946 49.536257
3331 2 -37.958349 40.933786 12.330594
3332 3 -44.452072 31.686474 13.632041
3333 3 -39.495570 32.484369 13.325637
3334 2 12.757805 51.874991 -18.404221
3335 3 10.318084 48.958091 -29.098526
3336 3 6.326983 57.989207 -11.309660
3337 2 13.143648 58.004510 -30.875390
3338 3 14.247350 58.171438 -30.643737
3339 3 6.019732 56.202115 -37.610578
3340 2 11.429605 31.235052 21.405281
3341 3 12.761493 37.113773 17.925047
3342 3 15.907654 29.923459 17.640864
3343 2 25.294116 45.762933 41.043019
3344 3 23.631220 42.511805 50.507568
3345 3 23.635429 41.193934 47.348365
3346 2 -5.036422 27.776302 -7.863298
3347 3 -4.561543 28.954664 3.327453
3348 3 2.986764 29.522210 9.146717
3349 2 12.750131 27.871767 45.207294
3350 3 12.002202 16.060863 52.701351
3351 3 14.195032 26.738517 48.872895
3352 2 30.418049 54.851431 16.755602
3353 3 28.098886 55.390518 5.117104
3354 3 33.814812 65.259029 19.781437
3355 2 13.061722 31.329449 73.757329
3356 3 10.738379 25.747275 77.735295
3357 3 15.085306 29.804377 72.607828
3358 2 -31.778218 51.661600 -17.263145
3359 3 -26.906813 44.727272 -22.132686
3360 3 -30.114166 45.419027 -24.664346
3361 2 3.429119 1.476300 20.725142
3362 3 3.325777 -17.844580 7.456377
3363 3 6.517907 -16.197645 22.715644
3364 2 -15.009328 43.635749 59.934668
3365 3 -10.108382 49.694174 65.172974
3366 3 -9.739612 49.040904 66.479799
3367 2 38.209075 13.237062 43.713717
3368 3 36.405800 23.609907 39.147309
3369 3 31.306075 17.932543 37.716739
3370 2 56.241468 38.739816 29.684033
3371 3 39.597216 32.459601 27.556989
3372 3 44.548211 35.303716 26.168954
3373 2 -39.586764 58.559087 -4.147183
3374 3 -38.690801 60.964625 0.033004
3375 3 -32.965859 53.703652 -17.220905
3376 2 17.572032 58.228751 75.112590
3377 3 24.724002 66.675859 67.051443
3378 3 17.764141 62.800857 72.162911
3379 2 -21.302093 46.195373 11.375046
3380 3 -24.130867 40.480397 25.309156
3381 3 -29.041818 34.954555 19.327686
3382 2 -15.733772 57.617820 -20.242266
3383 3 -9.827678 52.621304 -22.529809
3384 3 -8.008060 52.600893 -14.599646
3385 2 16.817609 30.315852 25.297631
3386 3 21.646509 34.719749 21.205886
3387 3 25.815690 35.821696 25.491912
3388 2 38.925425 73.633537 24.652574
3389 3 47.074536 73.080968 17.515803
3390 3 37.125130 81.875266 15.943274
3391 2 42.668783 55.908109 24.221668
3392 3 52.065168 48.306332 23.100584
3393 3 40.932891 50.909192 20.214603
3394 2 4.718552 81.781186 12.184241
3395 3 5.461382 84.904059 -0.510457
3396 3 -4.108374 87.709774 -2.058026
3397 2 -32.443054 74.342817 52.366653
3398 3 -38.133009 62.380520 66.583761
3399 3 -29.651067 72.366260 59.468029
3400 2 38.366536 68.506132 38.788474
3401 3 39.967082 64.631727 38.328771
3402 3 41.014129 67.074698 33.498238
3403 2 36.156757 62.187448 68.318716
3404 3 40.560563 69.661068 82.094279
3405 3 36.816344 67.628332 61.786649
3406 2 66.813400 76.152001 31.788177
3407 3 60.565930 71.864918 35.603699
3408 3 65.717619 79.896205 30.520275
3409 2 59.325477 50.905987 8.818454
3410 3 53.137686 45.835496 0.954655
3411 3 54.772183 48.517267 8.407362
3412 2 -23.698840 36.410780 22.826147
3413 3 -29.322341 36.127397 24.819682
3414 3 -27.165018 38.818794 25.001467
3415 2 22.699169 2.992153 26.793207
3416 3 32.116669 5.954701 29.434904
3417 3 31.904677 -4.258036 20.663708
3418 2 -10.080691 64.218672 60.151075
3419 3 -5.260234 72.984029 62.768069
3420 3 -4.428864 58.514048 62.646287
3421 2 35.152093 63.690540 63.618767
3422 3 30.378512 57.730765 56.559631
3423 3 33.389040 57.712295 54.666847
3424 2 -15.313611 43.359035 -12.729744
3425 3 -8.177053 46.688671 -7.137492
3426 3 -11.032857 44.542016 -8.442956
3427 2 -15.542791 45.022382 33.348074
3428 3 -17.169733 47.008046 36.732580
3429 3 -20.343139 42.693015 18.836498
3430 2 47.334266 52.366116 72.856950
3431 3 46.574656 53.044128 81.931198
3432 3 48.507061 52.674113 66.238893
3433 2 55.299344 58.455709 -0.331579
3434 3 53.912154 44.321793 2.720986
3435 3 48.386663 44.191656 15.384650
3436 2 37.194883 18.522958 65.440658
3437 3 41.913130 25.700795 64.361144
3438 3 44.331553 16.099999 55.813711
3439 2 62.084127 79.567910 31.618430
3440 3 59.617373 81.374304 16.562506
3441 3 60.424466 73.738709 17.954911
3442 2 3.378863 6.736627 49.367417
3443 3 -2.273763 10.122600 50.773826
3444 3 1.875729 3.642184 50.000750
3445 2 13.936512 -0.175315 15.521508
3446 3 6.279995 11.571326 8.401604
3447 3 5.391551 5.029798 10.261999
3448 2 50.742328 54.344596 41.153693
3449 3 56.432014 47.762454 51.300494
3450 3 46.944564 53.816867 46.831936
3451 2 11.037499 -1.987309 52.974768
3452 3 5.814199 3.368174 57.089360
3453 3 7.031495 2.235672 48.353205
3454 2 -6.747186 50.962895 20.499448
3455 3 -7.392725 41.099091 13.361284
3456 3 -4.774535 38.735475 10.387742
3457 2 -48.006097 44.884386 9.473763
3458 3 -47.262195 42.021699 16.670609
3459 3 -48.472326 39.968387 8.649414
3460 2 -5.130375 44.894873 -5.225622
3461 3 -5.141318 47.731517 -3.629449
3462 3 -5.008338 52.687952 -7.003819
3463 2 -44.813580 -6.750106 71.436790
3464 3 -47.658399 -13.337901 72.985886
3465 3 -49.757017 -18.316647 64.567822
3466 2 53.369041 68.287722 -7.499068
3467 3 48.875736 61.879892 -18.513496
3468 3 53.501465 67.058589 -12.383183
3469 2 17.983984 91.425328 18.128893
3470 3 21.481480 75.385474 19.517264
3471 3 21.883136 82.281586 19.541134
3472 2 -19.244739 26.086067 51.567993
3473 3 -24.234173 29.745237 49.602716
3474 3 -20.470227 32.004463 55.857792
3475 2 23.464373 86.075419 19.784462
3476 3 18.619469 88.555687 24.449749
3477 3 14.752492 85.979131 23.140053
3478 2 2.900674 53.319709 40.498133
3479 3 6.694416 58.592437 36.208404
3480 3 2.639258 56.789829 49.540229
3481 2 32.467287 51.327427 -0.484122
3482 3 36.388411 72.623068 11.570065
3483 3 36.399775 69.886962 2.855596
3484 2 42.979320 62.952106 43.941368
3485 3 47.582186 60.204217 28.110845
3486 3 37.837945 62.837302 34.257249
3487 2 88.890957 57.404477 -6.343591
3488 3 88.007048 62.775824 0.973929
3489 3 85.597775 68.838152 -7.633913
3490 2 43.679229 -18.624298 66.786960
3491 3 43.387989 -21.152877 70.710682
3492 3 37.482552 -25.150227 64.075092
3493 2 49.177499 -39.897687 51.757538
3494 3 52.226686 -32.155073 32.958949
3495 3 49.017250 -33.303988 37.787989
3496 2 -4.692605 32.492000 17.797350
3497 3 -7.956705 19.491423 18.796286
3498 3 -3.428332 36.923197 27.536292
3499 2 13.010472 -15.414499 13.919780
3500 3 8.468485 -6.618870 21.073798
3501 3 -1.944201 -8.183507 29.036630
3502 2 25.639790 7.140481 45.443006
3503 3 25.031686 1.372703 37.514683
3504 3 24.042193 0.331168 46.174301
3505 2 1.479713 -6.596888 38.809886
3506 3 -2.977773 -11.099491 37.057423
3507 3 -7.064407 -6.954293 46.761079
3508 2 -30.991237 42.496815 44.312748
3509 3 -36.712994 42.306939 42.543020
3510 3 -33.869537 44.869039 49.688929
3511 2 14.401644 18.202358 -14.172131
3512 3 17.746888 14.561463 -14.442744
3513 3 19.253141 15.777576 -21.328902
3514 2 58.335846 -13.149357 65.011669
3515 3 61.498456 -3.634784 59.909745
3516 3 53.546424 -14.488440 52.329043
3517 2 33.880844 -11.285350 46.482636
3518 3 34.044882 -17.653858 34.381770
3519 3 43.195454 -14.733191 56.897023
3520 2 67.146320 21.860699 49.803381
3521 3 74.721452 15.657685 52.196274
3522 3 68.719919 18.145309 47.837806
3523 2 42.067689 -26.860135 39.570367
3524 3 49.740107 -27.793819 38.515316
3525 3 46.471510 -23.712890 44.532524
3526 2 102.007458 -7.564407 9.336588
3527 3 105.745300 -8.910205 9.901119
3528 3 108.171471 -13.842136 13.028617
3529 2 28.231976 -26.880418 9.055627
3530 3 27.242155 -35.516668 9.183847
3531 3 25.117090 -31.851823 -7.811811
3532 2 12.594919 -51.978050 77.291351
3533 3 5.305979 -43.578458 77.428438
3534 3 5.886309 -52.831550 77.596233
3535 2 10.954964 10.561421 45.272567
3536 3 12.398029 9.485308 41.705838
3537 3 14.131066 16.805336 44.663891
3538 2 -2.623053 -19.057221 7.640954
3539 3 -4.615230 -19.598957 21.139723
3540 3 -8.121217 -23.927005 10.303773
3541 2 47.445836 15.715543 71.874626
3542 3 49.877091 25.729378 70.412894
3543 3 52.360617 18.589398 70.799569
3544 2 -12.826946 30.877543 80.527345
3545 3 -11.763832 39.002656 87.134136
3546 3 -11.758822 34.798595 82.055041
3547 2 44.790532 -11.563980 41.017069
3548 3 46.092121 -7.854060 35.568693
3549 3 50.556764 -8.066599 42.695634
3550 2 51.678880 -17.327011 62.488876
3551 3 46.185160 -9.333397 62.737291
3552 3 48.051324 -17.237131 55.564131
3553 2 27.675559 -2.679020 42.275977
3554 3 25.256835 -7.190019 48.446263
3555 3 20.964084 -10.947098 33.952586
3556 2 30.130942 25.566787 1.292782
3557 3 33.383825 29.358248 2.611204
3558 3 30.023140 29.121947 -8.126251
3559 2 15.959690 -5.878256 22.131188
3560 3 15.536135 -4.306144 31.058204
3561 3 8.231504 -1.562085 29.840681
3562 2 27.351758 -18.438608 33.694783
3563 3 26.120644 -23.720508 23.997267
3564 3 24.304911 -12.200104 30.818819
3565 2 44.156256 -7.269566 31.151606
3566 3 43.406167 -7.434937 32.540261
3567 3 48.379046 -15.191007 45.575039
3568 2 8.150462 -6.572580 38.313103
3569 3 9.771388 -10.486659 40.485367
3570 3 10.123021 -4.685105 40.547810
3571 2 9.783269 -8.914147 49.232800
3572 3 10.284688 0.979623 53.910783
3573 3 11.758289 -0.587135 45.195319
3574 2 32.951051 0.109727 24.238877
3575 3 40.326708 3.107160 22.803789
3576 3 33.938499 5.277429 32.154528
3577 2 -9.743195 -0.005493 62.853537
3578 3 -19.114062 3.820325 55.015480
3579 3 -14.630734 1.851243 57.257372
3580 2 42.907214 42.086220 26.593165
3581 3 33.754070 33.529849 28.457760
3582 3 42.845599 41.419763 27.716821
3583 2 46.427534 32.815285 23.948430
3584 3 41.225074 33.934226 27.857050
3585 3 43.054969 35.989264 41.769358
3586 2 26.119187 44.504376 19.599399
3587 3 21.942007 44.749396 9.524787
3588 3 22.542195 43.842045 12.957990
3589 2 37.802145 6.401525 29.876820
3590 3 35.002172 -7.125344 37.888020
3591 3 34.758422 3.972194 42.111939
3592 2 50.941403 -7.785453 35.670698
3593 3 44.650324 -10.549666 41.614001
3594 3 39.568410 -3.568632 40.238351
3595 2 4.484051 12.864448 62.180142
3596 3 3.772083 12.522092 67.807031
3597 3 0.935771 15.720522 64.296407
3598 2 49.133387 12.250749 57.042075
3599 3 52.933012 13.049332 58.226334
3600 3 49.394140 15.131799 53.126476
3601 2 0.531932 41.612559 56.556084
3602 3 -2.083743 34.161457 55.363960
3603 3 1.471097 36.464373 55.115826
3604 2 65.581827 3.708024 72.657934
3605 3 64.974494 5.959489 74.822266
3606 3 54.406367 8.496954 69.563423
3607 2 -51.665422 -4.294040 44.154916
3608 3 -45.238353 -0.111649 33.281051
3609 3 -49.159390 -7.507792 47.857407
3610 2 -1.844568 52.663565 -0.495698
3611 3 2.522359 48.092203 1.452361
3612 3 -0.817135 49.019271 2.470690
3613 2 -21.466257 16.040032 54.673725
3614 3 -20.656204 14.260416 64.647750
3615 3 -16.146054 16.205659 61.605767
3616 2 32.162164 8.739144 -18.767194
3617 3 39.383775 12.462084 -2.787363
3618 3 44.298102 15.858598 -7.517905
3619 2 14.761136 0.640020 62.409870
3620 3 17.239993 3.162225 53.893948
3621 3 14.857478 2.097773 57.282632
3622 2 -24.048486 25.154965 11.153327
3623 3 -19.387800 28.689692 7.424897
3624 3 -21.233768 25.274155 3.265100
3625 2 8.974726 18.907078 30.788238
3626 3 10.757000 20.857585 33.253066
3627 3 10.879127 21.309784 31.607526
3628 2 33.874775 61.955248 14.746322
3629 3 40.973096 63.224700 15.893779
3630 3 38.365809 77.271079 24.309032
3631 2 -5.613597 26.321501 74.082698
3632 3 2.784892 29.086779 70.992440
3633 3 2.748666 25.730128 63.678149
3634 2 57.935677 45.016319 27.418696
3635 3 55.772321 41.506334 27.114523
3636 3 62.573903 49.334450 23.214866
3637 2 28.186050 22.231663 21.250575
3638 3 24.206094 24.769078 26.298724
3639 3 32.049462 25.539644 24.574436
3640 2 109.655663 -11.793979 73.529003
3641 3 97.200060 -6.132316 73.223641
3642 3 102.561233 -8.445503 77.438383
3643 2 36.935877 8.772716 93.169953
3644 3 51.631746 8.648934 79.566988
3645 3 47.389797 6.549866 75.509113
3646 2 0.061487 46.618765 53.934968
3647 3 -6.356910 46.518998 56.246001
3648 3 -1.336987 39.507125 55.613974
3649 2 67.102304 62.254454 12.259653
3650 3 80.562368 58.223562 21.322819
3651 3 72.387831 62.837047 15.655929
3652 2 61.046475 1.485093 86.500550
3653 3 58.461128 -8.667142 101.084585
3654 3 51.209764 -2.407133 84.663811
3655 2 -7.695079 -21.770600 47.528620
3656 3 -3.266742 -23.344715 60.592814
3657 3 -6.522731 -21.689527 56.382672
3658 2 26.403864 29.385186 19.992923
3659 3 27.457731 20.498666 9.520429
3660 3 32.559302 31.072477 18.805628
3661 2 12.715967 1.176047 58.459748
3662 3 6.363163 -1.754552 52.051818
3663 3 8.475162 -4.348944 56.824012
3664 2 -31.965850 12.802878 57.118303
3665 3 -38.449031 7.252187 56.248761
3666 3 -32.620743 13.817834 46.219101
3667 2 74.607161 59.003310 15.457527
3668 3 70.892731 54.439661 8.081842
3669 3 71.137798 66.628312 6.165333
3670 2 28.886188 81.148798 -15.647727
3671 3 23.460934 72.370293 -6.746879
3672 3 24.939822 84.845986 -2.737190
3673 2 49.768960 -4.793438 69.478052
3674 3 60.925910 2.205185 78.265196
3675 3 49.467916 3.456281 71.069573
3676 2 -1.589048 27.431330 30.829691
3677 3 0.557472 29.772961 39.890439
3678 3 0.551663 26.341264 31.765578
3679 2 -34.760706 68.446938 55.353385
3680 3 -37.429971 65.773120 56.241420
3681 3 -40.119549 73.703553 53.639517
3682 2 39.576069 -26.152528 31.518844
3683 3 45.171717 -26.879593 23.975555
3684 3 43.235258 -28.994900 34.458593
3685 2 41.427906 39.507866 22.638183
3686 3 41.193660 41.651068 28.273218
3687 3 46.152798 33.282552 21.584357
3688 2 7.662745 -7.540327 8.851923
3689 3 11.860751 -19.035600 19.891122
3690 3 7.033993 -13.221258 19.588460
3691 2 -49.690307 59.581168 8.822844
3692 3 -43.608269 55.956946 12.954179
3693 3 -40.516270 58.312819 10.350913
3694 2 38.291468 33.218978 -7.256377
3695 3 34.349066 32.282603 -0.626534
3696 3 31.871120 40.072469 6.122280
3697 2 -4.549976 -17.390516 44.937145
3698 3 -8.533955 -22.950187 24.335133
3699 3 -3.284812 -23.460534 38.808701
3700 2 13.171400 69.654264 10.521628
3701 3 19.172478 63.489627 7.260510
3702 3 16.953126 59.582361 5.207949
3703 2 29.834120 31.730027 29.387549
3704 3 31.219144 32.273108 28.316453
3705 3 26.746023 29.425963 32.793242
3706 2 33.302769 8.008408 -2.869584
3707 3 35.896632 -0.197263 4.465452
3708 3 30.995861 1.994332 8.774298
3709 2 5.872242 51.164105 -16.394270
3710 3 5.860201 55.996108 -10.851333
3711 3 10.064627 58.614939 -21.182501
3712 2 80.250955 72.061118 74.979779
3713 3 87.678312 76.512837 61.727369
3714 3 88.527853 71.011228 76.108383
3715 2 24.179524 35.487532 53.230931
3716 3 27.126697 34.823857 55.044524
3717 3 22.537202 39.033633 50.484201
3718 2 38.849302 4.022984 58.550923
3719 3 48.714074 5.869505 53.142467
3720 3 42.870003 5.314525 67.729894
3721 2 5.390702 45.779924 64.840889
3722 3 17.503078 50.565406 54.301835
3723 3 15.811732 50.283195 62.629266
3724 2 17.893462 38.789475 37.902205
3725 3 22.218223 36.853245 22.364420
3726 3 21.315424 36.945461 41.110142
3727 2 8.491848 71.026170 65.966537
3728 3 13.317600 72.788073 59.009033
3729 3 22.752455 70.772460 65.508154
3730 2 -19.408774 84.483561 51.354938
3731 3 -10.762049 82.376278 49.440442
3732 3 -20.755680 79.891442 49.631431
3733 2 -11.028287 11.995107 65.772337
3734 3 -1.065145 9.209619 59.073757
3735 3 0.739654 10.462331 64.971043
3736 2 1.100485 37.937073 90.886576
3737 3 -3.914207 36.721459 87.011889
3738 3 -5.317244 32.109242 87.120662
3739 2 54.313263 69.266992 17.969697
3740 3 52.644252 61.094317 31.783204
3741 3 48.787106 59.724476 31.489057
3742 2 -23.917990 8.793039 30.036512
3743 3 -31.138803 11.400789 32.255311
3744 3 -24.271524 16.485057 32.133900
3745 2 -16.218131 63.179847 25.254277
3746 3 -14.511627 61.048997 26.757292
3747 3 -13.872113 69.595679 28.585705
3748 2 13.432118 21.070175 36.655616
3749 3 11.394974 11.920855 33.833184
3750 3 8.820677 13.046189 37.974989
3751 2 23.650959 33.098611 30.167843
3752 3 33.242575 30.621632 35.079432
3753 3 24.830521 37.621932 25.927543
3754 2 50.411811 36.237432 -18.182583
3755 3 50.362535 30.779598 -36.800561
3756 3 49.185088 34.053222 -15.323419
3757 2 -2.062829 25.958933 84.549299
3758 3 1.777012 18.903110 93.640177
3759 3 1.603484 24.802151 96.287925
3760 2 9.650689 9.487648 19.310628
3761 3 10.210920 16.627155 13.018108
3762 3 15.856967 1.851935 10.167033
3763 2 36.571355 40.650498 89.657119
3764 3 29.025921 52.186800 87.440214
3765 3 33.479621 45.656279 80.681490
3766 2 -2.212763 31.605390 60.105250
3767 3 -7.216109 22.973463 51.369014
3768 3 -8.699509 17.870865 49.016687
3769 2 6.492331 60.331701 -19.922894
3770 3 12.830223 50.379083 -17.375244
3771 3 6.738403 54.733267 -16.188201
3772 2 -8.864839 84.424181 41.756557
3773 3 -11.538797 84.697045 43.983594
3774 3 -9.508170 79.207496 39.850681
3775 2 -10.102127 33.001107 28.285965
3776 3 -6.106740 34.762253 33.323476
3777 3 -10.391549 37.055708 31.393310
3778 2 -22.980338 81.078075 27.944428
3779 3 -21.298358 92.183665 20.433481
3780 3 -18.528630 88.022921 21.942655
3781 2 35.114290 67.699248 55.271567
3782 3 30.434271 62.503260 63.572642
3783 3 29.950104 62.109420 58.018962
3784 2 -27.889760 10.842254 53.731614
3785 3 -15.610795 -5.242692 46.914602
3786 3 -23.566965 6.920623 45.304708
3787 2 40.266811 21.659768 19.582097
3788 3 41.119639 12.280259 35.706215
3789 3 38.329601 16.640406 21.015492
3790 2 40.090216 26.734154 79.386415
3791 3 32.025001 36.952972 83.009300
3792 3 37.779948 38.653077 78.038092
3793 2 8.317965 51.986111 2.237201
3794 3 4.683309 53.702964 4.445034
3795 3 7.480436 50.537314 9.076399
3796 2 47.463828 15.614752 21.663133
3797 3 44.329312 5.098908 21.864515
3798 3 43.337939 3.803270 8.623522
3799 2 57.593756 40.133420 72.729167
3800 3 62.311431 38.635596 75.103977
3801 3 60.519545 34.419970 77.619865
3802 2 -12.779001 27.514995 31.798426
3803 3 -7.873297 30.880953 28.779675
3804 3 -5.574288 25.187062 32.567644
3805 2 -6.384272 15.814051 66.472856
3806 3 2.891737 10.900350 73.275785
3807 3 -3.885573 21.243510 75.507632
3808 2 15.266452 -1.287417 47.736188
3809 3 16.337271 -4.610061 47.120793
3810 3 9.454482 -3.241738 46.932648
3811 2 -38.919543 -13.379854 49.211955
3812 3 -41.209959 -5.017695 27.040362
3813 3 -36.687869 -12.648554 45.045666
3814 2 36.329915 43.046692 4.636265
3815 3 39.348852 39.916641 -5.056251
3816 3 38.439727 37.267098 -9.253513
3817 2 42.886461 28.750120 42.655538
3818 3 36.793209 31.069141 34.353829
3819 3 38.792355 26.243880 35.043181
3820 2 36.627835 45.350732 58.978219
3821 3 44.124721 50.182674 56.359670
3822 3 42.579741 52.532850 57.530674
3823 2 -11.073070 12.052471 54.207027
3824 3 -19.669882 7.415626 46.005813
3825 3 -17.541304 12.191543 44.876773
3826 2 50.342907 29.747368 0.575591
3827 3 63.854811 35.105123 11.492124
3828 3 51.600311 37.320122 8.218406
3829 2 -1.480869 6.907487 7.977609
3830 3 4.242705 15.320164 12.535136
3831 3 4.156784 15.749954 25.498505
3832 2 38.601495 39.536260 48.692391
3833 3 31.107220 41.774557 57.913771
3834 3 33.124683 43.111228 53.019350
3835 2 31.484654 29.151434 36.487934
3836 3 30.094274 38.233770 46.870844
3837 3 31.682487 31.281675 39.639623
3838 2 65.330514 29.661614 -1.200777
3839 3 65.221665 36.547588 18.100585
3840 3 61.780486 34.179079 9.996046
3841 2 9.379570 -9.899903 100.166482
3842 3 11.774382 -13.462166 93.945322
3843 3 0.997688 -9.068480 103.957619
3844 2 31.087482 -11.987282 71.296737
3845 3 35.563289 -2.557300 70.320433
3846 3 24.765247 4.412282 76.663194
3847 2 8.206177 42.397427 34.929586
3848 3 4.937759 43.669229 31.858989
3849 3 4.883766 42.758434 38.035545
3850 2 -18.739255 9.295697 64.618532
3851 3 -20.660795 6.669393 66.487521
3852 3 -21.276940 10.087844 60.746687
3853 2 -5.075347 5.687410 13.763758
3854 3 -8.962638 3.830978 31.144538
3855 3 -4.496369 4.107620 32.824618
3856 2 12.424417 -14.673719 59.185851
3857 3 18.067165 -11.122557 64.120645
3858 3 9.276049 -8.255124 71.820844
3859 2 42.382239 4.521603 74.201338
3860 3 46.675393 9.605711 69.046600
3861 3 46.095871 8.364512 73.767505
3862 2 27.073738 34.135265 77.567836
3863 3 25.322954 22.171949 73.086817
3864 3 23.879119 30.239868 81.859181
3865 2 32.938155 -0.771331 62.517485
3866 3 24.881907 -6.581937 57.888614
3867 3 28.654642 -12.967035 67.980436
3868 2 47.550430 -13.504111 36.388974
3869 3 43.878084 -13.176287 39.933586
3870 3 45.697452 -11.713594 35.610222
3871 2 68.149277 3.444462 70.184720
3872 3 70.406609 0.492957 68.211821
3873 3 65.603180 3.606287 67.648808
3874 2 20.583941 -26.174221 74.149318
3875 3 22.571174 -28.609582 59.204271
3876 3 29.248479 -22.574637 67.723833
3877 2 76.505583 23.551300 67.068746
3878 3 77.614068 17.096196 68.520938
3879 3 76.778375 17.942961 59.994438
3880 2 -11.984501 34.174311 92.153185
3881 3 -13.044894 37.437795 89.666783
3882 3 -9.854741 43.909183 92.067938
3883 2 -16.876838 18.282205 31.577528
3884 3 -24.612117 16.325593 28.107670
3885 3 -19.503024 14.359007 31.553627
3886 2 5.269364 -0.623442 25.646545
3887 3 9.810566 8.992336 14.953169
3888 3 9.192285 -0.722057 27.425773
3889 2 -22.187003 31.131018 73.383995
3890 3 -23.113218 30.286644 74.041352
3891 3 -17.373522 30.159019 84.136668
3892 2 5.824519 54.776705 -1.796865
3893 3 1.051252 55.875576 6.168555
3894 3 2.957450 58.007205 4.112900
3895 2 5.795958 -22.353612 45.737398
3896 3 0.192648 -14.256825 41.284871
3897 3 7.372068 -17.871625 49.989240
3898 2 33.670511 19.838060 25.378549
3899 3 30.727021 12.795666 34.712937
3900 3 36.834402 21.159121 35.620214
3901 2 85.675282 23.168161 -2.866412
3902 3 82.210016 20.413078 -7.036737
3903 3 82.475672 23.924182 -14.127732
3904 2 -33.067578 -15.447332 -32.635121
3905 3 -28.619134 -23.021981 -37.634076
3906 3 -33.474905 -16.124390 -26.319539
3907 2 54.589355 57.796911 4.146667
3908 3 49.384323 57.799644 5.704076
3909 3 41.275131 54.633112 6.444993
3910 2 44.149436 18.520701 37.284616
3911 3 36.937260 28.577814 39.002793
3912 3 45.705198 18.068965 35.364157
3913 2 33.211719 -16.864778 11.983653
3914 3 27.835094 -14.675890 -1.078399
3915 3 29.887860 1.244115 3.255911
3916 2 83.144335 3.773553 2.067996
3917 3 86.944215 -4.884918 5.799357
3918 3 82.334820 3.759276 0.604684
3919 2 0.985314 -21.851852 45.197367
3920 3 -6.678083 -23.290648 40.633873
3921 3 4.073615 -11.882160 50.185657
3922 2 -30.436816 24.589517 12.341523
3923 3 -28.412093 23.687707 10.693008
3924 3 -35.038761 25.875852 6.846930
3925 2 39.861554 55.842545 8.763403
3926 3 40.711378 63.199499 9.398441
3927 3 38.696042 58.162422 12.407839
3928 2 10.313205 15.446585 69.070250
3929 3 13.649835 9.133766 84.416119
3930 3 10.068192 11.192774 77.333006
3931 2 51.426221 15.598154 46.315055
3932 3 56.241853 22.457247 51.801034
3933 3 53.132340 24.711702 53.879472
3934 2 55.211515 8.003459 77.148193
3935 3 56.475238 11.903923 85.139072
3936 3 57.143806 5.982813 79.917400
3937 2 14.967859 45.997087 40.914192
3938 3 7.311019 53.189929 35.571028
3939 3 9.820022 55.524730 38.174835
3940 2 60.918891 -3.741244 70.867822
3941 3 53.290163 -5.054780 78.978032
3942 3 55.825205 -4.371964 64.035167
3943 2 12.676891 -57.969708 4.836505
3944 3 15.569217 -53.211528 -0.627895
3945 3 12.810399 -51.477753 14.869246
3946 2 86.575546 27.652234 42.965101
3947 3 96.677992 25.958172 48.256437
3948 3 96.612016 24.314204 47.514002
3949 2 55.989385 44.970545 54.012987
3950 3 59.343228 28.439429 54.924899
3951 3 56.074302 43.430233 57.169678
3952 2 46.317711 -46.900419 -5.831789
3953 3 57.149546 -47.611775 -5.221770
3954 3 58.177256 -45.733171 -3.050625
3955 2 61.206400 -6.569585 43.348375
3956 3 62.590703 -11.424305 43.594793
3957 3 63.369910 -5.161089 36.165554
3958 2 32.811144 12.504691 -31.296310
3959 3 37.397682 3.610114 -22.511749
3960 3 40.236688 4.971166 -21.387532
3961 2 -47.952563 41.869918 48.317457
3962 3 -45.523002 42.724454 48.254917
3963 3 -50.471191 49.999905 53.884012
3964 2 -24.514126 35.357685 46.306431
3965 3 -24.383541 28.110987 50.903309
3966 3 -17.706347 33.870473 46.305963
3967 2 31.881483 25.149271 90.046658
3968 3 37.386583 35.781800 88.496399
3969 3 36.101777 27.937502 83.202250
3970 2 49.914970 33.351742 51.434499
3971 3 43.735689 32.922820 51.681083
3972 3 53.665898 30.343732 51.225370
3973 2 75.356233 -8.697427 16.590164
3974 3 77.076803 -10.258323 12.021694
3975 3 67.789002 -10.738106 7.691370
3976 2 17.946585 23.531144 61.286105
3977 3 11.840784 20.708268 76.306292
3978 3 9.053542 24.780499 70.054571
3979 2 41.091339 -5.108518 28.923365
3980 3 44.654731 -7.466072 19.718585
3981 3 47.020900 -8.134420 17.213302
3982 2 32.127423 -27.154870 67.923752
3983 3 35.235044 -32.542847 61.248814
3984 3 31.715895 -28.004562 68.129738
3985 2 59.613284 71.239269 -1.307959
3986 3 69.839940 65.910396 5.565333
3987 3 63.266280 63.968432 0.732282
3988 2 38.435122 51.806533 60.385116
3989 3 27.557716 42.061028 54.112269
3990 3 38.460081 46.644358 51.162309
3991 2 50.769184 -1.598104 66.175309
3992 3 45.088871 -3.222415 62.966010
3993 3 47.891344 -5.960844 67.546106
3994 2 39.319304 25.276764 45.795637
3995 3 42.022653 30.938170 49.038774
3996 3 38.050250 30.319437 58.611242
3997 2 10.736342 80.830306 7.541070
3998 3 4.672834 82.556441 12.012158
3999 3 9.489803 86.453672 12.339498
4000 2 8.555398 26.387574 47.112393
4001 3 13.535527 20.876919 35.017186
4002 3 7.884243 23.814472 38.638504
4003 2 24.666089 -26.992747 45.666622
4004 3 22.883038 -22.097211 45.272433
4005 3 27.603841 -16.782884 39.204793
4006 2 75.753312 -6.861524 72.888539
4007 3 72.856820 -6.199787 90.741753
4008 3 74.982911 -6.824757 88.180755
4009 2 75.992426 47.029448 5.974214
4010 3 81.425750 50.655810 12.636347
4011 3 78.351967 52.249864 -2.115422
4012 2 -9.339322 22.730722 71.927910
4013 3 -5.664354 25.704831 67.302746
4014 3 -11.989663 30.758508 62.388517
4015 2 -6.945418 72.873722 63.928230
4016 3 -8.844028 70.269555 69.871770
4017 3 -5.863999 63.974100 63.655260
4018 2 51.383740 53.045751 37.251882
4019 3 54.561248 50.379706 44.381211
4020 3 56.085364 53.837677 48.736719
4021 2 23.383794 -40.438169 74.009334
4022 3 19.002226 -37.196449 58.917439
4023 3 27.047018 -41.269501 69.058699
4024 2 17.691671 23.607286 52.110418
4025 3 15.225669 20.966289 42.260538
4026 3 19.889716 27.180874 46.163677
4027 2 81.676245 15.064570 2.969589
4028 3 76.543975 7.911653 4.950533
4029 3 73.253727 12.878806 14.926975
4030 2 4.611624 92.925398 -22.039819
4031 3 6.374361 87.842849 -13.312585
4032 3 8.798773 77.248344 -11.431843
4033 2 -13.516684 68.322784 52.109835
4034 3 -15.710841 61.630569 51.458309
4035 3 -13.942253 75.978536 37.289405
4036 2 -8.086729 -1.117021 38.020292
4037 3 -15.295515 -5.027337 37.716539
4038 3 -7.289869 -3.194829 43.482192
4039 2 59.842772 -3.620741 63.952637
4040 3 73.645623 -7.257362 65.295724
4041 3 59.060601 -8.025367 58.962203
4042 2 62.752849 7.811544 71.426420
4043 3 63.617404 5.156898 82.280955
4044 3 62.808377 4.783112 79.196473
4045 2 -33.399352 31.293554 51.914987
4046 3 -35.432437 27.012482 56.706842
4047 3 -33.709224 21.473345 57.480400
4048 2 47.158488 49.249004 41.717349
4049 3 55.424460 50.684590 41.604840
4050 3 54.063938 61.868383 37.263624
4051 2 -53.704774 11.536423 12.398765
4052 3 -46.130816 20.156472 11.482248
4053 3 -47.658066 23.970425 12.722025
4054 2 22.304720 -7.745617 68.607412
4055 3 28.022169 -2.898803 82.807604
4056 3 26.951219 -13.554479 86.488206
4057 2 49.711097 -19.761594 57.627084
4058 3 58.039239 -16.466103 54.882637
4059 3 53.759251 -17.952801 51.339507
4060 2 57.158738 1.223709 16.287138
4061 3 51.515372 10.389229 8.334216
4062 3 59.509919 1.217352 4.470055
4063 2 39.093560 19.323418 30.566331
4064 3 47.710700 20.226175 29.285538
4065 3 36.113487 28.638162 27.153230
4066 2 60.029975 6.202511 15.361793
4067 3 64.834348 -3.585024 9.463981
4068 3 58.254953 0.735857 9.955476
4069 2 26.008535 54.787265 71.018162
4070 3 30.919000 63.295776 77.929767
4071 3 35.801837 56.012091 74.790109
4072 2 -12.128379 25.263835 0.144796
4073 3 -13.392256 31.399281 -14.696760
4074 3 -7.939841 34.525970 -1.442417
4075 2 59.621989 47.297726 7.762099
4076 3 60.506511 48.052632 12.539409
4077 3 61.604711 41.544347 10.701357
4078 2 23.772100 21.832867 43.554481
4079 3 30.341586 29.982383 47.279254
4080 3 26.304413 29.422345 49.978308
4081 2 23.205886 45.807805 54.277617
4082 3 25.042531 47.958806 61.154655
4083 3 18.718423 45.084339 72.407263
4084 2 -17.795532 49.893635 44.458897
4085 3 -13.247482 52.561415 51.928862
4086 3 -9.964675 48.694216 40.896231
4087 2 12.723543 43.996174 14.977186
4088 3 17.938556 38.607694 14.247982
4089 3 11.863129 39.204784 5.170701
4090 2 -38.641612 46.233426 61.854053
4091 3 -38.240361 46.178812 68.810404
4092 3 -31.918697 44.066648 59.543635
4093 2 5.234832 12.062106 -5.410875
4094 3 6.382132 15.102125 -5.493149
4095 3 -0.858798 23.160716 -10.439516
4096 2 -13.997839 23.124769 -3.305845
4097 3 -8.758198 23.935744 -1.657303
4098 3 -6.119404 31.472907 7.446037
4099 2 31.302050 61.592337 37.320195
4100 3 30.670731 65.697061 36.934634
4101 3 29.482175 65.741301 45.633460
4102 2 28.607531 38.325503 -1.453762
4103 3 25.309141 41.785694 -4.069128
4104 3 32.740228 38.331108 2.866560
4105 2 27.296187 5.284696 45.938946
4106 3 27.208246 13.289214 42.858025
4107 3 26.553913 13.590436 43.961210
4108 2 57.082849 29.472095 82.169507
4109 3 63.562616 26.311511 87.517060
4110 3 64.203547 26.790438 76.356720
4111 2 -5.771763 -7.261175 23.755320
4112 3 -11.117496 -8.444391 18.847819
4113 3 3.886970 -9.852344 17.417000
4114 2 30.304372 72.394111 61.420023
4115 3 29.396633 64.239004 57.276652
4116 3 30.332434 60.133882 57.564000
4117 2 -59.751526 26.457587 62.282526
4118 3 -65.968334 22.899240 64.630936
4119 3 -63.452423 28.924644 67.998606
4120 2 28.868584 49.136969 55.680418
4121 3 26.715964 55.086656 58.179208
4122 3 28.326275 53.117523 57.264635
4123 2 -13.487455 71.670778 25.667234
4124 3 -11.718516 74.177809 13.021018
4125 3 -7.792978 67.561193 27.347561
4126 2 15.273151 46.084677 32.411197
4127 3 9.583759 36.557773 23.143574
4128 3 9.457211 43.081918 28.924519
4129 2 25.299019 9.291455 51.839362
4130 3 23.578845 15.694696 69.530076
4131 3 22.099628 8.637435 53.559730
4132 2 24.851033 34.157145 30.199695
4133 3 18.596325 38.095164 30.797117
4134 3 24.163224 47.010783 36.053206
4135 2 16.667048 22.363634 50.622457
4136 3 18.176856 14.279453 43.974016
4137 3 22.764406 16.621338 49.518083
4138 2 0.712557 32.560972 10.648309
4139 3 2.630555 37.291416 18.195260
4140 3 1.561275 32.175013 25.500557
4141 2 33.022667 13.007348 17.475240
4142 3 31.172841 18.486137 22.775796
4143 3 28.514817 15.133504 31.600766
4144 2 -3.619481 51.767048 57.029857
4145 3 -14.507409 53.270276 40.120885
4146 3 -7.303904 52.084532 42.183151
4147 2 8.438775 54.311610 17.158075
4148 3 8.802883 70.251154 11.252458
4149 3 2.408265 70.576286 16.444509
4150 2 -9.955936 14.482776 0.668996
4151 3 -4.539068 9.694576 9.447905
4152 3 -4.716992 9.859928 13.422156
4153 2 52.993790 78.608333 49.260600
4154 3 57.290613 73.307208 45.925447
4155 3 54.430241 76.023225 43.824856
4156 2 -30.093219 12.453130 85.374654
4157 3 -24.223010 15.996001 72.534178
4158 3 -25.560169 14.947168 81.325668
4159 2 27.821765 16.582058 30.214046
4160 3 27.633152 19.318364 30.670274
4161 3 19.812800 22.403045 28.316973
4162 2 -16.881546 35.370375 30.365531
4163 3 -21.636239 38.122140 31.857965
4164 3 -20.591355 40.289746 30.546984
4165 2 37.305510 34.738221 36.297437
4166 3 40.835104 46.494175 39.577180
4167 3 42.847324 36.489091 41.217884
4168 2 3.423066 54.977600 -6.136060
4169 3 0.036944 60.355974 -4.560183
4170 3 -2.965491 65.757467 -1.207157
4171 2 51.203870 59.545506 63.931519
4172 3 50.028539 53.475409 75.595974
4173 3 54.237839 54.406116 74.948157
4174 2 -1.767947 43.123908 54.553311
4175 3 -10.448005 40.902353 54.765330
4176 3 -2.136956 35.010227 55.224167
4177 2 4.063293 27.682584 64.560492
4178 3 7.199584 32.771540 54.314091
4179 3 11.550344 28.993282 66.563551
4180 2 33.920783 23.564108 70.412705
4181 3 31.720056 16.720316 71.849315
4182 3 27.192984 25.449179 77.399681
4183 2 -24.330134 78.436791 47.517973
4184 3 -33.184500 71.609570 45.045509
4185 3 -32.783595 76.319237 40.730362
4186 2 46.663878 22.089343 23.393908
4187 3 47.379832 24.838538 21.904875
4188 3 50.700028 24.752651 21.209223
4189 2 -12.537370 17.321658 68.682824
4190 3 -2.957171 23.316111 67.222693
4191 3 -1.405639 31.178269 56.020008
4192 2 55.165053 17.924232 52.263987
4193 3 62.687701 16.076636 61.465050
4194 3 60.863755 9.449223 53.038540
4195 2 8.775346 63.495370 51.524514
4196 3 7.235236 51.633480 43.157213
4197 3 10.303357 55.524809 43.095197
4198 2 -58.144822 13.247547 36.298690
4199 3 -62.188783 13.666111 26.527740
4200 3 -54.577763 20.600678 28.908843
4201 2 -1.687703 -10.103194 5.187502
4202 3 -10.922180 -5.122175 4.399489
4203 3 0.893484 -9.457878 5.886083
4204 2 8.107221 40.238949 82.581266
4205 3 10.756256 32.230898 69.267656
4206 3 10.145593 41.985204 91.221913
4207 2 52.717556 57.018664 66.003399
4208 3 57.016829 73.129299 64.766146
4209 3 53.243500 77.423711 60.736391
4210 2 -12.769119 54.907793 82.213551
4211 3 -12.243526 50.794164 74.851678
4212 3 -7.508178 50.785514 80.394746
4213 2 50.467955 40.939313 27.422182
4214 3 55.029519 50.724557 39.586503
4215 3 48.369928 56.500750 46.281101
4216 2 28.283053 18.679251 46.694351
4217 3 27.776734 27.891061 48.677470
4218 3 30.160464 19.530308 43.547130
4219 2 35.724859 50.527319 11.982171
4220 3 37.625061 52.430753 11.204274
4221 3 31.163887 41.478077 7.860039
4222 2 -3.463674 66.185825 55.215548
4223 3 -4.142262 67.408402 61.076535
4224 3 -2.908934 62.023611 60.601523
4225 2 -49.030358 72.964522 28.592925
4226 3 -51.889979 76.262529 32.428506
4227 3 -45.592874 69.323944 27.749738
4228 2 94.582603 57.213306 45.184594
4229 3 93.910939 61.823366 32.228276
4230 3 91.881188 57.672456 31.104139
4231 2 57.587452 17.967291 5.452420
4232 3 66.746440 23.484033 0.392033
4233 3 64.070337 16.721916 7.284837
4234 2 -13.075337 0.273943 41.417449
4235 3 -19.597669 -5.070133 48.262786
4236 3 -19.224473 -13.086457 38.294523
4237 2 8.554060 -35.036384 90.425366
4238 3 17.929269 -31.913511 97.789088
4239 3 13.163381 -46.934515 95.994183
4240 2 6.470960 1.743095 51.286438
4241 3 4.254077 -4.239371 53.066644
4242 3 8.925927 1.439370 61.820508
4243 2 37.025650 19.056272 0.206976
4244 3 44.575380 11.690780 12.274724
4245 3 38.121682 -2.235123 2.797002
4246 2 -20.038209 -22.521851 54.630179
4247 3 -18.958657 -26.532187 58.896155
4248 3 -23.012174 -19.342723 63.275971
4249 2 16.297114 13.313639 94.848008
4250 3 9.926025 17.869869 107.064327
4251 3 15.253005 9.944327 110.910229
4252 2 13.864579 -40.826118 12.996962
4253 3 7.812589 -39.142585 11.453444
4254 3 11.043107 -44.957738 8.052500
4255 2 -34.218905 8.376167 9.178301
4256 3 -31.876604 5.429669 15.660451
4257 3 -28.128532 -1.416441 3.384476
4258 2 56.039123 -47.272118 90.960217
4259 3 60.077667 -52.690667 91.814900
4260 3 58.809482 -46.065613 99.615495
4261 2 -3.143238 13.887057 84.136174
4262 3 -7.366300 11.346027 68.948132
4263 3 -2.089707 15.719322 83.444022
4264 2 10.122821 7.629757 76.898707
4265 3 13.985483 3.002310 78.383582
4266 3 13.191988 5.201948 74.844066
4267 2 4.660031 8.512323 42.819161
4268 3 4.490638 9.360854 52.694996
4269 3 4.493938 0.843362 53.037174
4270 2 26.452699 23.109592 65.527879
4271 3 31.259387 25.645232 56.581979
4272 3 34.601305 26.855680 65.850835
4273 2 29.470858 25.694516 30.019701
4274 3 34.688223 25.635322 30.570065
4275 3 35.551224 26.993019 33.646930
4276 2 9.754754 54.692702 75.930121
4277 3 17.882699 63.558647 73.487445
4278 3 18.390860 65.763960 70.654284
4279 2 -32.598847 -16.977761 26.758840
4280 3 -23.589332 -18.264815 26.204978
4281 3 -24.170847 -13.020691 22.407854
4282 2 -25.288039 32.220188 65.127763
4283 3 -19.691285 29.842413 76.616022
4284 3 -26.335950 27.497963 73.398674
4285 2 4.293252 39.726374 39.946897
4286 3 9.111550 37.108204 39.119767
4287 3 8.968623 46.056919 41.179110
4288 2 12.394969 54.323105 52.186986
4289 3 14.120245 52.163378 48.341898
4290 3 11.226137 48.048089 63.808621
4291 2 34.061187 16.541586 30.997269
4292 3 37.416119 15.381442 36.009244
4293 3 35.355473 13.156516 36.252794
4294 2 26.837799 8.335129 95.224853
4295 3 22.291855 12.152509 84.334558
4296 3 24.891685 17.174674 90.545925
4297 2 4.610028 -0.988436 57.588933
4298 3 5.348539 -2.815503 63.800332
4299 3 -4.133644 -2.918605 53.372878
4300 2 44.526683 -16.424949 32.221163
4301 3 37.563941 -13.064661 32.800974
4302 3 48.204550 -20.150633 36.004759
4303 2 53.146585 -6.254853 40.767477
4304 3 64.617924 -6.377285 42.579197
4305 3 66.526575 -6.267299 55.000405
4306 2 69.643151 79.560475 50.337879
4307 3 68.375687 71.157181 37.425905
4308 3 66.366164 76.365405 34.945764
4309 2 98.566714 4.262411 6.228034
4310 3 96.342206 -1.988570 -1.412343
4311 3 92.480368 9.737296 -3.248840
4312 2 -0.930920 29.615196 33.569335
4313 3 -6.031444 37.617430 38.928915
4314 3 -5.001826 29.869294 33.818043
4315 2 -4.038150 41.224800 12.999781
4316 3 -17.082434 28.368329 20.639927
4317 3 -7.814371 31.596414 11.379116
4318 2 -12.023467 29.059873 44.451094
4319 3 -12.417320 22.055520 41.459463
4320 3 -13.972794 35.793993 38.224625
4321 2 -2.209830 35.800622 29.418979
4322 3 -7.929728 26.741731 37.770348
4323 3 -1.861734 29.295893 33.192969
4324 2 42.179289 62.880764 80.413147
4325 3 36.941387 59.349789 75.542114
4326 3 37.889429 59.674617 70.849218
4327 2 32.391575 -7.906057 29.525778
4328 3 26.603724 -8.417978 13.497496
4329 3 33.051963 -9.189040 12.064481
4330 2 48.088764 -2.204481 64.989679
4331 3 45.314070 -12.296685 63.783356
4332 3 38.019494 -3.524317 49.737218
4333 2 57.098268 -9.095794 47.226595
4334 3 58.343586 -7.813645 46.446849
4335 3 58.544846 -9.952219 45.155417
4336 2 83.021601 28.803213 25.362120
4337 3 84.371043 30.077088 21.072048
4338 3 85.565600 31.442762 19.475275
4339 2 33.474926 -16.838315 67.611046
4340 3 26.069455 -22.434993 61.367366
4341 3 32.787545 -11.642405 71.459633
4342 2 84.497338 26.863519 33.792085
4343 3 87.767515 37.285889 40.566612
4344 3 86.951173 34.433573 27.140001
4345 2 15.971488 -4.502051 112.074311
4346 3 20.534874 3.358873 103.780575
4347 3 19.131116 0.498305 98.611832
4348 2 54.431233 53.957320 -0.488476
4349 3 65.775303 48.933724 -5.892712
4350 3 60.306912 48.035151 5.254578
4351 2 -28.249426 35.781841 -9.158235
4352 3 -28.552335 24.414740 -5.194341
4353 3 -32.803007 31.056231 -0.875100
4354 2 -15.964948 -52.341364 85.797475
4355 3 -12.852902 -42.737102 74.834661
4356 3 -10.926558 -53.277233 94.179867
4357 2 -37.549993 82.824344 53.907840
4358 3 -36.628252 86.389836 58.180541
4359 3 -35.632333 81.645746 53.989279
4360 2 50.209768 -31.953088 73.231469
4361 3 52.833714 -35.190076 67.783307
4362 3 48.579570 -44.924281 66.667877
4363 2 -28.829382 -14.589469 71.825503
4364 3 -28.084593 -12.421372 74.773687
4365 3 -29.921049 -17.732335 74.522351
4366 2 -1.112622 25.858272 1.506080
4367 3 -1.312713 19.338688 1.935200
4368 3 4.959660 27.096945 0.100459
4369 2 4.459535 52.929522 -7.366614
4370 3 2.544755 49.885512 -13.727765
4371 3 -2.161347 55.411184 2.459229
4372 2 74.380835 -15.220967 51.209930
4373 3 81.454529 -5.202465 47.316155
4374 3 79.035075 -9.424796 43.146073
4375 2 7.222624 12.346558 86.756600
4376 3 15.580480 15.033666 102.802828
4377 3 9.965086 18.227706 90.148359
4378 2 49.679147 24.376505 45.515775
4379 3 46.089031 25.807050 45.307773
4380 3 43.398709 24.156152 36.323127
4381 2 16.490353 13.326481 86.656878
4382 3 19.006757 17.457002 93.308872
4383 3 17.294987 7.873211 93.125955
4384 2 20.043072 -18.748232 56.757946
4385 3 21.471029 -8.268852 53.676697
4386 3 18.659968 -13.848032 56.171393
4387 2 -18.295276 0.084131 40.873305
4388 3 -25.310222 3.031078 38.564585
4389 3 -18.595775 2.922480 46.674054
4390 2 51.120848 51.214461 -15.991817
4391 3 48.612009 40.992663 -14.062606
4392 3 45.249508 36.427284 -12.246650
4393 2 -1.999036 37.508240 64.066111
4394 3 -0.204465 27.114119 65.729515
4395 3 -2.381412 40.517982 75.094978
4396 2 71.855237 2.766986 38.630883
4397 3 78.905020 7.707649 35.730176
4398 3 69.703618 -6.216211 40.841388
4399 2 62.126591 24.104890 14.425400
4400 3 65.200188 20.323080 6.010019
4401 3 60.843800 22.900781 6.622031
4402 2 55.777350 -16.846674 58.061424
4403 3 53.459276 -11.718263 50.208389
4404 3 58.039821 -7.298505 62.358667
4405 2 102.966717 -51.704737 62.518583
4406 3 96.754907 -43.674424 66.449404
4407 3 96.753256 -47.999628 70.294388
4408 2 -9.079515 44.426429 66.597475
4409 3 -3.032307 42.014083 71.698740
4410 3 -5.430330 41.890075 78.876114
4411 2 -57.961813 -3.572281 64.084498
4412 3 -65.166048 -2.861325 59.551454
4413 3 -60.738713 -5.363507 61.522467
4414 2 -26.696444 79.713168 85.433021
4415 3 -28.314672 76.504866 93.105405
4416 3 -23.714265 60.435295 77.572131
4417 2 8.813099 34.798989 74.723517
4418 3 -1.015665 37.375281 78.370029
4419 3 1.648002 35.264796 80.246883
4420 2 92.625668 66.038496 60.428695
4421 3 93.819493 60.726187 71.285942
4422 3 90.794690 57.415226 64.756140
4423 2 86.958796 18.767068 44.507951
4424 3 88.961648 27.963678 49.651366
4425 3 85.937345 15.219732 44.700513
4426 2 -2.326157 34.391532 63.461688
4427 3 -3.435883 35.202968 63.486690
4428 3 -1.916487 31.637339 61.587135
4429 2 -14.677933 37.309460 28.135189
4430 3 -11.574558 35.421996 40.273172
4431 3 -3.922254 30.866531 22.720724
4432 2 14.973696 41.794432 39.581117
4433 3 12.594816 49.161206 50.619782
4434 3 17.133962 34.273143 49.286269
4435 2 27.427831 2.589514 75.498411
4436 3 22.911875 -1.568087 77.192431
4437 3 23.313369 4.468969 77.535144
4438 2 71.932152 -10.057545 66.124433
4439 3 65.455731 0.177415 70.343654
4440 3 68.895878 -12.953739 62.100195
4441 2 120.353826 -5.679572 58.649619
4442 3 113.509694 -13.887149 49.561799
4443 3 123.842232 -2.418909 62.734976
4444 2 23.990840 72.534727 89.232665
4445 3 13.328323 73.503780 92.814845
4446 3 20.104301 71.851686 89.950986
4447 2 44.007651 39.971087 -4.230753
4448 3 41.743586 45.424634 -2.786295
4449 3 51.573189 42.527868 -0.610419
4450 2 -3.157199 -12.936942 39.064152
4451 3 -3.833658 -10.443971 37.530109
4452 3 -8.639209 -5.884488 39.360674
4453 2 40.074837 -0.154888 44.379522
4454 3 39.383789 6.866259 35.886831
4455 3 46.655118 0.857215 43.837784
4456 2 27.692647 -10.775252 18.237622
4457 3 30.391583 -16.662991 22.531959
4458 3 29.552879 -18.704432 25.814752
4459 2 57.193538 27.225097 38.036918
4460 3 53.091695 29.191181 42.304594
4461 3 62.507110 33.335172 49.341313
4462 2 -15.763232 46.860414 33.647210
4463 3 -12.323886 37.882714 28.386000
4464 3 -13.167359 36.136797 25.414527
4465 2 48.922116 50.393574 29.242815
4466 3 52.096215 55.844126 27.326095
4467 3 52.194755 45.280868 34.008521
4468 2 19.809210 57.889836 2.430644
4469 3 29.695118 54.324405 8.701683
4470 3 25.506894 63.346798 8.365624
4471 2 -1.258618 -26.623120 77.121004
4472 3 3.285941 -17.789286 65.876829
4473 3 -1.064079 -21.023192 71.475354
4474 2 46.914035 22.735674 13.913140
4475 3 47.369756 22.040686 10.534230
4476 3 47.190417 28.207130 7.870371
4477 2 -25.559534 41.811606 68.757839
4478 3 -27.972730 36.545469 74.611893
4479 3 -27.747038 39.932609 64.107479
4480 2 18.274864 3.028480 84.919814
4481 3 18.557256 -2.788559 91.106502
4482 3 21.891412 -4.670821 87.553872
4483 2 70.686445 57.473181 1.750237
4484 3 64.840476 48.843152 11.620658
4485 3 65.468426 52.526825 11.804812
4486 2 2.576089 4.228761 -4.982961
4487 3 11.070127 -1.233417 -1.250549
4488 3 10.800188 4.873242 10.059628
4489 2 -25.721887 45.926904 33.616699
4490 3 -34.776100 32.418322 28.516222
4491 3 -28.628196 41.874584 27.886966
4492 2 41.027642 -15.642669 31.373019
4493 3 42.255781 -12.642226 28.231873
4494 3 43.469272 -9.510059 26.908957
4495 2 -24.969000 13.641298 40.821428
4496 3 -14.863701 11.163337 35.429903
4497 3 -27.185675 22.153675 33.431887
4498 2 21.989042 1.001099 81.556268
4499 3 21.053575 2.503499 80.043490
4500 3 19.029823 -1.911371 79.400138
4501 2 -4.624634 7.694245 49.208495
4502 3 0.196492 14.966654 52.894812
4503 3 -2.954243 7.929809 40.860935
4504 2 37.065531 50.971955 57.994580
4505 3 32.944545 50.260695 61.848767
4506 3 40.067287 54.408370 47.078714
4507 2 7.998448 74.564001 59.091065
4508 3 4.623239 83.249342 59.965492
4509 3 16.421033 73.199588 58.391818
4510 2 51.565770 63.489634 61.710661
4511 3 45.089004 54.563541 58.506556
4512 3 49.936434 68.950200 69.078544
4513 2 38.858906 -25.906348 82.908959
4514 3 38.931591 -24.067420 83.505859
4515 3 34.798437 -20.342629 84.326827
4516 2 36.928686 40.634937 95.156521
4517 3 34.055702 44.858048 97.311632
4518 3 34.897747 50.829210 94.611946
4519 2 4.200809 7.457090 41.365117
4520 3 12.538664 2.323477 33.461503
4521 3 2.757891 -4.666459 29.436312
4522 2 13.102127 53.070579 59.004987
4523 3 19.214935 46.632054 59.385790
4524 3 19.773187 43.447389 60.653575
4525 2 27.367950 74.595600 15.323146
4526 3 29.832666 83.055366 19.176482
4527 3 33.703627 77.094363 28.667462
4528 2 75.105306 -26.683074 41.546016
4529 3 79.238532 -25.032478 29.807695
4530 3 75.308264 -21.054779 36.074164
4531 2 9.511532 1.337443 40.454592
4532 3 11.408529 -3.084199 25.664502
4533 3 13.548109 -2.093049 30.111485
4534 2 21.138775 15.974103 72.058876
4535 3 20.477717 8.860723 77.032155
4536 3 22.056937 17.968703 79.742916
4537 2 1.673970 -2.053922 85.994078
4538 3 0.976973 -8.556200 87.694760
4539 3 -1.890886 -4.606446 97.479284
4540 2 0.368433 37.024385 20.341189
4541 3 -2.919233 25.918136 13.197700
4542 3 -3.025821 33.052830 19.062026
4543 2 58.463242 4.651129 66.730950
4544 3 57.647093 4.938309 67.247432
4545 3 58.171457 -2.617273 71.875313
4546 2 86.357619 -16.872323 73.438589
4547 3 92.914921 -15.487905 61.887589
4548 3 96.764083 -13.922860 63.970079
4549 2 -22.621008 66.434761 83.314777
4550 3 -16.020177 68.880226 89.129091
4551 3 -18.883055 70.311352 81.215617
4552 2 9.165347 26.110051 113.505722
4553 3 13.339267 25.888108 118.298566
4554 3 11.753415 18.350979 121.048666
4555 2 22.793772 49.600166 46.487392
4556 3 20.412530 52.277144 41.944979
4557 3 19.924217 43.883180 47.983139
4558 2 42.598608 -3.815926 13.102866
4559 3 41.363510 -3.194489 9.164064
4560 3 37.875207 -1.422927 7.462165
4561 2 -18.022259 28.602412 49.405170
4562 3 -17.386171 33.944147 55.618720
4563 3 -20.877615 37.467075 54.236624
4564 2 39.689706 50.843718 40.138733
4565 3 35.308779 47.263495 37.248342
4566 3 39.389907 46.900596 37.090470
4567 2 -10.262582 29.264308 34.819501
4568 3 -16.646109 32.719815 41.220723
4569 3 -20.595447 36.667527 41.445694
4570 2 0.030856 38.357734 75.720270
4571 3 7.298859 32.777682 85.103487
4572 3 -4.995797 25.226762 70.871563
4573 2 22.126225 61.254966 29.013303
4574 3 24.166953 73.016787 40.084902
4575 3 28.143943 64.814129 35.283685
4576 2 27.436347 11.007017 32.815590
4577 3 22.527517 2.496020 28.667675
4578 3 30.300574 9.384184 29.080793
4579 2 -6.169618 72.116123 66.648092
4580 3 -2.477434 74.225626 58.104689
4581 3 -3.459256 70.388479 61.933170
4582 2 -13.255536 34.358424 23.435961
4583 3 -13.940398 28.044014 26.592404
4584 3 -12.218836 31.182592 23.502699
4585 2 46.492414 -6.247767 19.729845
4586 3 49.567432 -13.058146 36.418059
4587 3 52.731711 -11.495038 21.397186
4588 2 12.116597 -2.519443 52.184278
4589 3 1.571985 -0.433587 63.686148
4590 3 4.469127 -7.782174 59.675209
4591 2 28.855020 58.765986 35.722648
4592 3 27.874715 65.111757 27.462204
4593 3 33.489362 63.993436 25.015398
4594 2 15.111041 54.353889 54.440636
4595 3 15.036875 50.444484 60.557123
4596 3 6.370406 47.987806 55.283602
4597 2 15.778388 48.186236 75.534258
4598 3 9.659092 55.263885 82.226292
4599 3 9.393205 47.852167 80.655031
4600 2 -15.358019 31.261825 24.049402
4601 3 -14.091451 28.985525 21.831159
4602 3 -20.452605 23.360713 25.641660
4603 2 -12.066134 34.348550 87.754202
4604 3 -7.672022 35.796023 93.288086
4605 3 -13.676307 36.850691 101.905935
4606 2 9.113378 49.797023 78.816948
4607 3 10.919460 46.402539 82.285079
4608 3 1.475044 42.421012 84.057141
4609 2 -1.916022 82.342677 16.550082
4610 3 0.268477 90.546711 18.598848
4611 3 -3.157912 87.348474 15.189841
4612 2 26.842428 33.685240 17.562206
4613 3 27.665775 35.025773 16.280055
4614 3 31.392375 40.216515 16.047761
4615 2 32.464019 62.363632 29.589392
4616 3 31.518948 74.373378 36.325938
4617 3 29.504438 69.367208 34.464603
4618 2 39.250827 98.401114 57.562556
4619 3 32.949894 84.351284 53.684728
4620 3 40.124349 85.175736 69.999977
4621 2 41.353289 33.597917 56.484505
4622 3 51.939406 40.279915 54.547139
4623 3 46.272145 36.130569 53.603910
4624 2 74.027326 76.748697 62.519741
4625 3 73.976004 82.050591 55.687199
4626 3 76.343193 78.245065 51.622889
4627 2 -13.572086 78.455002 30.259805
4628 3 -17.854994 74.168774 22.311938
4629 3 -19.048212 84.052026 26.814236
4630 2 83.987096 -8.132506 27.678429
4631 3 80.632381 -16.509025 16.915540
4632 3 80.872142 -9.196254 25.599754
4633 2 13.745570 22.005904 68.661974
4634 3 4.836254 13.730560 66.901066
4635 3 8.721526 19.757760 66.867391
4636 2 48.117149 -12.570416 28.777723
4637 3 45.978619 -9.568953 36.990141
4638 3 46.637545 -4.436816 35.262769
4639 2 13.830236 43.084811 89.125751
4640 3 13.760325 40.001992 97.165056
4641 3 17.189850 47.905791 86.959832
4642 2 14.134280 -3.675533 13.621257
4643 3 12.353378 -1.492215 9.458136
4644 3 15.279404 10.696810 1.105400
4645 2 67.268474 26.055099 54.641651
4646 3 62.000412 23.934336 57.904377
4647 3 62.288789 26.479880 54.939040
4648 2 3.447146 -6.918409 60.044013
4649 3 -2.202900 -1.755696 85.546190
4650 3 7.215176 2.815231 73.940278
4651 2 -47.549710 -16.589980 33.117089
4652 3 -49.247410 -7.300427 37.602854
4653 3 -52.761206 -18.416531 36.233221
4654 2 -15.300140 -25.178846 22.257649
4655 3 -5.675590 -25.180663 24.433772
4656 3 -6.837913 -25.793950 41.193389
4657 2 23.251289 32.981323 58.464857
4658 3 20.342921 33.673154 63.502106
4659 3 18.846766 28.773729 65.144725
4660 2 25.197697 25.107974 39.353771
4661 3 23.299837 24.455624 40.890013
4662 3 18.025385 17.892935 50.225556
4663 2 39.830547 -43.578587 37.572319
4664 3 39.573778 -48.956753 32.008877
4665 3 41.848011 -45.665854 25.611613
4666 2 25.863141 22.169875 39.528114
4667 3 27.963322 15.257222 41.184452
4668 3 31.710861 25.837141 33.957819
4669 2 25.032868 15.880605 61.531194
4670 3 26.379871 20.125263 56.474135
4671 3 31.500770 20.670629 59.149977
4672 2 -16.507448 33.248961 30.434983
4673 3 -18.577167 29.569140 34.301442
4674 3 -12.824259 31.836594 29.859383
4675 2 -17.416626 39.217871 65.931907
4676 3 -18.362435 40.123953 67.219413
4677 3 -22.535539 36.628863 59.674264
4678 2 49.866661 11.516625 39.847994
4679 3 53.578701 12.050549 31.980616
4680 3 53.485168 13.588423 36.983380
4681 2 29.385944 13.573637 18.899864
4682 3 33.011170 17.753109 23.293024
4683 3 30.362792 13.031669 22.805762
4684 2 -14.006146 31.407007 95.405430
4685 3 -15.783134 25.187400 102.280146
4686 3 -9.356451 16.927954 87.779624
4687 2 -30.820047 4.547772 78.130936
4688 3 -34.834133 0.812768 77.123924
4689 3 -28.684084 3.277901 79.059672
4690 2 58.381736 15.788145 54.772916
4691 3 61.773325 21.244623 53.180286
4692 3 60.313053 13.745147 52.230380
4693 2 -0.281452 -21.090072 15.166058
4694 3 -0.345774 -19.361789 14.395227
4695 3 8.116726 -22.603643 14.451295
4696 2 60.640775 10.667350 25.939661
4697 3 60.951075 4.950212 18.813292
4698 3 67.416342 9.976705 23.745743
4699 2 19.013960 -11.669292 8.846822
4700 3 17.492529 -15.972827 10.609852
4701 3 14.625032 -14.187589 8.117172
4702 2 65.630120 26.385028 2.436927
4703 3 59.342023 29.845924 22.626434
4704 3 65.258745 28.039081 22.857271
4705 2 48.363738 -46.306365 10.842616
4706 3 46.164220 -43.636234 7.826337
4707 3 45.752508 -51.654791 1.541249
4708 2 55.392497 -29.144609 44.431994
4709 3 59.339783 -18.530871 49.162137
4710 3 60.355725 -25.812575 49.346982
4711 2 -14.764866 26.827375 65.308903
4712 3 -10.601887 21.844262 71.260686
4713 3 -3.596564 27.900682 74.437736
4714 2 17.131588 -15.017230 56.751435
4715 3 22.641263 -18.162840 53.875422
4716 3 15.085144 -20.225301 49.348892
4717 2 0.200068 1.737616 107.773057
4718 3 -0.690109 4.091763 110.738093
4719 3 0.267635 0.148070 116.256735
4720 2 17.540152 53.321199 66.628930
4721 3 19.464940 39.535960 67.284968
4722 3 23.391142 40.562684 61.183407
4723 2 -3.333909 41.524942 59.560061
4724 3 -2.047865 42.554721 53.768578
4725 3 -3.771323 46.164070 60.059411
4726 2 20.445170 20.522667 42.531204
4727 3 21.772540 16.688531 46.769099
4728 3 16.996328 25.979853 45.324684
4729 2 -61.678529 61.317204 68.815806
4730 3 -61.630301 65.345789 61.324069
4731 3 -63.351401 62.181040 66.036621
4732 2 7.437632 -3.059507 29.777168
4733 3 9.859903 3.375184 22.267525
4734 3 11.847700 3.637771 34.242354
4735 2 6.784640 -30.797878 16.898385
4736 3 4.654627 -37.217149 12.934791
4737 3 7.907076 -34.727387 8.776299
4738 2 28.476841 11.669171 74.178264
4739 3 24.549944 9.244800 52.654091
4740 3 19.050622 6.599869 54.136521
4741 2 45.339358 -5.189013 110.540991
4742 3 39.138134 -10.944667 109.905532
4743 3 42.619317 -19.485548 98.214142
4744 2 78.176260 11.938740 46.543577
4745 3 70.002952 3.824751 48.198547
4746 3 63.145118 22.047315 53.025840
4747 2 50.219058 2.293513 18.054993
4748 3 48.222877 3.877016 28.713039
4749 3 49.051172 -5.553422 27.002613
4750 2 -52.071239 19.348373 60.840680
4751 3 -55.465616 14.139790 61.476287
4752 3 -53.484383 26.398661 51.196281
4753 2 -0.100026 33.450011 57.000542
4754 3 3.860705 42.450628 67.606087
4755 3 6.973100 34.620283 53.143765
4756 2 13.348447 24.755719 51.306202
4757 3 15.889802 18.812922 52.785747
4758 3 12.942239 21.585585 51.407147
4759 2 19.708832 63.703369 12.390969
4760 3 24.247070 55.950495 5.747748
4761 3 27.076512 55.793545 16.673999
4762 2 31.942246 -30.613229 25.911257
4763 3 29.154123 -34.355129 33.454290
4764 3 32.984961 -32.092773 21.295204
4765 2 31.679435 12.221742 84.152190
4766 3 31.805050 3.600990 71.666758
4767 3 33.133345 9.556112 79.498126
4768 2 53.616878 -8.646597 -21.886628
4769 3 49.881883 0.992226 -20.501752
4770 3 46.080588 -6.906592 -19.828002
4771 2 27.908099 40.126711 52.967607
4772 3 33.518725 42.270931 63.441128
4773 3 33.612201 45.794927 49.737704
4774 2 71.000650 4.036126 55.995112
4775 3 65.773692 0.166741 71.297834
4776 3 60.726819 3.295618 61.540254
4777 2 38.063842 -38.262379 -1.966780
4778 3 43.673720 -38.961696 2.129665
4779 3 37.141905 -41.314977 -4.883970
4780 2 24.446019 7.794508 29.710556
4781 3 17.870078 9.166946 42.093610
4782 3 21.430615 4.811731 49.031589
4783 2 48.418132 -24.620719 6.174830
4784 3 46.215252 -25.218552 16.680310
4785 3 50.471803 -25.295850 11.963535
4786 2 28.846274 27.547751 42.616815
4787 3 30.667067 27.408717 41.874888
4788 3 24.065874 22.050144 46.067527
4789 2 -1.771585 39.896083 50.695046
4790 3 -5.803981 32.981293 36.822782
4791 3 -0.851475 28.994105 42.645665
4792 2 -23.486962 42.837395 74.409072
4793 3 -19.734703 37.149035 68.613155
4794 3 -19.687054 38.913747 69.497694
4795 2 -19.183018 -19.639534 47.625367
4796 3 -24.129983 -23.003903 45.734610
4797 3 -24.026381 -17.855178 47.007871
4798 2 6.512906 49.288096 37.232762
4799 3 9.206848 41.458570 37.135080
4800 3 16.344256 53.228981 25.784166
4801 2 24.192855 -2.433670 19.437435
4802 3 22.719582 -1.182548 21.733106
4803 3 20.563030 2.780514 13.772209
4804 2 28.329506 10.205012 50.955862
4805 3 27.375103 8.174203 53.188047
4806 3 26.453326 7.180396 45.042361
4807 2 61.991729 47.007322 89.838259
4808 3 67.277940 47.759377 81.545714
4809 3 61.886084 54.992834 91.317977
4810 2 97.770972 -11.079307 54.120766
4811 3 93.163093 -12.372585 49.384155
4812 3 101.074791 -8.739259 57.250690
4813 2 56.312849 40.339968 54.389388
4814 3 60.271982 45.155632 46.351603
4815 3 56.058057 42.397731 42.748533
4816 2 -25.695367 28.830894 72.143975
4817 3 -18.401663 36.938439 56.984639
4818 3 -22.290072 27.605260 62.021475
4819 2 18.063419 74.694496 52.545710
4820 3 11.292163 65.732738 56.642470
4821 3 17.949133 78.414931 61.102875
4822 2 -23.521294 -2.636130 78.291799
4823 3 -29.840101 2.379734 80.191154
4824 3 -26.742257 -1.797641 85.136724
4825 2 24.087968 49.469131 95.574997
4826 3 18.654915 51.830906 93.322475
4827 3 18.742911 57.202290 91.492244
4828 2 99.879278 22.605397 53.881553
4829 3 101.690622 27.180395 53.489285
4830 3 103.427911 18.861281 59.324899
4831 2 42.064497 4.110495 107.990862
4832 3 37.633804 12.295187 105.010742
4833 3 43.283186 -1.238216 92.676716
4834 2 13.270887 -30.702425 19.936502
4835 3 14.811191 -34.530309 29.501607
4836 3 17.399001 -27.376484 29.758179
4837 2 93.225440 -0.439079 85.046615
4838 3 93.808283 0.673352 69.876816
4839 3 94.630647 -0.974511 81.849383
4840 2 20.277847 53.189796 31.437735
4841 3 26.727390 45.118783 31.421344
4842 3 16.443414 43.635690 40.148817
4843 2 -4.909306 -2.771635 64.262608
4844 3 4.568722 -11.858544 60.034889
4845 3 -0.741016 2.718085 62.839906
4846 2 20.131953 68.843553 54.656195
4847 3 16.825230 68.678294 61.062295
4848 3 16.283126 65.685764 60.279268
4849 2 33.307494 18.656610 63.121179
4850 3 43.008636 17.634672 72.978025
4851 3 42.443082 9.619842 65.767996
4852 2 0.761237 42.952689 16.638893
4853 3 -2.276057 44.472137 19.709358
4854 3 -3.398790 35.966957 18.170214
4855 2 -11.475400 49.828053 66.554307
4856 3 -7.327229 48.826184 51.666862
4857 3 -14.725182 41.877300 57.597123
4858 2 77.835587 3.166011 66.599108
4859 3 78.769900 -2.986420 56.220180
4860 3 81.749833 5.495450 72.139999
4861 2 58.978731 62.198228 37.571873
4862 3 61.027550 68.370631 49.255399
4863 3 53.071953 62.632747 45.415381
4864 2 -34.341577 3.156223 49.983428
4865 3 -30.666270 4.126795 41.581803
4866 3 -29.793340 18.860851 54.189242
4867 2 -30.547419 46.621414 98.742304
4868 3 -36.239690 48.212860 97.515606
4869 3 -32.637163 38.231814 104.635416
4870 2 -8.453435 11.974621 17.880032
4871 3 -9.592585 16.459681 21.328102
4872 3 -7.044891 13.695205 22.094546
4873 2 -15.584592 75.655274 36.184132
4874 3 -11.109137 73.826176 28.030533
4875 3 -6.153202 69.942751 42.332956
4876 2 73.999015 17.366784 93.271092
4877 3 68.005277 22.097293 89.137892
4878 3 75.240544 12.174992 96.862189
4879 2 3.066799 55.367943 62.825583
4880 3 -3.164651 53.181723 58.262774
4881 3 3.583645 47.934103 57.161347
4882 2 46.381697 36.939207 67.431991
4883 3 52.416016 30.886194 73.429534
4884 3 47.004492 30.632020 73.471895
4885 2 26.806794 40.596417 53.323838
4886 3 26.026023 41.864309 43.001485
4887 3 30.759543 36.546706 45.839815
4888 2 -0.861634 0.288759 73.187452
4889 3 -3.197988 4.046736 57.168628
4890 3 -6.534585 5.217298 60.301807
4891 2 18.618446 63.482150 75.274434
4892 3 17.625884 57.636339 75.079312
4893 3 19.778077 65.501062 80.568617
4894 2 -4.727075 26.533218 11.363392
4895 3 -4.072891 35.768477 8.517203
4896 3 -9.441756 22.909377 12.524938
4897 2 2.102155 27.557776 9.538489
4898 3 -1.244800 32.048402 2.094602
4899 3 1.124492 35.888207 4.535267
4900 2 -28.659520 31.477089 43.515553
4901 3 -19.654953 31.466659 41.984588
4902 3 -22.816398 28.631089 46.679663
4903 2 -19.486028 45.981820 28.589213
4904 3 -10.877480 43.209497 29.526981
4905 3 -13.809708 40.908485 27.787855
4906 2 27.670209 48.677668 53.598656
4907 3 15.990303 44.662059 47.891185
4908 3 23.646217 51.764550 54.519111
4909 2 77.403702 29.467807 48.349731
4910 3 84.026666 25.982825 47.812855
4911 3 89.351140 23.660368 46.854341
4912 2 -5.262627 71.546236 62.691665
4913 3 0.603380 73.176325 63.072836
4914 3 -4.861439 79.975955 55.299335
4915 2 30.429182 -9.169983 18.824294
4916 3 27.976809 -6.861329 18.569163
4917 3 28.591668 -11.929916 30.927610
4918 2 14.553060 -13.100597 34.938136
4919 3 10.482772 -4.713334 24.233260
4920 3 15.592665 -9.058093 23.740404
4921 2 63.884037 14.396876 75.894062
4922 3 59.060111 16.581389 73.401658
4923 3 56.616253 8.864890 75.212201
4924 2 7.573703 -3.006408 48.390495
4925 3 3.420689 3.752951 40.696346
4926 3 -0.020443 -0.550040 45.074569
4927 2 64.659679 69.818189 82.148407
4928 3 65.915009 65.902923 81.627386
4929 3 60.168938 69.967727 76.804760
4930 2 48.784684 36.758078 53.298089
4931 3 43.672044 42.919517 55.691768
4932 3 48.684706 36.105858 57.325140
4933 2 58.256805 33.532572 30.197261
4934 3 53.311328 35.119703 21.897662
4935 3 55.000034 33.084167 25.814621
4936 2 26.193808 25.655325 29.219016
4937 3 20.904708 26.258000 30.303796
4938 3 16.340859 21.023046 18.441098
4939 2 -4.418040 26.299084 30.724275
4940 3 -8.497756 25.346893 28.037531
4941 3 -14.326334 18.940116 33.993254
4942 2 21.068242 82.768473 11.799676
4943 3 17.057276 86.305932 14.472944
4944 3 23.002403 95.525673 24.999908
4945 2 -7.075938 21.780007 111.803015
4946 3 -2.294272 14.153780 104.134913
4947 3 5.878731 14.617518 102.200969
4948 2 47.828787 3.184151 -0.906350
4949 3 42.125308 12.656436 -4.763549
4950 3 43.263934 3.623555 -3.441534
4951 2 44.641968 35.327065 37.238763
4952 3 41.889697 37.808814 30.240253
4953 3 44.870636 43.644499 30.491060
4954 2 31.199374 79.271639 75.486818
4955 3 40.876066 72.611825 77.886760
4956 3 36.552311 73.977131 85.047749
4957 2 -16.914618 46.533467 68.745684
4958 3 -24.927622 46.153968 69.588098
4959 3 -27.090513 44.754057 75.515986
4960 2 34.726650 43.636787 74.328345
4961 3 36.993181 46.816732 77.347329
4962 3 41.371677 45.040262 73.036974
4963 2 3.086959 55.916046 38.433066
4964 3 0.303366 57.368466 36.126918
4965 3 -8.267301 53.432924 35.240678
4966 2 22.608424 38.138676 3.806965
4967 3 22.015196 25.886633 5.441850
4968 3 20.626568 33.627976 14.638823
4969 2 -9.299182 31.222516 60.103013
4970 3 -4.968824 26.141674 56.788509
4971 3 -3.623938 20.332318 53.340392
4972 2 -10.434706 27.018734 54.596497
4973 3 -2.294448 24.981041 49.864763
4974 3 -2.129091 25.999980 45.127091
4975 2 27.315449 -18.995431 35.630665
4976 3 25.141634 -15.245587 27.988636
4977 3 28.033121 -17.463671 26.242870
4978 2 55.456335 5.779271 67.614732
4979 3 58.678882 6.050518 65.948620
4980 3 55.955331 4.636494 71.188554
4981 2 10.817016 55.147929 39.944044
4982 3 11.645785 60.759131 38.829234
4983 3 8.570175 62.302879 51.150451
4984 2 50.937644 -4.171151 70.525796
4985 3 46.685148 -17.313700 68.277453
4986 3 46.505882 -14.964380 61.438839
4987 2 8.812033 12.175218 53.801071
4988 3 12.413209 14.186620 41.088754
4989 3 11.839238 18.528126 57.161651
4990 2 -22.414590 27.276553 39.244089
4991 3 -14.367368 34.893379 38.087849
4992 3 -16.246260 29.664585 48.102882
4993 2 42.755002 72.563749 12.879494
4994 3 45.593246 73.227594 13.554183
4995 3 38.468804 68.607643 10.232521
4996 2 47.623081 62.023424 -0.559017
4997 3 40.692370 56.846852 15.145769
4998 3 43.406295 55.095201 2.142613
4999 2 -12.643039 56.538240 63.590896
5000 3 -4.709021 52.263319 62.094258
5001 3 -4.662860 45.054098 60.974035
5002 2 32.200759 41.161577 46.123125
5003 3 30.053143 45.074840 38.314804
5004 3 28.373075 33.590695 45.535190
5005 2 32.729498 47.506737 57.574811
5006 3 29.922397 39.347601 53.237805
5007 3 25.772547 45.642211 48.814862
5008 2 28.383068 31.339765 33.335978
5009 3 22.613448 46.036036 41.347869
5010 3 27.068048 38.899921 38.411457
5011 2 4.146076 42.383078 65.374776
5012 3 -3.547579 36.541723 63.377612
5013 3 9.089459 40.993159 74.585447
5014 2 -3.394501 32.460582 39.997379
5015 3 -11.352487 34.022030 50.124503
5016 3 -14.120480 38.932450 44.724920
5017 2 39.522380 38.943848 43.668114
5018 3 34.748095 42.280194 36.364015
5019 3 31.483504 28.080985 31.641621
5020 2 79.916125 8.150803 27.315071
5021 3 76.709348 22.875195 20.510260
5022 3 69.240711 17.314634 28.289591
5023 2 18.177746 57.980449 64.221926
5024 3 18.979653 51.097605 59.025889
5025 3 18.641127 50.200723 60.275868
5026 2 15.649515 84.880462 72.102431
5027 3 15.314869 86.369843 77.946119
5028 3 17.206772 92.482246 72.613341
5029 2 -22.638568 26.983409 14.952269
5030 3 -25.376565 32.041303 6.296656
5031 3 -20.482157 28.175265 10.574736
5032 2 -22.070303 49.071226 28.439639
5033 3 -23.298674 47.237942 27.800646
5034 3 -28.006612 41.760580 37.456046
5035 2 35.708431 40.295623 -1.270121
5036 3 36.657554 41.254747 -3.339344
5037 3 38.978579 33.192298 -8.749896
5038 2 -18.114158 63.745716 29.325753
5039 3 -4.305684 60.178240 28.576099
5040 3 -12.265758 56.382126 45.537794
5041 2 -20.453455 64.899619 93.900300
5042 3 -11.623440 79.086797 85.868270
5043 3 -10.081813 67.171523 85.655830
5044 2 42.880333 8.670622 105.549680
5045 3 42.861965 15.566748 106.325538
5046 3 43.913827 6.169637 112.016363
5047 2 -16.222546 12.522245 50.263537
5048 3 -21.441006 19.129034 55.527721
5049 3 -22.325171 9.343953 59.871379
5050 2 -10.904429 22.533755 4.867224
5051 3 -13.287197 16.233068 7.537435
5052 3 -6.484271 22.179151 12.106299
5053 2 -33.647167 70.533034 35.521598
5054 3 -30.660329 70.543327 26.607980
5055 3 -25.890261 78.223247 25.763504
5056 2 50.060437 -0.523894 55.220574
5057 3 49.147379 -10.414195 54.661030
5058 3 46.274786 -4.321227 49.563179
5059 2 65.513022 -2.738250 35.232183
5060 3 60.083932 -5.464004 32.837409
5061 3 63.225148 2.738907 39.195138
5062 2 49.184823 26.993534 63.584147
5063 3 49.787485 30.976597 57.706392
5064 3 41.501661 29.781230 61.182166
5065 2 43.015410 74.514196 49.942329
5066 3 33.231206 74.323903 49.010948
5067 3 33.937040 80.498040 38.186366
5068 2 -13.134131 -1.137543 60.968661
5069 3 -2.330893 -4.732313 52.728306
5070 3 -14.136303 2.767869 58.386338
5071 2 16.894748 -29.415409 56.879520
5072 3 15.715040 -22.240356 57.148848
5073 3 22.921904 -28.065649 63.120820
5074 2 -32.078899 -26.883569 25.505171
5075 3 -28.287320 -28.521150 22.367873
5076 3 -28.211776 -20.044625 17.297024
5077 2 28.880420 -49.841080 73.782899
5078 3 21.311531 -52.146270 77.247357
5079 3 31.407972 -54.056734 80.118634
5080 2 30.422971 -12.904910 -0.925019
5081 3 30.615307 -10.962547 14.085451
5082 3 30.814736 -4.026003 0.271755
5083 2 22.992426 2.579116 117.953796
5084 3 31.424357 13.693218 126.316366
5085 3 27.544642 11.763478 121.497181
5086 2 18.108924 -15.564474 30.748867
5087 3 20.954410 -22.263839 34.806742
5088 3 22.446566 -14.312762 34.730565
5089 2 9.155446 -26.125723 51.493358
5090 3 0.312630 -18.376894 42.377365
5091 3 1.919440 -17.978260 53.463220
5092 2 6.770941 8.686903 70.406935
5093 3 12.258584 14.822773 74.715352
5094 3 12.038004 11.903545 83.833806
5095 2 73.097592 35.531357 16.846536
5096 3 63.873712 42.585679 21.195545
5097 3 67.888465 36.210874 18.764468
5098 2 3.684696 -18.796581 62.398310
5099 3 5.472726 -18.823531 60.555712
5100 3 -1.154627 -18.019962 65.258350
5101 2 53.341442 34.650472 42.401329
5102 3 54.499326 35.215411 32.547469
5103 3 57.237008 31.740156 38.447241
5104 2 22.907186 -15.054226 42.599893
5105 3 25.316499 -21.126034 48.179980
5106 3 20.230646 -12.440320 50.178214
5107 2 -66.465893 39.368129 119.945124
5108 3 -70.240760 40.050264 122.892436
5109 3 -76.691091 45.013786 137.256660
5110 2 19.317744 7.082520 55.357829
5111 3 12.255146 10.088866 46.944201
5112 3 12.732852 12.515952 47.607557
5113 2 48.491109 -9.602131 37.258556
5114 3 44.991068 -10.217536 35.476844
5115 3 43.364020 -8.522739 29.426309
5116 2 60.358110 18.413603 -0.522008
5117 3 61.403414 15.950822 5.395898
5118 3 60.838075 17.520990 2.564808
5119 2 63.019130 14.841677 20.688274
5120 3 62.946880 20.734067 20.277761
5121 3 68.355776 20.333563 30.613289
5122 2 2.292023 16.476940 17.781061
5123 3 1.072198 22.599246 15.224016
5124 3 1.419930 14.490839 12.969976
5125 2 27.127082 39.644148 40.188465
5126 3 22.977121 39.831594 38.532856
5127 3 21.605877 37.139449 38.590888
5128 2 -24.919546 45.200515 84.758205
5129 3 -34.547006 52.352937 81.988412
5130 3 -24.445272 44.303499 81.691422
5131 2 95.120768 30.761566 50.890512
5132 3 94.327307 22.730141 49.704166
5133 3 84.980884 26.218795 44.473640
5134 2 -18.975299 -2.374771 17.938561
5135 3 -22.695720 -6.972227 16.596890
5136 3 -8.859483 -6.372809 17.349543
5137 2 66.980609 -46.945576 91.439505
5138 3 72.523376 -43.154711 86.346299
5139 3 70.861505 -38.909720 89.310397
5140 2 33.587951 -8.399155 66.366247
5141 3 34.755607 -11.451970 68.826969
5142 3 38.189493 -3.797247 68.391005
5143 2 -5.314134 -53.503207 69.531576
5144 3 -6.666160 -58.640818 68.114871
5145 3 -0.806433 -51.216178 77.948781
5146 2 8.104981 -7.047965 12.711668
5147 3 11.221472 -0.401969 19.892771
5148 3 7.456756 -9.020759 15.701765
5149 2 15.384330 50.641060 60.641245
5150 3 12.303360 52.206832 50.978705
5151 3 15.229593 49.471488 59.707910
5152 2 -38.888761 15.771808 65.282490
5153 3 -29.607205 14.335793 57.478158
5154 3 -36.673005 16.475345 63.717115
5155 2 55.063530 30.534122 30.563782
5156 3 56.046256 34.985551 28.258766
5157 3 59.142362 29.007690 30.246481
5158 2 -1.439071 -5.429946 66.735115
5159 3 -3.548523 -0.695412 71.837151
5160 3 2.313085 -1.630325 71.944208
5161 2 -36.330551 49.311107 75.481075
5162 3 -36.805395 46.303898 94.165419
5163 3 -49.035787 41.684722 79.608670
5164 2 -20.319663 9.011950 47.650187
5165 3 -16.805454 -2.656056 57.666769
5166 3 -21.273085 -4.866776 50.875428
5167 2 48.809975 46.262647 53.062384
5168 3 52.806017 45.427878 51.455776
5169 3 45.943150 46.527570 34.120323
5170 2 2.455327 0.280082 56.590990
5171 3 -8.846573 6.909874 56.117630
5172 3 1.980241 11.219167 55.106609
5173 2 48.845188 -3.365495 51.849984
5174 3 51.301805 0.215826 44.343966
5175 3 49.840443 -4.835544 57.383060
5176 2 29.877823 74.546794 41.366077
5177 3 29.963511 71.978794 43.557867
5178 3 28.812812 60.015436 44.625366
5179 2 52.846200 -23.644205 48.452283
5180 3 58.565744 -28.765266 48.146114
5181 3 59.330262 -27.752539 51.263680
5182 2 86.200123 -52.050445 73.206545
5183 3 82.035079 -43.452582 65.724658
5184 3 87.417525 -54.523239 80.498989
5185 2 -36.401753 19.852538 76.369064
5186 3 -33.979360 31.015690 77.262598
5187 3 -40.682215 16.794074 79.892015
5188 2 -7.659589 92.877018 91.548983
5189 3 -7.012339 93.141322 83.300334
5190 3 -10.809516 94.613302 89.154171
5191 2 -2.977429 44.010081 39.923184
5192 3 -3.967798 43.832808 39.154121
5193 3 -0.932413 36.436065 35.667133
5194 2 27.433267 94.877704 65.240194
5195 3 27.887707 95.431003 53.707106
5196 3 28.208322 95.663036 72.054544
5197 2 3.010112 11.703415 49.184152
5198 3 0.916423 16.123160 55.523350
5199 3 -0.626058 19.390687 53.379726
5200 2 22.216099 52.960759 44.238724
5201 3 19.126265 47.244577 52.377991
5202 3 25.151698 45.543967 53.708976
5203 2 44.679846 -5.484047 27.375356
5204 3 41.910297 -8.527097 38.481321
5205 3 43.446802 -10.838901 32.387776
5206 2 47.189169 7.581972 40.658545
5207 3 49.508142 10.247832 25.459185
5208 3 45.440556 6.626570 28.557709
5209 2 -5.797904 -1.240411 4.131636
5210 3 -12.253935 11.937867 -2.527712
5211 3 -10.485975 -1.187784 1.863947
5212 2 1.010844 10.682977 39.985274
5213 3 -5.216275 8.181536 36.007500
5214 3 4.206870 15.617213 45.407989
5215 2 24.707998 -4.158651 89.080936
5216 3 25.277692 -5.299241 92.359079
5217 3 20.592052 -2.969616 86.995370
5218 2 39.531201 -41.997790 54.835828
5219 3 37.787022 -44.211336 47.814613
5220 3 34.288861 -40.964792 52.743354
5221 2 42.048898 -11.450603 71.068244
5222 3 45.044772 -14.168511 82.398087
5223 3 42.940884 -21.198018 93.944045
5224 2 2.050233 -3.086793 53.904673
5225 3 -2.888485 -12.370445 59.032338
5226 3 -0.040547 -10.605541 52.910538
5227 2 30.541667 64.065390 72.601144
5228 3 32.094162 52.727525 66.618870
5229 3 24.565858 71.156193 74.074653
5230 2 28.900428 30.498761 81.300929
5231 3 22.801703 30.878982 73.006178
5232 3 27.421985 22.373179 70.042854
5233 2 13.693792 14.268177 39.180795
5234 3 14.219839 19.513228 35.492141
5235 3 12.122373 14.217995 42.605986
5236 2 3.367617 29.874250 26.731530
5237 3 1.814874 22.236565 22.036199
5238 3 -0.949727 28.647704 17.553087
5239 2 20.251548 36.555846 65.402255
5240 3 16.947786 39.824598 69.560697
5241 3 18.001453 46.554039 61.216657
5242 2 -6.988558 59.941528 52.941761
5243 3 -8.147303 61.935065 51.671085
5244 3 -3.220008 58.232187 55.328841
5245 2 60.343724 7.385184 44.440062
5246 3 58.054682 2.527883 58.739965
5247 3 66.270752 6.910010 43.980404
5248 2 63.976639 37.515605 14.158125
5249 3 64.536443 28.632816 3.221985
5250 3 58.994519 36.217321 12.648576
5251 2 -11.086523 16.141601 27.175701
5252 3 -16.326882 23.741153 17.549571
5253 3 -14.561825 17.899894 19.215316
5254 2 35.899899 7.363839 56.317088
5255 3 34.329640 7.682820 65.514765
5256 3 31.298836 13.388487 61.820831
5257 2 80.080659 71.371429 15.013515
5258 3 85.122524 76.193061 23.122992
5259 3 84.139010 75.290249 15.338801
5260 2 51.756600 35.575260 65.830289
5261 3 55.808064 35.453749 72.159678
5262 3 50.296614 30.717413 68.977484
5263 2 7.659207 16.706762 60.675971
5264 3 7.359032 9.293164 53.057637
5265 3 11.626056 7.793140 65.189590
5266 2 19.744876 20.331427 58.282568
5267 3 20.217691 8.285145 61.297388
5268 3 15.771837 14.768404 61.709111
5269 2 0.984785 17.373687 106.345143
5270 3 -1.230319 20.375063 116.489716
5271 3 -2.835599 13.011338 111.534875
5272 2 49.928974 10.693651 38.514983
5273 3 40.533985 8.196738 47.308978
5274 3 45.800512 11.851991 37.467898
5275 2 26.271444 59.804690 73.760125
5276 3 29.615119 55.716281 73.056178
5277 3 24.365708 55.827804 74.677590
5278 2 -2.388228 17.151692 76.562674
5279 3 -3.037705 20.741362 71.902576
5280 3 -0.680219 22.501182 73.625934
5281 2 52.839769 6.522533 28.682401
5282 3 48.665873 3.182066 22.447981
5283 3 49.739149 1.283597 23.814280
5284 2 31.134022 44.188624 46.467895
5285 3 33.901522 48.244973 43.611875
5286 3 29.427192 44.683885 47.996069
5287 2 71.077700 24.445503 31.590070
5288 3 66.962595 22.646545 26.424063
5289 3 71.460673 27.533172 31.096277
5290 2 -2.180258 1.711058 55.634457
5291 3 0.458333 -3.752475 59.398512
5292 3 3.393106 -0.235288 56.442991
5293 2 15.535418 34.923823 82.520214
5294 3 11.784169 40.986490 67.863240
5295 3 12.923105 30.503989 76.237218
5296 2 21.725552 4.077469 66.429739
5297 3 19.384667 3.109276 66.249032
5298 3 19.541518 1.479838 65.671544
5299 2 52.212830 28.254679 95.991775
5300 3 48.938638 43.387682 75.074210
5301 3 59.022513 31.275484 79.582275
5302 2 -22.886497 51.149054 9.848229
5303 3 -16.610609 39.198263 22.585938
5304 3 -21.118716 41.949746 26.060168
5305 2 19.713959 -15.851534 33.316011
5306 3 20.735421 -19.124424 45.809660
5307 3 22.175330 -6.880703 35.033754
5308 2 -0.884132 -8.107377 99.666081
5309 3 8.478212 2.699804 97.080206
5310 3 -1.146884 3.947862 90.685401
5311 2 41.838708 90.188794 24.887052
5312 3 43.479981 86.402122 19.587305
5313 3 41.633459 93.431974 32.471071
5314 2 30.933180 52.561722 75.736572
5315 3 31.217715 53.891732 64.978756
5316 3 34.462069 51.799152 59.046176
5317 2 -6.180062 -11.397694 4.157709
5318 3 0.089237 -11.015137 -0.775687
5319 3 -7.042939 -8.042164 2.093991
5320 2 25.919395 68.810970 42.671965
5321 3 23.614776 72.972025 46.036319
5322 3 19.919663 64.601250 48.396068
5323 2 -0.520575 7.787484 55.701617
5324 3 -6.645311 12.399802 67.231910
5325 3 -6.419853 20.093447 60.507262
5326 2 9.334846 45.820396 49.014487
5327 3 10.503392 47.828866 50.012651
5328 3 9.023508 49.018628 43.465470
5329 2 23.552908 19.144116 33.758644
5330 3 28.504809 25.415663 51.713123
5331 3 18.049942 16.895971 41.127228
5332 2 -0.020773 47.836738 83.660784
5333 3 -5.387571 42.888027 92.698816
5334 3 0.947996 53.153762 89.474765
5335 2 41.770979 28.457740 40.910686
5336 3 43.102635 30.774139 35.366481
5337 3 36.973505 25.854066 34.035409
5338 2 21.529615 9.776224 39.401942
5339 3 15.490030 3.107793 47.173272
5340 3 20.741291 7.384199 45.370776
5341 2 58.798288 33.679879 66.555243
5342 3 50.705417 33.178011 66.816534
5343 3 56.040479 41.134565 62.981869
5344 2 23.266242 31.858221 43.712303
5345 3 31.087053 22.215666 38.869958
5346 3 33.832794 37.962949 39.197832
5347 2 -24.647848 47.417131 62.420498
5348 3 -15.735519 43.116894 65.035716
5349 3 -16.717228 43.457196 76.620603
5350 2 -8.711190 33.540774 48.654337
5351 3 -14.528399 30.411961 61.176760
5352 3 -5.134097 35.127576 48.421734
5353 2 -16.341173 7.634655 71.387754
5354 3 -12.017588 6.822570 77.445137
5355 3 -7.247168 8.222476 74.067798
5356 2 4.613790 14.512666 45.281772
5357 3 3.873845 20.159009 38.841149
5358 3 8.147909 20.865811 47.894248
5359 2 51.483977 49.130000 63.255923
5360 3 57.318478 42.358755 73.640433
5361 3 50.379266 41.933071 72.452409
5362 2 21.851655 68.628173 69.557320
5363 3 34.253928 55.120710 69.664571
5364 3 26.475807 55.091468 63.670759
5365 2 8.974472 79.066606 90.662249
5366 3 3.656940 77.158289 87.599217
5367 3 -0.938097 76.652279 85.234310
5368 2 12.277561 32.724292 70.200446
5369 3 8.391838 31.243619 73.613553
5370 3 12.966951 30.051436 69.978255
5371 2 -18.638176 35.992924 47.815976
5372 3 -18.562349 29.810159 35.289523
5373 3 -15.027952 37.874890 43.778778
5374 2 9.779116 82.937004 69.115240
5375 3 8.961334 86.761368 59.377200
5376 3 -0.484376 71.192596 67.104150
5377 2 13.946862 -8.362824 49.458163
5378 3 13.307344 3.707006 46.459121
5379 3 15.477085 -1.359007 61.570091
5380 2 7.174672 15.207873 71.324483
5381 3 1.543385 21.353580 53.139134
5382 3 10.445358 19.058639 70.434907
5383 2 69.668682 54.734050 1.174438
5384 3 67.711319 53.595534 18.812341
5385 3 66.301559 49.405226 12.942550
5386 2 -23.424107 72.905454 76.590670
5387 3 -14.575629 74.437726 72.726487
5388 3 -19.953828 75.593632 76.686125
5389 2 47.299315 -7.689297 46.034688
5390 3 47.709628 2.517312 46.274228
5391 3 42.509477 4.012363 44.621634
5392 2 -25.180139 76.846415 17.112900
5393 3 -31.098041 66.340962 17.661690
5394 3 -32.533995 82.341437 22.484817
5395 2 22.960867 69.080307 131.404751
5396 3 26.443478 75.032423 106.843257
5397 3 16.764981 71.799802 115.476790
5398 2 1.100478 4.442931 61.085207
5399 3 3.248409 14.331404 56.324118
5400 3 5.538491 6.596904 57.871413
5401 2 88.207030 27.835321 43.383708
5402 3 89.021184 30.166704 47.809289
5403 3 88.399622 31.934066 54.021507
5404 2 -26.431898 9.132097 27.472250
5405 3 -26.177655 12.317612 27.036613
5406 3 -33.149799 13.572845 13.583461
5407 2 4.416958 46.559702 64.486362
5408 3 5.437020 46.621264 55.680229
5409 3 7.118335 51.105302 61.424331
5410 2 10.640098 42.071717 38.074705
5411 3 5.217896 49.036529 42.922339
5412 3 0.349847 49.111025 36.441969
5413 2 14.468970 47.929850 40.577499
5414 3 17.056744 51.112507 53.987325
5415 3 19.159751 46.838621 48.492946
5416 2 -1.590709 -14.779131 78.226272
5417 3 6.585612 -9.326268 74.848278
5418 3 7.247555 -17.382241 78.148544
5419 2 28.819142 36.333911 41.076606
5420 3 33.362597 47.507216 34.549820
5421 3 32.012437 48.424409 35.038179
5422 2 18.980413 42.056288 38.923908
5423 3 18.217625 44.826942 36.625677
5424 3 11.982227 36.782298 35.903726
5425 2 6.224357 16.913477 42.053493
5426 3 2.434308 23.219680 36.574178
5427 3 2.883040 12.365918 45.054085
5428 2 11.269292 40.246967 56.992737
5429 3 12.440128 39.837987 54.867119
5430 3 8.837183 34.337583 52.641143
5431 2 -31.477353 27.588570 64.264425
5432 3 -30.751849 35.963268 52.612298
5433 3 -28.014124 26.932427 69.965039
5434 2 -31.312171 -9.327505 29.481427
5435 3 -33.683828 -14.467371 27.485254
5436 3 -34.133067 -19.108585 39.734672
5437 2 24.043881 62.782840 19.488906
5438 3 20.533483 61.071811 10.922606
5439 3 20.269554 59.974320 22.232013
5440 2 -21.767329 49.995842 29.518088
5441 3 -26.485238 42.693331 43.018553
5442 3 -25.201015 42.717344 34.727534
5443 2 -4.939974 19.381468 78.056558
5444 3 0.393316 15.022976 83.270156
5445 3 -0.994529 22.307249 73.167220
5446 2 78.031045 96.586673 76.873793
5447 3 73.044773 92.717107 69.357530
5448 3 78.670732 90.367330 71.748541
5449 2 -35.732665 40.233943 28.133924
5450 3 -29.203351 43.131777 26.468779
5451 3 -30.157541 46.595124 21.456712
5452 2 32.634316 26.430624 30.657430
5453 3 41.145669 23.257247 26.099228
5454 3 36.387952 37.386692 33.907823
5455 2 -17.676363 31.780593 44.207490
5456 3 -14.027777 36.027037 43.624886
5457 3 -19.566650 32.247911 43.063804
5458 2 -2.528796 20.346217 97.011524
5459 3 -3.082892 28.110539 105.609833
5460 3 -5.862548 38.464958 92.646441
5461 2 45.151859 34.660257 70.742244
5462 3 45.484452 37.478282 66.699637
5463 3 45.539814 42.952818 67.350310
5464 2 15.038741 51.591900 33.355919
5465 3 13.599104 44.773480 41.190652
5466 3 14.683566 37.493211 24.836175
5467 2 5.904091 56.335144 72.598759
5468 3 3.513854 57.145157 63.773213
5469 3 6.832208 60.267953 70.782971
5470 2 -34.828161 43.961957 76.923668
5471 3 -33.379878 53.276689 81.704385
5472 3 -33.296887 46.377542 75.668453
5473 2 -4.380129 17.484636 92.464701
5474 3 -9.553367 28.768747 81.263481
5475 3 -13.115372 8.549466 85.020247
5476 2 33.860834 30.911606 60.162584
5477 3 26.283909 25.821431 56.623002
5478 3 33.174543 24.626011 57.358093
5479 2 54.156909 67.417604 120.423955
5480 3 50.364282 65.731297 101.914174
5481 3 52.496644 69.870279 121.585888
5482 2 35.603846 30.142194 29.804262
5483 3 38.456799 23.543471 45.728747
5484 3 39.117361 30.859568 35.042255
5485 2 24.340185 56.248214 29.181981
5486 3 23.842899 65.718818 46.323653
5487 3 29.957130 66.475592 33.176556
5488 2 49.992014 52.457957 58.705645
5489 3 47.910429 53.472493 63.251241
5490 3 53.571450 59.081738 60.185676
5491 2 51.459561 39.175597 37.286219
5492 3 53.363091 44.373142 33.619588
5493 3 53.037464 48.970849 37.533739
5494 2 18.026971 46.663234 44.012430
5495 3 15.911871 36.061965 57.874038
5496 3 20.576338 39.523108 48.582110
5497 2 48.583507 84.769691 -35.179438
5498 3 52.737551 82.642775 -38.368344
5499 3 53.640838 85.817730 -23.373306
5500 2 -18.141464 30.998411 74.830444
5501 3 -16.466233 34.196135 70.678281
5502 3 -22.473088 42.561755 68.698766
5503 2 -0.837510 81.173045 49.679304
5504 3 -8.662904 80.448892 60.073250
5505 3 -5.938483 73.995452 50.649399
5506 2 24.995841 15.440639 42.702863
5507 3 23.462966 14.773762 55.267199
5508 3 24.232116 18.616054 46.843545
5509 2 50.337426 16.795990 76.799875
5510 3 48.960009 23.240731 72.695276
5511 3 49.261889 16.580619 74.547538
5512 2 26.896886 64.675371 88.848993
5513 3 28.164775 58.707036 80.223482
5514 3 30.838530 59.409394 75.396031
5515 2 -19.760881 60.326919 103.884375
5516 3 -22.639480 59.632722 97.347387
5517 3 -22.084637 57.792536 96.240006
5518 2 -13.877466 64.887102 64.690844
5519 3 -12.824940 68.954065 67.482618
5520 3 -11.540322 67.319966 66.118168
5521 2 -1.838181 120.600791 45.814734
5522 3 0.225479 112.833849 45.389712
5523 3 7.407421 112.627003 42.913923
5524 2 30.173235 31.260518 83.447713
5525 3 28.397917 38.254373 77.677845
5526 3 35.338886 32.064846 75.648257
5527 2 26.538322 99.724009 20.783664
5528 3 32.602725 97.830490 20.371328
5529 3 23.704041 101.885336 20.192615
5530 2 51.735900 54.297573 69.134102
5531 3 48.070797 63.832977 67.193119
5532 3 48.493294 54.132447 60.904920
5533 2 48.542117 73.838616 67.099145
5534 3 47.082430 77.904789 77.140992
5535 3 39.875329 71.613614 71.025178
5536 2 82.838900 32.265863 -3.430719
5537 3 75.054132 22.786155 0.052129
5538 3 76.158193 33.727080 -0.382499
5539 2 95.549491 47.845547 85.357434
5540 3 101.817442 44.541413 97.112252
5541 3 96.254427 40.818831 91.678865
