ITEM: TIMESTEP
601000
ITEM: NUMBER OF ATOMS
5541
ITEM: BOX BOUNDS pp pp pp
-19.1 19.1
-19.1 19.1
-19.1 19.1
ITEM: ATOMS id type xu yu zu
1 1 21.062111 -1000.527203 -1211.535913
2 1 53.727733 -1025.907046 -1177.830077
3 1 18.894352 -1016.005408 -1239.695162
4 1 29.796793 -999.592140 -1217.589998
5 1 22.235727 -966.236738 -1232.936222
6 1 84.923640 -1011.162539 -1216.731992
7 1 60.276875 -991.664991 -1201.195715
8 1 76.245843 -1000.018894 -1247.612132
9 1 62.395355 -975.922597 -1219.817785
10 1 57.170126 -950.036817 -1245.677948
11 1 4.092618 -1066.272960 -1224.949135
12 1 -0.513161 -1018.645236 -1210.447557
13 1 32.024094 -1000.772783 -1223.108686
14 1 39.559877 -971.891455 -1254.849931
15 1 83.421410 -969.953213 -1200.388120
16 1 82.447614 -997.294164 -1287.998525
17 1 2.112812 -1012.046212 -1241.355522
18 1 27.127636 -986.643868 -1211.787521
19 1 40.690582 -980.622910 -1230.546207
20 1 23.477250 -1049.827520 -1268.982327
21 1 8.754731 -937.144497 -1225.586679
22 1 58.300365 -980.988239 -1272.487564
23 1 89.334612 -1044.461016 -1221.930286
24 1 42.248984 -987.513127 -1281.909899
25 1 13.164337 -1015.111031 -1275.517484
26 1 63.398584 -1034.921361 -1241.422686
27 1 15.180889 -1054.054311 -1289.107400
28 1 9.958834 -1017.677271 -1233.940881
29 1 7.219682 -967.363072 -1307.878854
30 1 29.939520 -978.038060 -1289.477615
31 1 90.201026 -1042.228662 -1346.246186
32 1 38.734993 -926.055161 -1246.038864
33 1 21.058979 -997.072851 -1271.802931
34 1 24.341431 -995.050742 -1310.787141
35 1 43.838938 -1014.862410 -1246.617215
36 1 -14.707354 -969.558935 -1239.559652
37 1 45.046257 -1075.572873 -1200.702685
38 1 29.533388 -1034.986071 -1219.459526
39 1 95.149226 -1057.483667 -1233.859694
40 1 19.439096 -1047.022633 -1269.399041
41 1 42.590065 -1036.940977 -1281.575849
42 1 27.657714 -1007.283257 -1207.300726
43 1 30.113331 -1012.477771 -1269.928088
44 1 58.399148 -1001.882574 -1194.611772
45 1 24.101330 -1028.671793 -1284.648430
46 1 46.623556 -1036.825059 -1255.566596
47 1 10.733118 -1001.419999 -1260.893092
48 1 47.067741 -1072.520461 -1228.391784
49 1 65.351365 -1055.467579 -1196.162971
50 1 61.084408 -953.569198 -1259.353775
51 1 60.202345 -1050.736249 -1196.030931
52 1 62.504507 -1006.732497 -1246.071487
53 1 19.145040 -1025.448241 -1223.676557
54 1 50.975917 -1000.768769 -1215.137025
55 1 93.998774 -1034.359533 -1170.281846
56 1 77.440986 -995.130473 -1245.115687
57 1 38.635866 -1001.894008 -1270.936438
58 1 67.315393 -1028.933914 -1265.980158
59 1 33.687000 -1013.009799 -1226.192781
60 1 46.654434 -987.330919 -1241.723523
61 1 166.014203 -1063.972491 -1223.080935
62 1 168.479253 -1029.446116 -1212.674680
63 1 165.151974 -987.067885 -1201.245387
64 1 122.403150 -1014.729464 -1166.205049
65 1 180.952790 -991.658301 -1215.833689
66 1 140.560987 -1080.838299 -1226.436344
67 1 176.657568 -981.066024 -1164.869218
68 1 174.517605 -982.505930 -1107.981227
69 1 142.133279 -1037.740965 -1249.318104
70 1 144.565421 -1005.043119 -1146.489014
71 1 170.035412 -1041.881153 -1192.406865
72 1 192.276847 -984.376179 -1196.542486
73 1 219.213651 -962.829337 -1157.943696
74 1 176.380623 -1024.778158 -1177.774132
75 1 141.208413 -943.468871 -1200.318004
76 1 184.545392 -947.957114 -1150.458570
77 1 159.927277 -971.123395 -1133.004052
78 1 153.528157 -966.564604 -1142.230651
79 1 130.071969 -1045.452943 -1182.169701
80 1 132.184533 -1007.377646 -1211.132337
81 1 171.739213 -1009.786369 -1165.137432
82 1 116.517303 -1020.722141 -1259.560730
83 1 133.234622 -979.284082 -1100.526731
84 1 144.580310 -1007.680758 -1220.056476
85 1 170.271265 -1032.897610 -1172.852762
86 1 123.034875 -962.366397 -1200.910895
87 1 149.179518 -1048.676008 -1166.206820
88 1 160.344545 -1008.979447 -1201.665127
89 1 175.258641 -990.655305 -1248.901538
90 1 171.947656 -981.161750 -1180.537904
91 1 169.167710 -979.773173 -1166.692765
92 1 168.193569 -995.040403 -1285.149284
93 1 189.597241 -1009.878811 -1250.091305
94 1 150.067741 -1029.549141 -1196.999941
95 1 155.079385 -960.325374 -1163.819536
96 1 215.864174 -1038.719635 -1146.134003
97 1 117.265408 -990.373296 -1173.635410
98 1 145.384833 -1010.619929 -1142.924362
99 1 148.519249 -1026.115527 -1196.537689
100 1 149.945698 -989.080384 -1136.463307
101 1 179.721176 -1009.113002 -1179.393160
102 1 156.683994 -982.194425 -1221.444193
103 1 169.982315 -974.880982 -1166.190657
104 1 148.173849 -956.428881 -1199.510999
105 1 176.248546 -1016.488174 -1222.376965
106 1 161.952272 -1022.853782 -1175.238348
107 1 203.834577 -959.106720 -1174.341299
108 1 185.574725 -920.445936 -1167.267868
109 1 100.599355 -988.842042 -1155.998663
110 1 208.082149 -1030.743467 -1223.226187
111 1 156.381436 -977.113032 -1140.667569
112 1 154.731040 -1036.628985 -1154.110018
113 1 158.203288 -1020.306396 -1248.057040
114 1 122.605726 -938.752319 -1170.942197
115 1 185.916477 -1050.324882 -1233.643439
116 1 148.808680 -981.888819 -1147.141024
117 1 129.675925 -999.526640 -1157.797411
118 1 150.552156 -973.524699 -1192.974882
119 1 122.517367 -971.116705 -1211.153963
120 1 152.108178 -1046.176789 -1142.055212
121 1 85.898748 -947.166005 -1161.563998
122 1 112.910058 -932.509866 -1181.949387
123 1 87.940967 -939.021131 -1267.537336
124 1 48.079906 -931.657392 -1164.871506
125 1 96.545522 -958.842652 -1140.478181
126 1 61.672712 -871.833522 -1253.239907
127 1 96.001109 -963.214188 -1208.823584
128 1 38.500772 -925.763543 -1221.293037
129 1 111.702288 -1011.696149 -1237.957157
130 1 88.068058 -1005.930563 -1197.932860
131 1 91.364346 -933.250801 -1137.128159
132 1 78.467355 -974.967586 -1177.134595
133 1 92.935356 -932.699068 -1226.107461
134 1 96.558599 -961.913127 -1235.871227
135 1 55.138889 -920.458829 -1199.446935
136 1 98.186021 -933.895402 -1161.190461
137 1 75.315560 -976.062355 -1224.686973
138 1 84.748475 -919.757851 -1228.765099
139 1 108.788430 -939.556626 -1241.159195
140 1 94.417440 -966.403438 -1255.053047
141 1 100.343079 -962.697546 -1209.099326
142 1 101.799996 -988.075442 -1255.281849
143 1 68.601123 -947.641778 -1190.567375
144 1 88.107128 -959.697862 -1279.684621
145 1 88.673597 -912.048001 -1227.948942
146 1 120.141131 -968.347580 -1229.115387
147 1 109.331383 -917.950426 -1285.763948
148 1 99.353926 -902.498252 -1240.306283
149 1 94.415049 -908.481381 -1217.975786
150 1 91.233379 -881.365817 -1142.027535
151 1 80.272444 -961.673203 -1187.012983
152 1 87.859572 -983.879972 -1305.527810
153 1 48.850605 -958.665248 -1212.937432
154 1 64.991419 -909.069178 -1200.033183
155 1 115.564688 -977.184249 -1218.313453
156 1 103.787152 -933.704801 -1171.354925
157 1 81.889723 -991.875054 -1233.229383
158 1 56.649562 -903.347502 -1197.576816
159 1 78.526509 -1002.080716 -1204.545294
160 1 82.491399 -945.971617 -1176.131633
161 1 64.052546 -950.146835 -1230.271645
162 1 71.512315 -982.704438 -1226.013873
163 1 43.019534 -930.515855 -1189.737195
164 1 71.930649 -986.934513 -1214.974503
165 1 136.833966 -929.920576 -1194.493385
166 1 121.921613 -984.681116 -1171.228346
167 1 82.041759 -985.057270 -1265.723605
168 1 85.070179 -993.744147 -1197.537477
169 1 109.714134 -988.459320 -1191.821724
170 1 91.216043 -957.785893 -1200.536472
171 1 81.764986 -934.739483 -1247.161910
172 1 65.460301 -944.367140 -1208.250326
173 1 126.092000 -952.424255 -1254.430560
174 1 61.106252 -962.835844 -1195.267915
175 1 130.514145 -969.549448 -1139.170618
176 1 123.856998 -935.375509 -1209.644981
177 1 101.313911 -955.449846 -1225.939624
178 1 82.101050 -919.054622 -1212.436579
179 1 59.451927 -925.361906 -1207.801949
180 1 104.897707 -971.639368 -1197.959726
181 2 -103.508237 2.181111 218.389052
182 3 -134.766429 16.283138 197.372023
183 3 -84.858529 -19.806096 140.607179
184 2 -130.099519 -110.741642 147.284498
185 3 -147.971548 -125.546904 118.479089
186 3 -127.824288 -108.075464 152.705125
187 2 -191.524808 223.433589 42.540600
188 3 -185.404149 173.529830 33.200787
189 3 -159.807702 204.218658 91.972441
190 2 -20.742091 257.988380 -234.045443
191 3 25.136698 182.530538 -227.016204
192 3 6.158661 192.078433 -240.727901
193 2 -170.957668 19.162782 65.053965
194 3 -177.520158 -64.074335 156.918640
195 3 -174.965935 -49.005133 128.477081
196 2 -187.626628 -166.214669 -151.398552
197 3 -172.623162 -178.023639 -138.744361
198 3 -185.053906 -184.578738 -108.124880
199 2 -22.624684 78.032178 34.565911
200 3 -56.736202 99.954338 66.926072
201 3 -75.492072 33.457970 50.956314
202 2 77.789725 48.497437 54.572810
203 3 125.569106 28.323594 99.158252
204 3 107.277554 48.487685 61.811504
205 2 -71.738546 55.443687 -141.310257
206 3 -46.812464 60.075315 -106.628482
207 3 -73.972735 80.704423 -74.959716
208 2 86.990022 96.546154 13.375844
209 3 79.629306 123.605195 4.382285
210 3 107.426590 86.346360 -21.780272
211 2 141.321102 -1.777054 -21.422018
212 3 76.041794 -71.143521 -7.161743
213 3 112.115999 -67.525160 22.795218
214 2 363.935147 191.996239 66.595810
215 3 341.612070 144.686087 113.291110
216 3 350.186761 185.954086 85.757412
217 2 224.357507 55.503729 175.638698
218 3 238.191343 3.751176 179.664181
219 3 260.994706 48.450843 156.430288
220 2 -214.704703 -11.896925 -6.722882
221 3 -188.250416 -32.805056 -37.369995
222 3 -219.606900 -80.229449 -28.592307
223 2 -142.859035 -182.548875 -80.806116
224 3 -159.628138 -180.239527 -100.332237
225 3 -176.622272 -220.880927 -60.842976
226 2 -21.162175 -99.344168 132.209458
227 3 75.581247 -123.126702 180.781580
228 3 28.095132 -60.763868 170.919061
229 2 57.042866 -45.554498 26.196708
230 3 48.830281 -21.817927 12.983597
231 3 63.113790 10.500107 -36.393548
232 2 58.299160 230.536134 124.073208
233 3 30.219817 228.257209 23.249815
234 3 75.574308 282.708798 -31.401905
235 2 -65.169530 84.542812 26.280927
236 3 -64.223046 85.392071 39.988561
237 3 -104.484535 58.137635 50.376604
238 2 -116.876011 28.454943 53.452276
239 3 -132.054839 8.812436 -12.115853
240 3 -96.803022 17.313860 58.919515
241 2 -95.825503 -150.164769 -100.658132
242 3 -124.044479 -143.631898 -87.233986
243 3 -117.841943 -173.558445 -128.147093
244 2 -30.047967 -59.082821 -59.635689
245 3 -51.230320 -116.397407 -67.721704
246 3 -80.087287 -123.707201 -123.154380
247 2 78.203868 48.013832 -1.673723
248 3 85.172835 44.939347 -44.220543
249 3 55.535398 45.812862 -108.159126
250 2 340.256898 -167.036750 -127.157998
251 3 322.920124 -141.445097 -249.942581
252 3 344.276763 -151.733243 -99.005208
253 2 -110.674215 -263.129922 -154.438806
254 3 -160.683674 -173.271996 -126.018041
255 3 -94.110190 -250.673935 -147.290239
256 2 -99.210822 14.069242 159.946596
257 3 -51.685814 51.680653 101.344330
258 3 -89.552555 13.272440 129.710394
259 2 -187.434443 244.930896 -40.684778
260 3 -246.440851 225.617943 12.189460
261 3 -164.378649 225.807434 -52.351696
262 2 216.110480 211.092956 -249.501013
263 3 191.034906 192.324377 -220.582015
264 3 209.392372 219.563673 -240.486460
265 2 -179.347358 -69.752108 -279.000354
266 3 -251.732005 -98.419299 -221.323165
267 3 -240.482095 -57.229488 -181.668973
268 2 -381.182542 246.222545 24.186951
269 3 -420.412911 261.355293 -70.685346
270 3 -389.976054 241.309479 19.450362
271 2 -155.780109 -27.995006 66.018598
272 3 -167.302108 -48.707897 163.945749
273 3 -163.764340 9.395017 114.202431
274 2 -107.444304 -112.001773 -22.806188
275 3 -120.632464 -123.452879 -21.329626
276 3 -49.459698 -85.938209 -44.208743
277 2 -43.924421 78.276196 -240.700205
278 3 -64.300288 118.632345 -227.427696
279 3 -42.873821 127.487807 -196.904487
280 2 -218.459332 374.714086 7.128562
281 3 -193.629768 403.466664 -43.396401
282 3 -195.218674 395.991022 43.355532
283 2 -21.626835 27.553051 -153.078877
284 3 -11.607291 61.577540 -164.867406
285 3 -7.398838 32.216718 -111.780526
286 2 -127.694541 -71.631860 219.750734
287 3 -82.641775 -95.778429 251.762222
288 3 -107.257468 -42.718755 218.622116
289 2 -4.793468 -26.357543 184.785180
290 3 26.072664 -0.220314 238.466113
291 3 -6.962110 29.373675 104.000667
292 2 135.665137 -89.791484 211.065581
293 3 126.336580 -99.223690 244.586771
294 3 156.896577 -93.280244 195.013081
295 2 153.699673 130.585094 -306.898344
296 3 103.713780 55.280416 -254.962778
297 3 152.867604 129.047416 -335.903051
298 2 -82.778430 114.000109 113.481633
299 3 -92.768391 145.600777 134.262858
300 3 -100.506575 147.435979 138.869995
301 2 -253.085107 -11.395069 -25.710116
302 3 -262.444564 23.324685 -40.435356
303 3 -272.481607 -3.054355 -2.426417
304 2 -214.918470 -36.269154 -27.351623
305 3 -228.901724 -70.457808 -23.584496
306 3 -269.899443 -32.474583 -43.867418
307 2 -164.946825 151.969881 143.699134
308 3 -148.239311 141.747289 111.377657
309 3 -136.007138 170.049128 135.136870
310 2 -47.147608 66.993595 -4.034166
311 3 -6.142247 67.210465 -56.727070
312 3 -74.550851 -3.913629 -62.860137
313 2 -74.480518 -138.394144 48.981594
314 3 -74.686545 -110.752452 27.261509
315 3 -47.826224 -132.153135 41.330753
316 2 149.416469 -192.633740 92.575540
317 3 126.655073 -159.867763 33.410433
318 3 123.106163 -149.745237 28.691033
319 2 -39.045105 46.706785 103.819887
320 3 -68.580589 88.850422 89.705555
321 3 -41.148629 24.683530 77.836009
322 2 -49.338893 -66.584775 53.689851
323 3 -61.058261 -105.395222 -3.691901
324 3 -81.391378 -72.082233 68.350808
325 2 -130.184414 42.694899 62.843785
326 3 -112.742236 16.286685 86.136632
327 3 -106.109012 -7.965369 139.928451
328 2 -113.317376 84.390557 -186.025222
329 3 -154.606301 132.296899 -147.073985
330 3 -121.110457 120.220068 -201.509262
331 2 -8.353481 -66.968424 -150.115014
332 3 -14.457274 -133.212844 -200.329865
333 3 -48.996957 -101.683803 -175.498458
334 2 47.199596 151.513996 -32.496332
335 3 67.410327 171.253764 -38.934738
336 3 147.306641 161.165630 -59.690011
337 2 -399.360062 194.063231 48.864283
338 3 -359.704057 171.842428 62.551879
339 3 -367.522577 206.622091 97.528467
340 2 -148.396321 147.889189 169.719136
341 3 -129.164855 129.902369 207.090490
342 3 -156.948667 114.755998 256.487247
343 2 10.931641 49.334670 98.233581
344 3 5.862263 36.818561 85.348983
345 3 -14.007906 72.378868 81.896195
346 2 87.303949 50.130679 15.793868
347 3 70.785903 72.793417 54.511778
348 3 64.711161 43.625551 52.556592
349 2 68.019198 -175.510128 82.481484
350 3 99.251116 -181.541758 92.504672
351 3 120.702516 -161.936351 81.705044
352 2 264.473277 0.153730 -40.133449
353 3 264.427649 38.173840 -45.845683
354 3 280.626911 63.931843 -20.918023
355 2 -159.139483 222.353842 193.365655
356 3 -173.170681 188.274640 177.519906
357 3 -170.687069 233.295301 200.502653
358 2 73.211193 -127.702826 -68.274214
359 3 63.005594 -149.195602 -156.927150
360 3 24.245558 -143.205038 -117.307546
361 2 86.764521 165.007023 1.228267
362 3 74.922081 125.213466 3.777623
363 3 69.258314 140.030816 10.032575
364 2 -91.392487 176.008219 275.176739
365 3 -97.008235 184.990789 222.345267
366 3 -131.876667 152.728819 209.233270
367 2 171.040600 89.966568 -1.673799
368 3 150.885279 104.994239 -32.749268
369 3 129.644891 111.613690 -37.023444
370 2 332.583691 -131.126679 73.899361
371 3 284.489065 -74.547684 74.885458
372 3 319.991822 -118.205759 3.223405
373 2 253.787685 114.980740 7.609712
374 3 191.353905 154.535087 -12.127318
375 3 251.184199 83.120680 -8.833400
376 2 -191.249070 265.532853 11.348279
377 3 -216.345080 248.816837 -11.486808
378 3 -201.846537 243.767175 -32.151737
379 2 28.626391 -31.649177 -2.386324
380 3 6.596044 4.718179 51.758011
381 3 -3.580028 52.416187 -19.045432
382 2 30.206357 90.295771 95.837265
383 3 64.595745 51.689544 96.623401
384 3 64.785602 75.712396 95.075979
385 2 53.790942 177.313081 45.063108
386 3 42.198471 220.428675 54.569703
387 3 16.632393 109.574172 67.664930
388 2 -187.129618 35.091511 173.716729
389 3 -170.153478 54.681629 195.689798
390 3 -163.431315 27.137563 152.009680
391 2 -28.329690 -13.406705 -66.083376
392 3 -12.375889 23.998891 -99.619401
393 3 38.681512 10.333035 -107.327396
394 2 -47.273257 287.458099 50.417376
395 3 -126.673638 272.337910 50.413708
396 3 -79.244846 269.846034 115.385593
397 2 125.220638 265.320814 -131.368506
398 3 145.958752 297.851018 -129.444757
399 3 142.884384 209.948225 -117.238103
400 2 -16.636440 129.314024 226.556652
401 3 -2.757132 144.291376 212.846855
402 3 -2.677054 155.202449 263.170387
403 2 -97.970285 30.665169 80.494455
404 3 -138.714735 92.878531 34.888908
405 3 -133.546192 61.728009 46.807151
406 2 128.499985 85.659126 -41.942078
407 3 80.347276 52.363561 -56.550791
408 3 67.147284 122.210422 -61.305634
409 2 102.225786 61.535789 -44.009363
410 3 114.545621 13.546040 -58.054985
411 3 137.136560 28.125355 -71.189687
412 2 172.267542 -54.130710 -239.608416
413 3 176.045589 -4.752546 -197.626558
414 3 135.689159 -13.243224 -234.952290
415 2 -392.075492 -13.508151 115.848463
416 3 -332.587244 28.979485 127.985610
417 3 -357.855460 -31.299638 130.592100
418 2 -278.611953 322.786530 50.289335
419 3 -236.654748 330.298237 16.836643
420 3 -256.384150 328.259008 85.203962
421 2 -148.101171 279.489412 64.943564
422 3 -161.492055 257.089214 77.341765
423 3 -106.996705 275.749067 118.380040
424 2 148.849895 -88.804901 149.251258
425 3 165.942409 -101.135012 173.468627
426 3 148.918620 -91.023023 120.250482
427 2 -313.969717 377.904127 185.588051
428 3 -307.480413 343.709601 180.246923
429 3 -322.664061 366.895374 203.790768
430 2 109.984763 59.624432 12.514572
431 3 140.786438 76.434923 55.846149
432 3 115.504134 73.664094 -1.266650
433 2 87.466320 -68.079318 61.676483
434 3 51.123073 -90.826424 93.678446
435 3 59.735349 -48.188663 89.684257
436 2 -162.773276 221.122127 207.979309
437 3 -169.305546 221.531503 229.209696
438 3 -162.140393 201.945755 193.179256
439 2 -26.129886 73.447737 -243.302451
440 3 -75.809315 72.771758 -265.773052
441 3 -61.746829 44.248459 -227.524641
442 2 -102.147555 204.376935 63.674574
443 3 -57.734266 267.071298 86.421526
444 3 -62.155604 219.676641 82.776785
445 2 89.195949 165.124187 18.639851
446 3 93.615426 135.986120 -11.370509
447 3 83.984114 146.034372 23.290814
448 2 100.001137 255.188952 -275.975508
449 3 141.283819 301.688701 -266.207313
450 3 159.669041 306.352615 -251.464774
451 2 153.063857 207.748606 -70.445991
452 3 189.972812 260.753584 -76.497399
453 3 202.521236 235.090987 -80.941644
454 2 -82.381819 -38.373769 -50.282497
455 3 -70.540162 -12.150777 -104.214618
456 3 -67.626181 -6.519348 -103.517014
457 2 129.288855 252.822010 -32.782329
458 3 156.827606 288.176897 40.316640
459 3 134.214359 212.885739 78.486312
460 2 -258.070794 109.446274 -176.483098
461 3 -253.974956 118.487745 -227.880667
462 3 -278.401391 112.485686 -173.724325
463 2 -216.647242 176.136209 228.483307
464 3 -198.348246 188.789807 151.847839
465 3 -235.607013 151.028569 229.627812
466 2 -52.861341 -139.569040 -156.451132
467 3 -78.766717 -147.742985 -70.902745
468 3 -69.585303 -169.397017 -105.359271
469 2 -16.383069 31.574418 17.967214
470 3 -22.580051 44.220867 53.226941
471 3 -32.012932 0.487527 19.034023
472 2 -91.253460 170.755352 147.418734
473 3 -48.724584 201.933576 99.403291
474 3 -149.764263 70.991257 109.815552
475 2 21.556079 50.176969 203.272699
476 3 24.837557 59.540002 218.703986
477 3 55.807398 130.847467 211.255542
478 2 -80.533759 303.316684 41.064739
479 3 -99.913527 260.463714 68.676629
480 3 -72.550933 331.239382 17.483153
481 2 -58.291830 170.257701 66.999916
482 3 -20.748318 134.673709 20.183810
483 3 -10.061248 124.982916 105.947204
484 2 -10.077656 169.499995 -186.325874
485 3 -9.694381 179.515209 -153.932657
486 3 -26.681038 201.673492 -164.551992
487 2 33.519220 119.745337 -135.080679
488 3 6.395087 147.852455 -158.707390
489 3 -13.196416 143.859050 -122.414115
490 2 186.406622 201.763699 -43.720506
491 3 175.666196 213.211202 0.817947
492 3 236.603768 192.239735 -92.457522
493 2 113.234012 130.486046 -48.773358
494 3 190.482444 108.689192 18.176664
495 3 162.605183 143.694882 2.058100
496 2 -355.836777 102.967782 30.965938
497 3 -341.370526 105.771239 6.267885
498 3 -382.701393 139.735853 105.372728
499 2 -283.006996 189.779469 171.326143
500 3 -286.578522 179.408703 146.849231
501 3 -254.357257 200.667439 72.550877
502 2 107.232167 26.738719 289.808826
503 3 87.685073 60.377572 266.814824
504 3 128.829830 12.543141 206.261435
505 2 66.478326 -141.507100 -15.546558
506 3 46.199781 -105.242967 -55.904723
507 3 18.307821 -61.903018 -110.064525
508 2 102.759686 261.760913 -17.128012
509 3 90.580363 227.292223 22.607621
510 3 126.130060 196.549298 -22.078175
511 2 -84.857432 228.357329 232.783425
512 3 -113.283038 206.379993 231.889476
513 3 -111.592462 208.452550 259.810661
514 2 -193.366454 190.127009 15.403396
515 3 -221.788744 246.647186 19.811472
516 3 -167.804961 216.365224 -11.720188
517 2 266.767032 154.818739 244.219951
518 3 237.589384 206.132330 255.506575
519 3 262.463023 180.314209 239.130523
520 2 128.851325 104.111866 101.009283
521 3 111.193445 76.716825 56.447777
522 3 83.668029 68.066295 82.222823
523 2 -68.029551 -70.325629 18.100415
524 3 -37.141730 -32.658844 100.352669
525 3 -79.021508 -71.648128 75.708622
526 2 30.457961 20.337352 188.663990
527 3 74.264128 4.209569 189.590968
528 3 22.119429 59.117217 105.574710
529 2 60.931361 115.954719 5.840864
530 3 39.824855 134.040252 62.401751
531 3 99.127242 144.779700 21.205882
532 2 -21.565068 465.106047 -105.168960
533 3 -27.960959 406.977637 -147.904848
534 3 -61.761459 417.186219 -65.242863
535 2 69.784967 271.514720 -226.450954
536 3 107.105767 308.062519 -276.454145
537 3 87.549755 251.590509 -193.563046
538 2 28.780701 125.224147 43.657047
539 3 -30.437238 54.217948 70.501979
540 3 -18.170977 57.177002 70.216051
541 2 3.972303 143.034597 253.253546
542 3 -34.949373 195.097350 204.088837
543 3 -55.466350 145.170860 170.770155
544 2 -111.407906 337.255535 78.919531
545 3 -107.608857 315.059378 89.390385
546 3 -74.201501 249.151103 66.519525
547 2 -127.530506 -116.839350 21.456287
548 3 -128.628761 -125.803842 26.849150
549 3 -166.758632 -127.233318 20.072108
550 2 200.713435 238.540687 -79.474068
551 3 144.275423 242.395536 16.314044
552 3 172.629556 243.687839 -22.741732
553 2 -4.940876 -5.890699 107.982854
554 3 15.668784 26.325654 1.728329
555 3 -36.722866 -27.431588 -0.590016
556 2 -6.113220 261.945447 -28.617983
557 3 -60.291163 268.422594 -90.132568
558 3 -21.046069 254.274126 -33.124941
559 2 -6.520568 189.344839 -183.987432
560 3 32.441412 197.793313 -81.827558
561 3 58.992147 240.251048 -141.029127
562 2 -79.290461 317.238456 74.219559
563 3 -86.280603 232.325404 22.458219
564 3 -104.283858 292.604597 66.471865
565 2 -39.708031 409.041558 31.420852
566 3 -29.677662 407.905524 41.420166
567 3 -6.625574 370.483129 66.518036
568 2 -7.732082 175.910745 82.031709
569 3 72.398091 125.792886 83.143910
570 3 -0.494677 76.205030 56.646350
571 2 -10.989142 318.468544 49.120363
572 3 -15.252802 354.304615 29.750016
573 3 8.519628 328.724259 9.194361
574 2 -272.387023 250.155483 -44.743622
575 3 -251.061616 241.288390 1.605438
576 3 -274.689629 208.450011 -16.725075
577 2 -244.101468 227.853915 87.323004
578 3 -222.114226 215.346172 34.333324
579 3 -235.346830 187.033834 138.328816
580 2 43.238062 -35.811597 22.500140
581 3 23.532557 -38.103209 -34.432550
582 3 36.486430 -46.125115 -6.430298
583 2 -227.833259 -112.738542 245.629700
584 3 -212.686611 -107.418609 230.056261
585 3 -237.698415 -110.519142 230.788351
586 2 -137.951538 72.625596 10.047815
587 3 -133.781368 73.615600 48.819274
588 3 -97.912283 92.842976 33.595273
589 2 267.624393 277.516808 47.396127
590 3 282.113569 272.496795 75.277954
591 3 314.960901 245.097596 132.405665
592 2 132.792532 -37.228632 64.731046
593 3 140.436392 -60.537925 -19.714800
594 3 160.702356 -57.400863 -27.344869
595 2 6.745277 258.979852 -90.515284
596 3 -33.390447 238.629830 -55.501996
597 3 -4.467325 254.462081 -55.614846
598 2 169.933076 -5.127216 -53.742416
599 3 222.815794 39.684880 -53.287521
600 3 177.749168 -32.040554 6.927044
601 2 93.326186 382.393678 -68.970655
602 3 82.099515 369.405054 -10.158934
603 3 105.607314 308.433382 -31.328901
604 2 90.013240 97.544003 -17.669109
605 3 71.916783 174.592138 96.477351
606 3 77.186164 146.923367 -9.576070
607 2 204.686206 304.707025 301.788386
608 3 217.124370 256.580388 213.107855
609 3 227.571051 205.572737 232.770491
610 2 -231.893156 82.490542 -344.125950
611 3 -243.372806 65.259459 -315.135673
612 3 -171.007301 36.901656 -334.363217
613 2 33.995276 227.516395 138.313556
614 3 8.071416 182.660367 102.279177
615 3 14.506203 200.365878 122.161204
616 2 139.580128 301.861208 -79.519459
617 3 115.188931 247.365710 -73.998372
618 3 107.942489 260.383131 -54.818857
619 2 -48.856605 100.495489 -99.283653
620 3 -120.024206 79.768576 -76.540170
621 3 -70.498681 42.511582 -117.535526
622 2 100.963064 212.810736 167.599061
623 3 101.587288 235.269121 164.225218
624 3 34.054637 215.033389 187.568290
625 2 21.243809 296.065700 -63.151895
626 3 24.053237 252.118143 -86.162393
627 3 31.554234 264.967496 -52.315341
628 2 20.632788 277.544875 100.123554
629 3 75.652117 276.997521 113.858832
630 3 41.769193 266.830310 83.801723
631 2 -103.797052 339.155645 68.839142
632 3 -107.199059 376.450111 5.687991
633 3 -143.570355 336.037672 -16.428309
634 2 136.650778 190.629921 34.739566
635 3 151.430654 150.285186 45.621614
636 3 174.125888 120.766069 50.705970
637 2 -21.350228 329.957266 7.292306
638 3 -30.888344 321.744276 -8.989478
639 3 -15.830469 323.411031 18.905494
640 2 -75.249797 340.716547 -127.144067
641 3 -78.075357 340.456432 -128.648371
642 3 -99.396217 312.652175 -151.814952
643 2 219.779276 63.812239 -32.053015
644 3 208.543688 85.026818 1.186971
645 3 226.579987 107.293667 45.977363
646 2 61.621436 -24.196159 141.513528
647 3 67.636053 17.906695 166.584188
648 3 88.362098 -23.449605 99.340675
649 2 -273.380478 341.997660 31.761753
650 3 -235.968386 307.555243 45.403740
651 3 -267.559788 322.849202 2.406999
652 2 9.143999 313.961599 -273.025778
653 3 13.957127 336.485316 -204.776453
654 3 3.434058 294.903424 -204.434598
655 2 -95.997772 216.690200 -146.933051
656 3 -72.029647 203.959851 -97.617740
657 3 -102.127182 224.782027 -148.519235
658 2 -117.982832 388.033282 48.594793
659 3 -84.224180 418.358622 18.162868
660 3 -78.810786 375.957705 11.721208
661 2 -289.693009 137.380170 42.773941
662 3 -321.788755 176.365535 74.462453
663 3 -273.926974 174.664693 92.304780
664 2 -31.214633 112.231836 -210.272280
665 3 -21.047517 152.782626 -185.350276
666 3 -61.628224 216.926080 -148.669801
667 2 138.649606 34.517599 -6.824816
668 3 133.072287 50.959362 -94.163697
669 3 157.564020 105.073362 -21.251787
670 2 64.955581 378.885381 135.601060
671 3 94.923677 421.707426 136.512732
672 3 95.604967 384.749947 185.895641
673 2 -180.537091 144.480525 -106.798441
674 3 -177.764652 165.947621 -131.725925
675 3 -179.764885 185.486205 -88.864482
676 2 58.961291 227.680663 33.290266
677 3 94.904714 212.453891 -12.020838
678 3 83.818341 181.309649 69.590252
679 2 -180.132210 117.306646 145.687852
680 3 -131.282066 109.410962 96.091701
681 3 -183.814639 116.285404 183.138733
682 2 -37.085847 230.922246 -165.761576
683 3 -25.350149 288.327541 -218.918702
684 3 -57.011952 249.855867 -215.251109
685 2 -15.545958 188.840589 43.251052
686 3 -18.343233 137.944310 53.808413
687 3 -59.449536 141.875894 78.616014
688 2 -159.619719 -182.592389 -69.787698
689 3 -122.160693 -196.173692 -84.519729
690 3 -178.889270 -189.382699 -101.387482
691 2 -240.885250 30.584553 310.574690
692 3 -190.088733 -15.869666 291.486088
693 3 -205.198430 34.176402 321.131438
694 2 97.392110 -64.175922 34.308407
695 3 114.080822 -90.553576 2.258328
696 3 53.536564 -17.542144 -11.585578
697 2 -216.035768 132.127181 140.727982
698 3 -235.031060 212.472897 125.044627
699 3 -203.834753 205.428722 150.687318
700 2 -242.673429 -37.920108 38.798884
701 3 -222.240041 7.159652 70.333363
702 3 -240.927254 -5.539723 65.486261
703 2 6.973593 35.800233 229.942321
704 3 32.002677 7.944319 211.007459
705 3 24.191927 8.049641 198.166332
706 2 -138.377137 -167.778065 197.420477
707 3 -163.151029 -158.843009 177.505329
708 3 -137.366600 -108.343379 110.363587
709 2 -114.812612 -1.600017 85.435374
710 3 -108.688464 6.034915 95.185560
711 3 -110.470456 -33.872032 104.702525
712 2 132.359476 139.769706 -214.789520
713 3 137.192036 136.968826 -121.410914
714 3 153.216319 165.305377 -280.802479
715 2 -23.514509 -23.103381 -130.561151
716 3 -16.530080 30.366328 -13.450798
717 3 25.653249 -35.057620 -132.514229
718 2 52.860694 -152.513162 145.060401
719 3 71.283721 -204.100506 138.230228
720 3 82.260130 -195.589787 151.442981
721 2 191.084933 66.198897 52.660452
722 3 219.408919 124.470364 -17.524779
723 3 129.903731 112.680727 43.772744
724 2 -49.545666 187.009902 -84.565683
725 3 -86.537274 179.886087 -100.417539
726 3 -133.104940 181.076415 -104.464399
727 2 -333.995464 -63.740707 -31.557190
728 3 -341.727314 -28.846571 -49.746982
729 3 -316.364194 -64.844318 -15.121779
730 2 14.400539 46.830344 -72.335585
731 3 -9.958398 4.763594 -46.098306
732 3 -1.417216 19.442462 -129.106555
733 2 -72.271349 -120.798667 168.065511
734 3 -42.967140 -128.398544 142.345866
735 3 -79.480595 -116.027274 185.738691
736 2 23.525539 65.258280 129.208000
737 3 -48.862385 109.846557 193.314710
738 3 -7.291308 105.069736 154.949602
739 2 -129.205158 50.355665 263.516708
740 3 -100.418192 115.969550 313.059399
741 3 -155.877366 61.760291 310.776903
742 2 60.500681 -326.184308 342.594925
743 3 9.873407 -282.346130 316.431359
744 3 60.579285 -298.266749 262.521754
745 2 436.131219 147.988929 83.801511
746 3 434.389826 101.564388 24.997046
747 3 448.758659 163.001745 43.610187
748 2 -161.834447 -153.141129 139.693551
749 3 -185.093506 -178.939135 192.058351
750 3 -176.931473 -174.470793 160.309634
751 2 102.898769 38.323842 121.037872
752 3 166.493737 101.730374 159.357995
753 3 128.863478 11.695491 73.545264
754 2 72.354196 -78.097147 64.849091
755 3 40.869774 -115.724572 88.090443
756 3 47.353660 -146.365066 93.826134
757 2 -133.632160 -15.142688 95.844005
758 3 -101.571516 -75.159223 24.445011
759 3 -143.534242 -26.337473 81.603532
760 2 96.363307 128.919320 126.450500
761 3 109.482107 156.283656 108.591096
762 3 97.101250 145.755822 124.107408
763 2 223.037880 -51.571555 52.965734
764 3 151.620485 -85.547793 55.810360
765 3 188.409172 -22.298679 73.305188
766 2 -113.443955 -79.155365 214.676657
767 3 -124.196386 -121.783494 195.630512
768 3 -89.941339 -115.177522 266.484372
769 2 161.938936 -22.848884 69.782353
770 3 133.609306 -63.306442 64.572338
771 3 130.374058 -20.386144 40.566557
772 2 -260.649951 231.384198 14.459010
773 3 -253.763211 257.554496 3.972875
774 3 -263.679147 184.581641 -17.128927
775 2 74.098177 61.080888 136.413610
776 3 78.614844 -11.331782 171.541529
777 3 21.287558 65.686680 202.280624
778 2 -10.075006 126.104217 95.553081
779 3 -28.324440 83.387101 110.720084
780 3 -9.083292 51.927077 134.134988
781 2 -118.826204 -11.131693 70.334899
782 3 -77.590431 -26.147697 54.542826
783 3 -96.404045 14.518740 37.340230
784 2 -58.840015 11.763988 62.948979
785 3 -94.904890 18.242413 28.103791
786 3 -40.156123 -8.094622 92.130000
787 2 -228.693306 64.173918 107.655723
788 3 -258.593108 69.867425 109.528388
789 3 -273.871659 110.872976 26.759221
790 2 151.055945 -108.221760 -8.143900
791 3 119.644355 -133.421538 -6.210609
792 3 102.576904 -129.354908 -37.993442
793 2 -15.326503 -68.987675 143.545496
794 3 22.164971 -57.065236 132.862566
795 3 25.290335 -73.172707 72.253117
796 2 222.836783 -4.477584 228.091614
797 3 214.178540 36.277666 211.653195
798 3 198.477312 13.795199 209.223860
799 2 151.513639 57.460581 -106.119417
800 3 190.931806 77.576536 -85.696515
801 3 169.017763 70.849872 -78.615851
802 2 183.468114 160.101148 -40.540591
803 3 190.771493 178.360733 -52.994277
804 3 130.609147 219.081378 -71.114736
805 2 -91.735915 -236.678938 76.927764
806 3 -103.198371 -224.417854 110.883400
807 3 -91.406538 -230.472033 81.873024
808 2 -67.704759 362.065703 -31.827932
809 3 -75.813838 331.222019 -97.452080
810 3 -50.255784 352.333258 -57.413802
811 2 -79.585956 59.260061 -47.137599
812 3 -106.607157 27.675928 2.505927
813 3 -149.226073 107.201194 24.941849
814 2 35.641858 -8.015733 123.025879
815 3 20.933784 -60.567687 20.821349
816 3 19.507812 -75.557758 80.765432
817 2 -352.884883 130.594087 224.300578
818 3 -298.407072 186.810513 228.705964
819 3 -336.067811 156.218339 305.859057
820 2 -223.197827 310.853326 202.342622
821 3 -174.432947 280.357759 181.624603
822 3 -194.370040 300.319768 187.608072
823 2 172.185716 -17.838628 -11.982896
824 3 155.702581 -58.090924 3.537280
825 3 203.148967 -107.156183 142.200402
826 2 124.791440 -34.874462 -109.076693
827 3 157.690427 67.073083 -98.825165
828 3 167.867249 28.003081 -41.152349
829 2 140.418779 -58.148115 398.398360
830 3 119.689958 -82.961218 420.304615
831 3 85.698422 -102.456409 391.949224
832 2 -73.048627 48.652245 23.654981
833 3 -41.687280 91.881213 73.785288
834 3 -79.177286 79.437229 -17.992032
835 2 -23.345343 82.499456 103.409170
836 3 -49.170865 44.822453 68.139707
837 3 -14.491371 102.697396 120.431345
838 2 9.122274 233.715653 -48.362516
839 3 16.950658 228.894953 -59.746861
840 3 1.963561 240.702128 -65.481804
841 2 79.073831 97.865011 -66.667871
842 3 76.843279 112.965108 -136.427673
843 3 108.472321 108.623973 -71.422843
844 2 -15.633649 -151.651063 148.866179
845 3 -56.564426 -250.181529 151.243868
846 3 -9.360977 -125.455086 58.688780
847 2 -80.245387 297.948751 200.999871
848 3 -63.965728 276.678718 232.539973
849 3 -35.038687 319.942842 224.385198
850 2 -201.594365 164.594561 262.825432
851 3 -147.407883 162.938967 288.951614
852 3 -197.202650 199.311156 274.653946
853 2 158.720130 246.251449 4.000776
854 3 145.945441 202.010829 -14.908283
855 3 124.781703 170.319476 -41.341760
856 2 -40.274999 92.807907 -76.203039
857 3 -36.716747 -2.156281 -116.494332
858 3 -82.709372 32.389877 -91.721658
859 2 -60.710779 -85.702048 -257.009757
860 3 -59.754176 -159.697840 -310.008825
861 3 -44.728198 -103.653078 -211.795120
862 2 31.286571 0.595880 -6.109035
863 3 88.451653 -26.870858 9.019319
864 3 86.559228 27.887815 -40.184339
865 2 144.670049 -42.259654 196.135351
866 3 130.087831 -30.761996 170.420597
867 3 131.543663 8.804185 227.611408
868 2 103.984723 31.692382 -87.071491
869 3 110.774058 -11.667532 -117.379563
870 3 84.423837 -20.034929 -137.199066
871 2 85.663918 162.609596 8.605280
872 3 102.801382 147.254744 63.217474
873 3 107.302426 144.363482 80.560756
874 2 -78.453160 125.382013 50.010146
875 3 -64.855411 119.975104 55.846765
876 3 -62.368927 125.032976 26.347996
877 2 235.012446 304.985750 121.381803
878 3 230.092821 311.770296 42.918432
879 3 232.393085 349.920673 95.551799
880 2 -4.824800 288.609094 -203.975039
881 3 46.005041 257.827823 -185.145462
882 3 12.661711 260.446168 -121.177721
883 2 -99.707488 -4.248087 -96.444293
884 3 -96.719901 75.920163 -107.812353
885 3 -119.159549 -36.615786 -61.947118
886 2 -185.099188 1.760519 131.570475
887 3 -182.673825 41.337295 188.458180
888 3 -130.724649 22.156489 147.097822
889 2 29.434974 131.827383 26.197461
890 3 7.741534 195.742316 -22.574070
891 3 -14.944575 185.936906 -60.407229
892 2 -145.099275 -224.475159 29.732737
893 3 -132.805217 -243.697570 72.781810
894 3 -137.422963 -239.401874 40.468437
895 2 -33.327521 331.987342 320.248025
896 3 -43.736037 306.611696 204.560021
897 3 -41.151901 279.968043 203.534123
898 2 96.418018 333.775000 62.450851
899 3 97.772199 329.889424 36.474801
900 3 101.153462 349.071392 63.876907
901 2 15.732512 148.237230 -64.859261
902 3 22.838536 126.913039 -23.215572
903 3 65.409537 213.202809 -63.146489
904 2 254.275662 226.724343 4.664182
905 3 278.223339 243.597921 27.489353
906 3 284.885860 236.182016 7.553927
907 2 231.709656 29.569990 -246.753237
908 3 253.357933 -10.343096 -222.113268
909 3 253.000035 38.589995 -249.530775
910 2 40.579926 -47.584741 275.947781
911 3 75.839884 -75.022575 291.604160
912 3 35.078886 -81.274029 293.992404
913 2 290.831527 83.270537 229.579487
914 3 240.657700 158.805940 235.091385
915 3 260.497658 118.266751 213.066745
916 2 154.934035 223.728552 -314.629469
917 3 172.190214 220.161414 -320.693037
918 3 229.828373 238.367161 -260.693385
919 2 108.820525 -13.717780 146.612089
920 3 132.372886 59.418741 87.196010
921 3 126.788222 46.659545 29.977393
922 2 56.547655 -136.159419 288.256003
923 3 100.221467 -123.029227 228.702384
924 3 143.149609 -122.435302 276.942827
925 2 -116.437655 93.456993 -57.912676
926 3 -158.825969 118.587295 -23.456247
927 3 -171.745206 146.524232 -17.451925
928 2 159.356439 -114.162910 -125.456242
929 3 175.836098 -61.985882 -79.679445
930 3 163.862358 -103.335536 -14.279742
931 2 -233.363865 170.882764 -91.690880
932 3 -195.263784 114.958359 -45.843778
933 3 -219.239192 134.664670 -94.237873
934 2 -80.887206 -15.854750 -114.507229
935 3 -79.621477 -12.637755 -150.311857
936 3 -82.888857 -7.362766 -147.502379
937 2 68.561100 143.380183 -77.961691
938 3 33.488318 154.539770 67.148568
939 3 14.672725 139.651713 27.254581
940 2 -100.902113 70.954847 304.679236
941 3 -131.383255 125.324701 254.525884
942 3 -120.558599 74.744670 338.875463
943 2 -60.901331 193.751056 58.538150
944 3 -72.690484 207.292143 64.458154
945 3 -28.559690 196.996456 128.998453
946 2 226.529503 57.468411 73.489590
947 3 260.424718 3.070070 133.276254
948 3 205.350679 39.661534 113.236751
949 2 -118.859605 8.762787 151.612598
950 3 -156.114650 22.497403 166.190456
951 3 -117.296261 3.073416 176.262384
952 2 223.882830 37.500868 57.905115
953 3 196.580166 -0.504199 42.535252
954 3 264.621572 9.492627 83.312277
955 2 170.825983 19.720820 -56.906347
956 3 130.652150 21.843829 -90.900667
957 3 135.806457 65.265388 -97.393994
958 2 -21.293866 88.309126 -43.450682
959 3 -65.125541 131.306674 8.074343
960 3 -48.386530 163.019549 -59.332103
961 2 -93.662776 -3.483423 113.301517
962 3 -95.846431 5.571845 136.534838
963 3 -137.857460 9.035187 179.995519
964 2 -108.640643 29.598664 424.217450
965 3 -115.379259 52.976051 420.856284
966 3 -116.256920 79.684732 317.715323
967 2 -3.126200 245.829393 -89.998451
968 3 6.332277 298.310582 -51.339065
969 3 -37.342019 263.300088 -96.295369
970 2 -195.270908 39.916384 -11.758551
971 3 -187.736421 76.947763 -18.565588
972 3 -179.583224 42.375181 -5.425804
973 2 77.105132 249.111496 -116.786081
974 3 21.788893 248.067464 -134.137454
975 3 73.291213 277.116601 -102.935720
976 2 -255.357885 280.602487 -74.952649
977 3 -196.041993 236.202907 -80.227683
978 3 -184.904192 270.749610 -114.949111
979 2 -79.019117 244.384819 65.143410
980 3 -114.850400 225.507469 71.636737
981 3 -90.175652 191.610232 66.359937
982 2 -152.300996 115.321605 139.390795
983 3 -150.200326 153.378498 114.849183
984 3 -143.259072 163.522811 147.510467
985 2 -209.025580 157.332037 129.903261
986 3 -217.836124 153.670222 138.353808
987 3 -213.919026 142.121786 155.507748
988 2 -33.401965 -10.004590 98.502478
989 3 -40.738233 -14.819091 150.219539
990 3 8.556446 -58.522931 14.984969
991 2 128.725214 90.465064 126.690216
992 3 136.223835 138.589602 119.008625
993 3 170.924892 181.013865 152.603991
994 2 66.331250 148.745980 -89.983201
995 3 79.518491 140.871119 -60.852174
996 3 58.648618 133.685886 -54.694345
997 2 69.678952 67.293773 22.579739
998 3 81.796952 53.833614 -17.589220
999 3 119.127371 20.812096 8.786566
1000 2 -119.232292 147.470934 183.296845
1001 3 -107.315186 148.284834 217.116363
1002 3 -65.798456 147.484618 225.440858
1003 2 -206.672811 212.767145 -63.359837
1004 3 -194.468517 201.500817 -65.993811
1005 3 -212.707811 237.515569 -45.654020
1006 2 -82.409273 14.651224 -100.422346
1007 3 -134.299060 1.291389 -98.305389
1008 3 -103.248756 12.761955 -65.604747
1009 2 -126.414465 202.440411 -121.719242
1010 3 -88.598380 245.345365 -33.250329
1011 3 -82.672199 280.645090 -98.989367
1012 2 -283.717342 289.801018 127.380320
1013 3 -264.949523 260.617961 197.760413
1014 3 -268.886835 276.844445 150.095636
1015 2 -27.040916 270.611023 -153.054484
1016 3 -22.444500 276.462787 -135.137676
1017 3 -33.058537 269.665149 -170.873811
1018 2 71.741150 230.525931 37.781334
1019 3 59.274651 216.695066 -6.003039
1020 3 116.465667 206.791679 17.425529
1021 2 -64.385091 35.263446 326.235184
1022 3 -3.031239 19.990863 339.903741
1023 3 -18.629422 -3.499352 317.844854
1024 2 -114.892860 307.234706 -143.342973
1025 3 -151.249330 283.197646 -148.054085
1026 3 -119.475257 303.777191 -138.293234
1027 2 155.100892 -100.009971 -54.009108
1028 3 171.018390 -89.143895 -2.588739
1029 3 167.973171 -136.631709 34.327459
1030 2 162.577698 12.802875 36.175102
1031 3 193.486029 23.579881 69.966639
1032 3 149.396564 22.547847 48.971619
1033 2 239.434702 356.903179 131.743479
1034 3 241.112645 343.015982 231.919627
1035 3 213.343291 354.884993 215.607178
1036 2 385.977187 164.710828 83.627760
1037 3 407.492253 179.593967 121.949765
1038 3 395.137716 197.018396 135.283931
1039 2 -129.399094 282.350068 -74.158736
1040 3 -157.060591 249.167600 -26.705199
1041 3 -188.080403 374.466955 -135.822623
1042 2 -33.523096 172.940664 24.571651
1043 3 -20.959448 120.699558 4.360910
1044 3 -36.993773 149.616471 24.871305
1045 2 87.054883 204.450052 18.965962
1046 3 101.616357 176.126539 13.642083
1047 3 132.244864 161.542955 -59.447518
1048 2 -80.744136 288.852058 187.924685
1049 3 -48.787288 323.591019 200.591793
1050 3 -91.485591 325.514665 224.971021
1051 2 -138.336021 125.846299 96.019430
1052 3 -159.596031 143.662960 23.341416
1053 3 -117.402836 88.818485 87.771671
1054 2 133.497135 139.376872 61.162257
1055 3 152.687164 117.163087 80.579480
1056 3 150.929440 78.641847 109.793503
1057 2 -90.962944 188.840893 267.145645
1058 3 -67.575216 177.622367 306.927431
1059 3 -67.687017 110.042214 295.573790
1060 2 36.663467 161.430610 219.054975
1061 3 42.636030 97.461984 114.206915
1062 3 49.704906 130.942577 179.367938
1063 2 104.690337 128.071583 53.133566
1064 3 77.202347 121.167424 84.722828
1065 3 51.440639 115.358133 78.667766
1066 2 236.592873 318.775609 98.822717
1067 3 216.242014 326.240457 53.581657
1068 3 201.631768 327.425935 43.670190
1069 2 277.040521 210.884779 -16.592432
1070 3 288.879374 164.462071 -50.856045
1071 3 283.130195 165.628027 10.674200
1072 2 162.520275 163.237320 37.349576
1073 3 187.054271 175.774529 27.533296
1074 3 196.443813 110.139954 2.159264
1075 2 455.666500 -24.801167 -72.256750
1076 3 493.387164 12.020584 -72.620665
1077 3 499.229226 -0.517841 -73.548196
1078 2 186.130231 77.173292 61.277921
1079 3 162.957509 9.012745 24.972811
1080 3 189.220400 6.915218 85.317569
1081 2 -266.296881 134.841214 -45.056055
1082 3 -205.314853 167.059373 -47.079965
1083 3 -212.194494 156.181985 33.361586
1084 2 46.726702 129.169264 53.249498
1085 3 51.142725 79.306446 53.952938
1086 3 28.040537 106.646192 14.336726
1087 2 -94.296016 213.748430 202.759372
1088 3 -97.616838 228.722962 192.632882
1089 3 -59.752715 226.955525 188.030026
1090 2 79.341521 95.442855 -135.556789
1091 3 99.895634 88.215141 -128.135247
1092 3 74.662575 144.697832 -115.046361
1093 2 49.377896 318.262830 -273.350049
1094 3 59.080943 265.331198 -303.789303
1095 3 -18.512278 254.167939 -219.710632
1096 2 191.360720 23.759377 -11.574710
1097 3 156.212089 -4.576604 -48.573415
1098 3 177.667489 14.453303 -29.144203
1099 2 29.828976 188.008170 -177.834280
1100 3 -30.659235 225.269081 -81.422109
1101 3 -7.690901 226.873558 -113.413245
1102 2 256.916050 126.285307 -219.303698
1103 3 269.072325 110.413692 -282.389087
1104 3 303.514553 143.002912 -324.340684
1105 2 -120.546927 279.813963 0.973404
1106 3 -181.107868 340.957504 -11.309305
1107 3 -87.239473 307.576924 15.597588
1108 2 -27.987853 -35.918563 95.660991
1109 3 18.852911 -58.840921 122.823270
1110 3 29.986813 -78.635918 96.895762
1111 2 317.406946 147.793949 162.552763
1112 3 286.697703 192.030281 177.118600
1113 3 300.840321 159.826391 176.449503
1114 2 133.146423 317.764312 89.481920
1115 3 120.978445 302.719125 3.705674
1116 3 166.436191 303.559040 39.769304
1117 2 -195.486179 318.605838 109.262610
1118 3 -207.617828 337.728601 140.849312
1119 3 -222.243862 302.894248 69.044925
1120 2 -160.751166 261.234662 -48.234946
1121 3 -185.998577 289.578093 18.543518
1122 3 -148.291755 311.128463 -67.177932
1123 2 -16.281020 191.777935 67.856966
1124 3 -14.379379 174.567553 127.753764
1125 3 12.966988 152.642701 117.113458
1126 2 -184.530063 362.588031 -13.929295
1127 3 -145.806220 391.798410 -63.840578
1128 3 -162.611509 358.846044 -39.381256
1129 2 256.843405 281.125089 179.692984
1130 3 266.844557 274.920099 127.410534
1131 3 178.926896 282.597016 197.363092
1132 2 39.529772 34.635005 -2.866963
1133 3 54.866877 41.146903 -30.788154
1134 3 75.505941 15.086322 -62.606702
1135 2 113.814772 8.698549 16.070786
1136 3 104.399569 -64.240898 0.512255
1137 3 108.128684 -18.785760 13.383482
1138 2 -172.613339 211.256600 -58.303558
1139 3 -129.258797 145.295923 68.260206
1140 3 -135.093587 153.903775 37.974159
1141 2 82.323105 277.944018 -243.388363
1142 3 57.280572 259.998584 -286.073638
1143 3 82.469965 278.274590 -192.697863
1144 2 75.828119 94.412765 63.294981
1145 3 77.015202 116.598795 30.429210
1146 3 31.182880 100.632107 67.956449
1147 2 81.108106 241.003127 -0.305105
1148 3 65.292531 126.787649 -16.215337
1149 3 107.109131 214.632361 52.048612
1150 2 -100.646515 -10.080391 -65.200258
1151 3 -89.639595 7.002067 -34.772006
1152 3 -89.522408 -24.481444 -54.065137
1153 2 218.186266 81.924137 -104.582139
1154 3 263.229351 75.932934 -113.487043
1155 3 246.300071 100.101698 -143.293928
1156 2 -164.855915 137.004928 -32.758937
1157 3 -180.346150 147.847027 -11.551608
1158 3 -182.909037 128.930009 -43.207133
1159 2 -63.925819 300.766470 231.183071
1160 3 -14.690058 273.121904 190.970622
1161 3 -14.763001 306.116827 214.293138
1162 2 -97.367278 60.443255 -186.738731
1163 3 -87.125564 72.151876 -220.301880
1164 3 -42.888075 68.851391 -204.198970
1165 2 -17.675279 238.414659 230.026535
1166 3 8.892073 255.888426 254.216799
1167 3 -12.787576 265.370623 254.617294
1168 2 -73.435723 -30.103570 214.286274
1169 3 -47.039295 -16.744706 226.234706
1170 3 -72.631711 18.401141 197.990469
1171 2 -84.499147 258.417096 211.923457
1172 3 -85.541329 311.958586 86.792544
1173 3 -115.342025 304.432101 137.592250
1174 2 62.532676 169.744313 -0.818446
1175 3 73.908265 113.335933 43.058425
1176 3 80.996817 160.113235 76.113536
1177 2 -161.695740 362.776777 78.356310
1178 3 -145.144471 419.428517 85.141101
1179 3 -125.002363 382.500565 108.355274
1180 2 284.574552 34.601160 23.978942
1181 3 353.840768 114.077461 -0.214122
1182 3 296.024498 48.050701 25.227006
1183 2 -106.343670 130.155778 -160.997692
1184 3 -129.736371 139.026018 -182.882266
1185 3 -115.074385 93.673859 -144.331173
1186 2 86.455314 188.699813 10.593491
1187 3 44.102811 239.380511 85.659152
1188 3 39.455843 228.294019 61.112110
1189 2 235.430835 532.126835 170.242408
1190 3 215.259787 611.930959 108.903899
1191 3 262.792622 568.254647 129.846236
1192 2 66.174884 384.453068 310.029571
1193 3 88.712255 416.608608 318.951127
1194 3 97.729184 438.927403 345.290352
1195 2 -192.517893 -107.925550 -2.016733
1196 3 -228.888413 -89.589449 -15.576501
1197 3 -225.336582 -55.628971 -48.525542
1198 2 86.978769 9.681469 -3.298577
1199 3 82.550695 -40.628599 57.437262
1200 3 120.515378 -9.032544 61.338245
1201 2 -335.672076 138.433675 -91.897383
1202 3 -356.435704 130.582319 -53.692066
1203 3 -330.008310 146.198198 -87.504516
1204 2 126.251240 -18.496650 1.482493
1205 3 119.844207 11.275464 -31.836434
1206 3 137.303048 -27.334558 33.622998
1207 2 -134.156236 -88.154279 -119.063734
1208 3 -95.403996 -61.148742 -144.668194
1209 3 -107.852623 -111.238426 -159.586523
1210 2 138.714263 252.659659 183.900143
1211 3 133.764122 219.517118 209.068422
1212 3 136.529400 223.985383 165.011677
1213 2 -168.616213 92.421710 54.019902
1214 3 -173.166824 74.046014 41.181942
1215 3 -157.334135 110.640875 63.872058
1216 2 232.059468 -37.272143 135.128004
1217 3 256.199220 -23.371174 175.222224
1218 3 222.163770 -27.638135 169.644849
1219 2 268.197142 22.458328 -94.199632
1220 3 233.034953 9.560556 -157.171838
1221 3 278.998614 37.131663 -128.701614
1222 2 119.393988 98.197810 -20.206470
1223 3 150.021855 102.522494 -24.129334
1224 3 149.142481 43.470327 -36.047444
1225 2 69.374515 211.586289 185.299946
1226 3 103.466131 160.724311 186.695265
1227 3 112.690227 179.406514 185.706954
1228 2 45.075141 140.417302 23.485336
1229 3 -7.052710 161.082752 31.662957
1230 3 56.955090 95.600637 -0.247465
1231 2 114.205201 -113.207518 65.182754
1232 3 131.312764 -79.827706 33.538351
1233 3 139.478717 -71.976617 -8.364165
1234 2 -120.183730 13.142836 111.050877
1235 3 -124.812383 32.237828 113.434166
1236 3 -90.104240 -14.371827 121.034523
1237 2 -7.170987 16.639446 155.540961
1238 3 4.221925 42.528296 232.665279
1239 3 -12.573769 -11.464327 151.246138
1240 2 226.866842 -0.978056 44.527037
1241 3 208.358047 27.750369 104.872520
1242 3 198.321017 -27.034399 121.819533
1243 2 -16.160730 88.024692 54.985439
1244 3 40.594941 17.741548 5.576727
1245 3 50.973427 63.000216 21.345102
1246 2 35.351560 136.304809 219.115736
1247 3 42.294000 168.931325 238.863600
1248 3 45.403119 133.498493 175.296068
1249 2 -206.100284 174.030674 -80.532053
1250 3 -173.694857 194.155627 -15.432370
1251 3 -196.154743 172.407115 -44.678542
1252 2 138.720746 94.234129 -260.734514
1253 3 101.791879 43.566167 -216.088466
1254 3 148.981688 117.729195 -254.943108
1255 2 19.588351 -31.722332 238.755178
1256 3 20.293341 -38.774919 220.503232
1257 3 -15.596809 -50.537695 205.745581
1258 2 -5.580124 0.550752 319.107007
1259 3 9.161290 -7.253749 349.746185
1260 3 14.308909 2.190238 361.734565
1261 2 95.706667 224.183708 203.150715
1262 3 107.606426 255.614003 201.195183
1263 3 72.424147 196.944336 214.859256
1264 2 276.650652 93.599548 -155.259668
1265 3 238.949758 129.419701 -145.002023
1266 3 257.534303 93.344854 -94.856043
1267 2 92.466779 122.806620 167.337886
1268 3 109.116796 55.239254 225.358083
1269 3 63.506854 62.437046 167.731572
1270 2 76.961397 130.898690 15.788545
1271 3 117.000504 149.967477 -39.268119
1272 3 96.652880 155.134957 -7.204823
1273 2 -291.515550 -241.887592 303.954065
1274 3 -286.683237 -268.622987 311.860056
1275 3 -310.970718 -237.768903 302.914956
1276 2 20.866161 244.363229 174.284600
1277 3 28.318346 267.153051 157.403192
1278 3 35.591197 197.237231 115.376367
1279 2 -155.316080 -57.586857 196.515992
1280 3 -101.567756 -72.172395 138.079118
1281 3 -146.313411 -7.074831 184.756598
1282 2 163.735188 -47.210488 -222.838494
1283 3 174.618745 -109.965372 -244.154607
1284 3 177.377060 -90.797688 -240.046995
1285 2 -100.420915 172.881109 108.465551
1286 3 -36.088880 176.618793 96.329373
1287 3 -73.568803 165.307642 114.597123
1288 2 257.823721 47.702207 71.568530
1289 3 243.941361 92.584100 100.233951
1290 3 272.803240 24.531327 26.065671
1291 2 -107.142795 -97.494339 33.795234
1292 3 -144.901629 -97.617152 53.117435
1293 3 -163.498265 -123.775392 24.361262
1294 2 -3.383564 119.308297 -141.317564
1295 3 -10.898901 163.895027 -134.854940
1296 3 2.099239 132.292049 -212.829523
1297 2 -162.221283 -21.522318 -115.534870
1298 3 -148.635108 44.852400 -96.247302
1299 3 -132.458980 8.862451 -144.567318
1300 2 89.080912 48.810622 230.588722
1301 3 116.719897 31.282926 207.302426
1302 3 62.143926 34.172656 237.304190
1303 2 -85.352940 155.457820 33.758062
1304 3 -44.973123 95.500411 58.308905
1305 3 -79.208314 153.814344 31.444368
1306 2 117.952262 105.563267 -88.499350
1307 3 154.859172 133.961988 -77.335965
1308 3 142.523468 108.657567 -80.448651
1309 2 286.449845 102.463669 185.311663
1310 3 273.434952 136.397639 130.496788
1311 3 297.698695 118.845197 175.207813
1312 2 -481.258426 161.125278 50.502470
1313 3 -458.488983 175.021537 105.520222
1314 3 -473.723286 186.495815 111.084477
1315 2 99.234076 59.450320 232.822340
1316 3 93.187485 36.879691 202.658626
1317 3 100.019988 29.686756 314.386632
1318 2 136.694285 28.377118 213.023143
1319 3 145.094810 40.170748 86.636106
1320 3 153.905034 52.417035 124.904800
1321 2 25.519303 4.150892 -31.047161
1322 3 2.974602 -21.545060 -90.468767
1323 3 -17.000878 -27.874881 26.993075
1324 2 118.794284 -100.364323 -29.833573
1325 3 49.561901 -126.439685 12.872140
1326 3 37.967510 -128.707814 -27.067461
1327 2 -54.555141 51.025390 98.526890
1328 3 -50.830148 -9.962172 150.223876
1329 3 -97.937735 67.604921 142.767147
1330 2 14.158390 -126.579579 -0.086637
1331 3 23.978015 -132.057850 14.471074
1332 3 26.402437 -120.671970 16.140455
1333 2 -28.058359 169.061078 144.230645
1334 3 -6.225753 142.980599 114.017102
1335 3 -25.057054 159.406054 155.994467
1336 2 56.758303 205.302663 126.745580
1337 3 14.861669 194.255124 122.930059
1338 3 52.556494 217.023524 106.842565
1339 2 26.577038 106.315210 94.467386
1340 3 17.182927 171.435196 68.617662
1341 3 47.491405 145.241765 113.938562
1342 2 108.475963 -49.235904 97.299085
1343 3 120.891455 -86.752543 69.893755
1344 3 115.829277 -90.279496 9.029007
1345 2 198.743239 158.803249 -240.244226
1346 3 209.409060 158.508271 -136.831304
1347 3 185.159085 124.312894 -208.004896
1348 2 276.427765 42.957098 209.306080
1349 3 273.536412 59.428331 235.100796
1350 3 298.066156 53.638049 234.670096
1351 2 -73.886009 -15.384835 213.143522
1352 3 -50.863888 1.421287 187.302198
1353 3 -64.960274 -2.110366 220.068565
1354 2 35.350868 45.025065 -9.093304
1355 3 -1.541304 59.716205 -1.158781
1356 3 -7.827044 49.588654 -37.154068
1357 2 -139.213360 -14.775736 131.914268
1358 3 -115.584719 -10.373929 109.858241
1359 3 -146.157535 -37.511132 157.508773
1360 2 26.987172 105.863742 37.215633
1361 3 -52.603993 57.531064 41.281794
1362 3 -32.227895 102.834881 19.002863
1363 2 151.201271 -115.889782 -58.361367
1364 3 138.986328 -50.586668 -18.320798
1365 3 161.989407 -108.210083 8.668317
1366 2 -48.394844 270.473789 343.681215
1367 3 -59.095774 229.971690 360.201153
1368 3 -91.027725 259.810082 331.571090
1369 2 23.165491 160.179252 71.108958
1370 3 -23.005043 126.338986 81.824363
1371 3 4.229798 152.004289 39.285548
1372 2 -63.918843 -29.225751 -88.349476
1373 3 -27.884747 -25.327224 -64.313773
1374 3 -49.941124 2.142333 -124.237487
1375 2 -97.599878 120.857720 58.532510
1376 3 -97.121959 177.256750 65.364854
1377 3 -137.316326 207.188496 39.586943
1378 2 360.031434 97.554730 68.449746
1379 3 342.065389 84.328675 95.560176
1380 3 351.870152 73.723033 59.373316
1381 2 11.389016 141.797425 95.288672
1382 3 16.780211 104.948338 116.414811
1383 3 28.018159 122.429250 120.760054
1384 2 99.096947 72.910437 -218.544852
1385 3 105.358057 107.465407 -188.087792
1386 3 113.150528 -1.056879 -213.570729
1387 2 235.150438 -58.359090 -94.061179
1388 3 244.457390 -69.688684 -115.242835
1389 3 295.699707 -42.710982 -84.517413
1390 2 -44.524957 58.865643 64.854354
1391 3 -52.154261 49.848930 84.057238
1392 3 -80.654267 30.474404 31.988958
1393 2 27.944392 138.875770 353.452730
1394 3 -15.618646 131.559940 383.723852
1395 3 6.797158 182.708063 394.946707
1396 2 -137.964147 -5.130471 135.416691
1397 3 -163.368334 -0.146081 132.311847
1398 3 -178.615246 2.883093 147.091041
1399 2 -15.024137 26.260293 54.495949
1400 3 -51.057127 32.097768 98.196622
1401 3 -36.144522 42.983178 84.405376
1402 2 81.237600 83.014151 20.000308
1403 3 36.221817 114.384321 33.521479
1404 3 51.382168 29.459018 68.195219
1405 2 149.026822 171.172071 162.315280
1406 3 114.655475 162.372105 158.427069
1407 3 139.910910 157.578042 186.349609
1408 2 -90.886812 -68.438321 -270.213275
1409 3 -95.236954 -20.777692 -164.962912
1410 3 -101.447328 -28.201043 -278.725036
1411 2 -38.707668 334.557291 37.563925
1412 3 -21.920617 320.386230 0.613664
1413 3 -7.772185 364.560604 33.391286
1414 2 -53.748954 314.376888 -158.637274
1415 3 -4.619810 225.071547 -176.561850
1416 3 -40.370710 282.796678 -135.605151
1417 2 49.097391 135.729836 -97.111747
1418 3 41.137003 164.547732 -106.361384
1419 3 22.619195 213.240029 -83.163453
1420 2 -55.768149 140.855618 261.963829
1421 3 -74.857815 153.326240 187.313453
1422 3 -80.779010 221.874359 178.299233
1423 2 298.633334 73.311549 -48.431448
1424 3 279.660646 77.045705 -51.183444
1425 3 331.040117 73.518813 65.378540
1426 2 -126.017547 42.414058 -239.474125
1427 3 -136.978494 113.345816 -254.531819
1428 3 -147.523369 158.869038 -212.355886
1429 2 -347.155251 -87.925477 69.411962
1430 3 -343.729309 -69.478667 151.189150
1431 3 -304.428539 -60.992419 62.723116
1432 2 -234.744353 -121.775877 -56.354636
1433 3 -203.995004 -170.858286 -48.957451
1434 3 -247.481117 -150.827599 -83.588157
1435 2 -159.944376 156.440610 18.477070
1436 3 -215.536502 187.703826 71.780785
1437 3 -169.472403 99.300759 89.604951
1438 2 -4.544281 184.330588 -190.258564
1439 3 43.380010 179.009104 -170.952821
1440 3 34.259968 182.571817 -183.539295
1441 2 -130.768367 113.264062 28.852441
1442 3 -138.199791 137.921351 25.866153
1443 3 -138.509632 48.169385 -39.693330
1444 2 -237.190497 95.629297 -197.907227
1445 3 -255.055698 148.665747 -211.872358
1446 3 -216.044765 106.255184 -195.434383
1447 2 -86.149525 67.163852 14.076613
1448 3 -76.701716 121.251640 66.712175
1449 3 -45.572106 51.758138 53.290777
1450 2 -73.265180 205.564618 18.916593
1451 3 -42.847118 183.227031 43.367637
1452 3 -25.212191 157.309276 81.311312
1453 2 79.730687 168.039897 64.934730
1454 3 64.528336 168.445335 141.496829
1455 3 49.913025 153.800827 70.672911
1456 2 -77.790437 126.096409 92.714606
1457 3 -82.469611 108.392997 13.662636
1458 3 -62.449595 137.480944 70.838124
1459 2 185.200916 92.308302 32.192089
1460 3 217.450813 56.100155 123.880840
1461 3 145.342841 83.795218 88.955506
1462 2 0.322884 169.507232 185.868185
1463 3 -12.667452 145.955211 214.208463
1464 3 -37.222934 166.507959 167.279477
1465 2 343.586975 414.824963 93.159528
1466 3 332.485854 376.479486 127.315379
1467 3 392.257555 421.408875 164.691789
1468 2 -393.069489 56.804257 150.508318
1469 3 -327.318104 85.075776 193.347868
1470 3 -335.722560 45.330780 161.318251
1471 2 -51.759376 -73.592262 133.140569
1472 3 -54.836129 -87.880199 151.722635
1473 3 -45.927113 -93.478188 102.278845
1474 2 -186.186597 113.553719 218.798791
1475 3 -211.401593 151.379621 296.963205
1476 3 -235.568756 170.272479 249.341817
1477 2 -287.336543 237.623337 -42.709642
1478 3 -281.584035 332.092373 -48.618917
1479 3 -303.761429 347.734449 -10.140573
1480 2 -213.298973 333.647801 101.209992
1481 3 -219.586317 371.995955 150.419012
1482 3 -198.057274 348.368528 139.375508
1483 2 -193.864537 327.618086 140.716469
1484 3 -192.713197 340.078697 126.714877
1485 3 -198.015369 304.084348 134.922683
1486 2 -60.266014 177.778196 -61.368269
1487 3 -78.935300 191.287202 -63.178530
1488 3 -80.631515 175.471417 -50.358661
1489 2 -110.356979 -128.771505 4.800500
1490 3 -123.987857 -80.062126 -53.683440
1491 3 -137.541937 -76.880447 -71.830968
1492 2 142.984119 -7.445797 -228.934777
1493 3 124.998268 -13.636046 -265.002397
1494 3 85.654920 5.333901 -196.321080
1495 2 112.799982 159.532051 223.237814
1496 3 112.927886 180.679112 176.737682
1497 3 67.779280 187.165564 162.130551
1498 2 16.659708 -32.387018 154.499306
1499 3 4.670757 -95.149147 78.273388
1500 3 11.041959 -10.626485 82.015139
1501 2 114.158384 299.912019 -221.766504
1502 3 78.268779 238.305751 -253.357902
1503 3 102.396427 288.212323 -195.989650
1504 2 171.880706 238.341572 99.625616
1505 3 141.595780 277.753995 75.737314
1506 3 174.995192 250.646293 107.444469
1507 2 8.126477 176.777997 139.139243
1508 3 5.153426 172.134730 73.815461
1509 3 -6.628740 176.391246 100.546606
1510 2 -258.770196 234.017352 -49.932712
1511 3 -225.558533 295.128843 -33.691090
1512 3 -257.154544 265.238452 -70.938689
1513 2 132.695582 -79.882084 179.352753
1514 3 185.952330 -74.413757 243.439166
1515 3 162.250306 -69.522372 169.186638
1516 2 -141.103715 111.342552 187.655991
1517 3 -150.539131 138.421230 214.055923
1518 3 -155.899885 68.276046 144.925712
1519 2 -140.001947 19.017683 153.223683
1520 3 -169.869211 -3.956168 182.106248
1521 3 -193.405672 53.090668 174.427720
1522 2 91.013461 214.826444 248.585905
1523 3 92.054756 249.845103 227.734462
1524 3 110.236651 198.581761 225.463590
1525 2 -27.856433 229.014382 -25.001726
1526 3 16.468590 176.934768 -26.590987
1527 3 -18.966388 273.156341 -26.229453
1528 2 243.467509 223.720798 121.870571
1529 3 209.057412 111.852185 77.056008
1530 3 246.639776 169.708613 85.672608
1531 2 72.612838 260.059584 1.635688
1532 3 60.370639 248.553970 -70.076384
1533 3 35.867103 275.689010 -72.623211
1534 2 68.557418 72.610608 133.060480
1535 3 41.444296 43.887530 64.904931
1536 3 8.594802 41.827574 38.606520
1537 2 274.259158 246.447994 80.065152
1538 3 231.622271 236.935267 63.618481
1539 3 254.613272 241.240588 57.528635
1540 2 178.143289 140.468631 4.022091
1541 3 187.478120 130.948469 -11.663331
1542 3 211.153941 182.685226 -36.816720
1543 2 392.783049 51.594988 135.562007
1544 3 408.162198 28.164835 172.428799
1545 3 424.880422 43.298440 158.697507
1546 2 -84.195949 -25.424345 261.404853
1547 3 -37.924005 -5.150229 221.755772
1548 3 -74.011325 12.624283 250.097415
1549 2 82.323068 87.992877 -199.160708
1550 3 66.223747 30.729994 -145.301605
1551 3 80.916259 55.944189 -169.264913
1552 2 -1.744157 100.251316 147.565536
1553 3 -25.321749 22.711851 92.593148
1554 3 15.382360 67.930825 83.965768
1555 2 -68.665756 82.511752 4.497260
1556 3 -108.839743 107.726084 -10.905286
1557 3 -141.610610 72.811263 -54.902910
1558 2 -44.329141 150.324170 63.220371
1559 3 23.420610 106.562759 102.438904
1560 3 -18.609083 127.425515 132.100031
1561 2 263.173320 94.656383 33.074198
1562 3 294.989533 56.936991 11.210245
1563 3 337.510144 35.003374 34.179548
1564 2 257.537409 180.979336 165.965243
1565 3 204.502587 218.463750 128.760988
1566 3 190.541346 178.154836 178.832857
1567 2 200.080478 -98.670991 -83.416768
1568 3 228.581982 -101.588047 -27.569279
1569 3 235.188917 -94.487760 -122.103001
1570 2 90.193002 228.917637 275.327877
1571 3 99.469363 261.988977 220.046496
1572 3 53.099851 258.284256 210.927876
1573 2 349.975977 141.033356 -33.688904
1574 3 323.627735 228.727888 -12.502280
1575 3 344.499380 203.505015 26.393126
1576 2 -104.761888 6.234384 -155.362148
1577 3 -86.121448 -16.402849 -142.452419
1578 3 -96.016457 19.708825 -128.317781
1579 2 155.533677 151.675116 125.423607
1580 3 117.859356 198.577778 152.914810
1581 3 157.513783 166.067750 126.859372
1582 2 327.780046 21.187212 82.897349
1583 3 345.383806 34.459566 110.751156
1584 3 339.305225 44.682123 66.117209
1585 2 -114.168833 140.786758 236.708679
1586 3 -57.931739 100.380803 145.467584
1587 3 -91.970203 114.959332 211.965029
1588 2 -149.280933 318.928686 4.286518
1589 3 -99.267961 281.607795 28.908676
1590 3 -120.066161 309.180612 22.913145
1591 2 -151.837189 300.205097 -125.130532
1592 3 -98.414631 253.809285 -111.011347
1593 3 -127.184502 262.074729 -105.831893
1594 2 -124.773202 288.146610 234.274731
1595 3 -149.474832 299.352806 218.854441
1596 3 -150.075028 314.302053 274.515466
1597 2 6.826231 160.539670 68.566038
1598 3 -36.150395 94.703318 97.286860
1599 3 -15.863577 136.487283 95.117542
1600 2 -157.268344 163.016402 158.263790
1601 3 -138.518346 189.306677 88.144580
1602 3 -134.859139 186.403069 66.377825
1603 2 19.616877 511.951480 185.419974
1604 3 -6.297603 497.295372 248.894049
1605 3 4.312365 469.555976 171.416196
1606 2 -81.551124 -98.146405 84.214101
1607 3 -78.809042 -62.401795 38.067179
1608 3 -111.220292 -74.333881 41.110908
1609 2 9.593428 226.967673 81.534975
1610 3 10.382503 233.623880 113.901511
1611 3 31.595495 248.876727 57.680719
1612 2 119.788072 147.021313 177.646061
1613 3 106.684642 165.356052 78.239027
1614 3 121.226051 126.651594 147.285605
1615 2 -23.516687 147.092157 -87.015702
1616 3 -52.682997 183.296788 -113.721186
1617 3 -56.879087 153.730553 -75.183729
1618 2 120.984614 -47.528197 1.741752
1619 3 123.154835 18.295639 8.794553
1620 3 83.314064 -7.725841 16.843038
1621 2 115.109607 -13.477351 69.308868
1622 3 107.695006 14.784989 79.720737
1623 3 119.620093 -22.905205 110.142443
1624 2 -40.419234 120.550001 -141.340573
1625 3 -41.901091 98.684013 -145.836797
1626 3 -13.258541 102.957382 -153.993344
1627 2 -167.068707 61.888665 127.178532
1628 3 -134.533854 -6.779760 128.632970
1629 3 -122.098501 41.845591 96.837948
1630 2 -187.280070 414.711357 110.341187
1631 3 -190.438397 346.352471 52.774143
1632 3 -133.021449 312.062766 126.144285
1633 2 -203.162540 54.174954 195.654296
1634 3 -254.554016 31.308986 188.748278
1635 3 -232.947349 82.570433 193.803275
1636 2 108.511250 325.918825 79.931022
1637 3 80.000928 347.741504 82.048915
1638 3 78.167047 324.300573 36.026367
1639 2 -187.063210 147.914504 108.507833
1640 3 -197.982264 153.692983 92.765445
1641 3 -168.077729 134.531883 141.115469
1642 2 179.729767 211.831276 -102.703874
1643 3 167.769190 188.307512 -56.140245
1644 3 168.603897 166.872360 -91.432750
1645 2 222.028169 115.992646 233.871966
1646 3 243.835340 63.599003 235.042101
1647 3 226.228203 117.239192 253.042329
1648 2 -43.017008 380.657592 -136.103624
1649 3 -32.197430 376.181178 -116.935660
1650 3 -35.369524 380.284449 -135.724293
1651 2 30.362754 204.065293 -106.330431
1652 3 43.989433 217.154174 -113.789992
1653 3 91.736447 221.413001 -165.600216
1654 2 229.060888 98.997578 191.027176
1655 3 255.895381 67.838519 181.869346
1656 3 241.828070 103.295647 214.029888
1657 2 84.600037 -92.409593 -107.292864
1658 3 79.216070 -62.735978 -146.305323
1659 3 109.385385 -87.285263 -153.453797
1660 2 268.971530 172.887829 -52.712450
1661 3 272.237714 150.522054 4.986903
1662 3 256.361123 146.698625 -103.688596
1663 2 -114.157654 108.496158 76.158650
1664 3 -108.111205 132.531554 45.188381
1665 3 -95.269369 132.826054 87.603221
1666 2 -198.527503 241.414920 237.027783
1667 3 -166.855359 270.175481 246.216999
1668 3 -198.201552 186.038881 184.878601
1669 2 -5.165171 414.647408 92.076370
1670 3 -2.822168 368.325337 43.187315
1671 3 -48.921940 400.068993 25.446028
1672 2 -25.494661 162.543564 136.035368
1673 3 6.560602 198.761217 58.855017
1674 3 -50.220072 215.120784 199.752221
1675 2 -104.385232 179.423725 24.979305
1676 3 -65.445878 197.844597 -11.555718
1677 3 -92.049108 199.801175 -20.753019
1678 2 24.681530 210.664895 60.883747
1679 3 34.769333 204.829977 60.493267
1680 3 -7.516978 197.610268 -21.176504
1681 2 -213.782414 180.081690 60.730357
1682 3 -222.115754 162.120702 49.018770
1683 3 -224.656604 112.425090 79.648226
1684 2 -173.294783 271.535808 380.183778
1685 3 -207.261410 230.400390 387.865046
1686 3 -189.428106 175.482440 354.919532
1687 2 19.687564 330.693123 -138.790638
1688 3 -22.883111 372.002949 -119.552281
1689 3 2.078656 387.747320 -121.506401
1690 2 129.285576 63.236015 -59.716092
1691 3 126.485800 37.881507 -67.638552
1692 3 117.869635 51.637293 -84.809614
1693 2 1.953565 33.035527 112.551353
1694 3 21.805719 79.675131 84.297821
1695 3 -24.530830 31.132629 99.155734
1696 2 -7.523815 208.643607 -72.402574
1697 3 55.368300 203.030641 -33.480003
1698 3 -13.046453 219.950835 -98.338104
1699 2 353.401919 366.780673 44.771340
1700 3 319.102070 362.989667 52.025932
1701 3 342.400262 313.212636 26.314631
1702 2 115.751888 148.692248 66.426418
1703 3 126.221290 143.910554 65.431824
1704 3 98.294020 88.185508 22.307894
1705 2 -126.774963 -140.850381 36.967301
1706 3 -146.011187 -121.510365 10.137004
1707 3 -158.018180 -113.067000 49.850843
1708 2 -68.195084 -163.768604 154.993129
1709 3 -34.344289 -203.357397 233.589360
1710 3 -67.520659 -158.614869 168.634534
1711 2 -32.015345 -129.569547 -68.230880
1712 3 -30.278241 -145.655391 -2.302405
1713 3 -47.287104 -165.358866 -48.167163
1714 2 226.098370 116.246839 280.460242
1715 3 182.065860 121.513732 320.823017
1716 3 183.479195 113.516537 275.646926
1717 2 -66.077633 149.099875 198.730771
1718 3 -45.782570 178.037185 226.161010
1719 3 -18.541649 218.786384 267.037905
1720 2 -275.578862 234.861767 18.527959
1721 3 -212.059879 228.360917 62.678629
1722 3 -215.510348 179.770535 88.401742
1723 2 187.913234 -24.770196 36.052200
1724 3 233.302975 -3.829646 7.773183
1725 3 222.881055 19.170911 39.316515
1726 2 30.675845 -124.577008 -15.951265
1727 3 81.277454 -126.874208 -78.844514
1728 3 91.530168 -63.264980 -88.905537
1729 2 30.371540 12.321455 -44.058846
1730 3 -7.854298 14.033117 -47.384792
1731 3 14.867613 9.789384 -79.209922
1732 2 171.579393 131.343894 145.175447
1733 3 127.388073 153.267461 140.702630
1734 3 114.561391 108.557249 81.456255
1735 2 95.358741 47.819299 87.935721
1736 3 102.077631 19.592252 23.124773
1737 3 52.576541 30.912955 24.724855
1738 2 19.405967 -60.545588 -14.123384
1739 3 45.611213 -68.603341 12.630876
1740 3 45.438754 -16.107153 -19.979375
1741 2 41.408934 -200.931873 -254.244600
1742 3 4.330525 -173.611280 -268.839156
1743 3 45.320161 -154.811335 -274.597367
1744 2 59.057834 -103.707463 139.438714
1745 3 33.222309 -131.010092 24.744743
1746 3 38.828477 -54.865913 84.035460
1747 2 -67.011650 -42.589560 285.305425
1748 3 -79.219986 -45.504164 223.220396
1749 3 -66.919686 -32.935653 217.830869
1750 2 8.806909 127.980114 193.290668
1751 3 14.507635 128.606614 146.336301
1752 3 -1.135644 134.555077 143.972635
1753 2 -125.844182 -10.301897 -85.486461
1754 3 -151.062148 -37.204461 -63.087527
1755 3 -113.472636 13.077429 -102.380369
1756 2 -41.058015 153.893938 -10.560285
1757 3 -24.413914 81.001545 8.565503
1758 3 -19.870082 126.608277 -21.638042
1759 2 46.185459 -110.340887 -33.021362
1760 3 11.572930 -128.554008 -32.171918
1761 3 14.736471 -76.821842 -26.459579
1762 2 72.031647 61.660403 121.381415
1763 3 56.650465 56.309210 95.060664
1764 3 82.558528 53.487546 74.527532
1765 2 -3.176289 -99.648931 353.942808
1766 3 -6.468821 -95.149481 308.129413
1767 3 8.668439 -151.271701 306.080958
1768 2 12.078550 78.605118 54.626437
1769 3 0.584853 81.513458 56.072294
1770 3 12.796890 63.134858 15.230451
1771 2 95.942262 170.003759 62.046247
1772 3 60.446457 105.034553 119.860883
1773 3 61.239674 172.028483 59.423385
1774 2 -42.829185 -104.911825 -126.413812
1775 3 1.743490 -28.032431 -166.426318
1776 3 -27.779429 -77.502127 -105.641720
1777 2 237.351041 194.914245 -165.875830
1778 3 246.600385 191.665211 -191.667334
1779 3 209.773539 269.424678 -176.879902
1780 2 10.289666 116.321492 37.964450
1781 3 38.745392 93.321956 16.806420
1782 3 33.033177 151.796978 58.634876
1783 2 -310.402529 221.320635 -41.898477
1784 3 -324.777377 265.754014 -42.442378
1785 3 -300.857924 211.540981 -45.890848
1786 2 76.811129 -82.663533 160.306783
1787 3 59.417552 -71.636482 163.336556
1788 3 107.354210 -82.624732 89.475259
1789 2 -151.551924 148.344207 181.636393
1790 3 -136.741938 97.633123 172.656613
1791 3 -115.547436 119.764160 120.499700
1792 2 156.148997 -19.420197 74.824185
1793 3 172.110384 0.069493 99.487708
1794 3 166.111325 -29.396499 64.842287
1795 2 -15.648996 193.985704 -28.966503
1796 3 -0.087767 132.677538 -56.701694
1797 3 -22.319064 176.852954 -49.959836
1798 2 -35.713389 107.073319 312.247819
1799 3 0.709983 94.026066 248.471745
1800 3 -2.199886 182.796567 202.326606
1801 2 78.209710 267.580733 107.919933
1802 3 40.139722 213.796825 95.008751
1803 3 84.353337 213.405254 92.581920
1804 2 151.103533 -153.218899 123.350436
1805 3 179.741574 -142.165172 76.247910
1806 3 168.776388 -93.369934 110.315022
1807 2 -65.622158 132.128367 27.414055
1808 3 -36.034804 124.736059 108.607371
1809 3 -73.718147 160.989200 18.862461
1810 2 246.314392 -18.642539 166.306849
1811 3 279.713447 -50.514858 156.043134
1812 3 238.203323 -59.823529 216.238946
1813 2 -157.343934 -172.433738 171.538264
1814 3 -222.692669 -146.150351 130.247791
1815 3 -205.211371 -116.594759 192.280325
1816 2 -9.288925 69.333009 20.050640
1817 3 14.971365 13.220184 61.133744
1818 3 24.721333 41.926809 -10.361216
1819 2 -234.466298 -23.748617 298.255545
1820 3 -242.914040 -36.589056 300.752137
1821 3 -207.250145 -25.053304 231.775666
1822 2 -23.950421 172.762941 231.969206
1823 3 -7.912414 177.051522 145.955992
1824 3 -64.902629 213.208389 181.725700
1825 2 -216.232995 -120.975447 118.349502
1826 3 -183.034384 -108.547070 124.785380
1827 3 -210.821425 -103.788639 148.702531
1828 2 333.946086 -262.679815 129.490256
1829 3 329.356307 -258.450318 142.082837
1830 3 356.781001 -237.516847 78.667084
1831 2 -105.899177 65.329166 106.323628
1832 3 -94.749889 74.953071 128.825689
1833 3 -111.034380 39.286511 96.581054
1834 2 164.990983 90.126342 188.569942
1835 3 158.885644 110.476585 225.066601
1836 3 177.918959 93.516031 172.827578
1837 2 89.391259 62.452387 -76.232396
1838 3 47.073479 42.035035 -49.288918
1839 3 66.976079 10.045608 -55.992396
1840 2 -205.734819 -179.368884 323.537358
1841 3 -163.736904 -159.707069 352.714883
1842 3 -188.704646 -156.842414 390.718716
1843 2 136.801095 11.641000 124.462872
1844 3 163.799734 -7.750084 112.932095
1845 3 144.556485 -37.493605 115.029382
1846 2 308.482665 -4.451849 50.059387
1847 3 305.630482 46.589740 126.668258
1848 3 314.406418 36.007382 43.238147
1849 2 -105.533527 36.411802 255.923455
1850 3 -95.610060 9.976743 292.510693
1851 3 -67.941273 50.891642 285.926565
1852 2 241.404899 162.606145 -8.120169
1853 3 280.886232 86.058520 76.687855
1854 3 292.436086 149.449057 18.227489
1855 2 -192.665154 -156.582649 57.186464
1856 3 -168.992007 -202.156988 80.703167
1857 3 -215.212351 -215.431818 114.026835
1858 2 -23.305250 201.273117 124.372836
1859 3 2.555155 193.503470 132.592378
1860 3 -27.622040 261.538748 107.774884
1861 2 -374.962148 100.082381 119.700205
1862 3 -330.854553 123.266208 142.112406
1863 3 -339.737175 142.536498 116.736157
1864 2 4.772687 -35.975541 -6.250200
1865 3 17.325799 -54.134276 101.739778
1866 3 18.675891 -29.335298 -12.927860
1867 2 -152.215090 76.562175 61.638726
1868 3 -167.677063 94.794924 47.093568
1869 3 -163.306535 104.204840 93.020591
1870 2 -85.006271 329.861235 170.852579
1871 3 -29.286854 294.208527 138.613599
1872 3 -19.423771 348.972747 140.264374
1873 2 151.380022 42.522716 16.249785
1874 3 136.232500 74.685491 17.823051
1875 3 146.543444 40.716717 90.545915
1876 2 -180.372353 151.744904 162.863583
1877 3 -171.364384 83.282742 241.474648
1878 3 -157.057535 124.211291 240.345717
1879 2 -123.562282 211.630245 399.538344
1880 3 -102.065507 253.220028 368.052952
1881 3 -124.545199 96.624068 359.081207
1882 2 -50.424762 -124.622028 262.031731
1883 3 -69.153338 -81.116649 293.769765
1884 3 -64.177018 -122.969124 348.722742
1885 2 19.700359 40.294427 145.875792
1886 3 4.431623 12.907350 106.775244
1887 3 2.463839 51.063029 119.262669
1888 2 181.141216 6.144307 -63.555056
1889 3 206.724475 -4.431671 -42.232047
1890 3 164.479823 8.341474 -77.237276
1891 2 -31.480995 28.055343 73.150152
1892 3 -25.325659 0.796461 132.322318
1893 3 -64.733226 5.003061 172.704698
1894 2 371.892251 -73.368539 -243.307470
1895 3 382.797723 -136.433324 -234.131115
1896 3 309.417649 -75.348585 -206.426019
1897 2 -299.790716 -6.928809 190.587453
1898 3 -311.214878 9.361489 187.305445
1899 3 -307.963534 -13.280422 149.174600
1900 2 -109.828453 -127.267786 -203.844789
1901 3 -108.730555 -87.762662 -226.996627
1902 3 -83.245996 -6.922114 -221.555564
1903 2 -200.054364 0.251853 -22.292870
1904 3 -140.918653 30.656273 -38.380051
1905 3 -102.743007 28.584245 3.918865
1906 2 231.638417 -30.246700 153.043686
1907 3 241.728088 13.886090 126.348490
1908 3 258.058762 -16.739856 124.428533
1909 2 86.688956 -101.323401 -125.768555
1910 3 99.655719 -112.086445 -128.901261
1911 3 90.952699 -166.975857 -182.298952
1912 2 -3.027938 224.612423 1.176514
1913 3 12.649015 212.172992 -28.549167
1914 3 17.435245 223.565699 1.252392
1915 2 166.752589 167.174622 32.884931
1916 3 162.871849 185.973852 53.587654
1917 3 162.262064 203.782904 59.350118
1918 2 -21.027027 46.516353 194.599596
1919 3 -62.105348 15.999781 147.677012
1920 3 -14.748261 31.589970 203.802208
1921 2 317.329742 250.679560 259.460355
1922 3 345.616751 264.504724 232.219965
1923 3 344.262195 290.994068 320.375452
1924 2 -13.431814 154.200061 155.378115
1925 3 -26.027526 133.333443 118.225331
1926 3 -32.259472 119.195215 159.977410
1927 2 -303.328324 83.909660 167.371864
1928 3 -251.844040 97.119796 102.644161
1929 3 -272.761880 110.636747 133.508358
1930 2 -176.637827 53.686220 81.504151
1931 3 -151.266092 52.701017 151.301235
1932 3 -178.208997 46.529887 98.573702
1933 2 -190.300109 35.254598 -85.564917
1934 3 -199.401281 48.022322 -63.803306
1935 3 -190.593472 99.593138 -19.910938
1936 2 -86.226951 148.694012 -144.215961
1937 3 -116.249931 176.807524 -129.617779
1938 3 -137.523758 178.681817 -125.564184
1939 2 108.934711 -124.226488 103.606050
1940 3 75.459573 -124.359495 -14.074512
1941 3 72.700741 -127.091492 3.821280
1942 2 274.742081 158.986811 -52.651098
1943 3 265.797119 153.371200 -100.865271
1944 3 302.995690 153.123765 -48.180029
1945 2 93.998386 263.861917 372.988824
1946 3 84.360055 288.061709 361.854686
1947 3 35.493206 346.272739 308.344154
1948 2 -173.374404 188.964383 -44.839690
1949 3 -169.419873 135.517045 21.514713
1950 3 -181.745866 182.726916 -16.480585
1951 2 -95.346832 -84.574491 305.456865
1952 3 -117.389439 -71.376891 315.471021
1953 3 -86.373953 -87.747435 328.631860
1954 2 -109.316097 25.965784 157.683252
1955 3 -141.016576 29.011854 189.351133
1956 3 -94.587062 25.176964 153.047017
1957 2 336.237057 235.519809 211.031132
1958 3 304.453211 237.300717 240.500822
1959 3 309.015628 188.719989 258.638589
1960 2 -138.765403 216.713022 166.360553
1961 3 -75.099609 189.110602 212.499391
1962 3 -104.265345 179.333244 164.797046
1963 2 9.200502 194.783549 -30.680881
1964 3 26.432971 229.782564 1.092237
1965 3 8.802677 182.955939 20.452893
1966 2 78.449434 -5.649726 120.574992
1967 3 50.198897 -27.796031 192.982653
1968 3 67.354689 -55.209127 216.612926
1969 2 -112.937627 -17.621834 151.109909
1970 3 -218.520144 15.665144 139.033773
1971 3 -184.764561 35.414854 132.584075
1972 2 36.613026 79.076584 152.356904
1973 3 39.455307 170.628564 72.304736
1974 3 17.499151 144.058386 111.247120
1975 2 -26.974549 23.153132 370.869828
1976 3 -39.076602 50.567747 321.588671
1977 3 -3.739611 -6.049306 366.768232
1978 2 -132.704386 -147.836841 102.754318
1979 3 -162.634335 -153.507978 64.309489
1980 3 -119.651975 -147.232182 20.726883
1981 2 -69.125200 14.527744 377.444657
1982 3 -56.168913 18.061820 363.628191
1983 3 -63.894729 25.227906 363.707681
1984 2 38.484430 329.079188 131.818660
1985 3 17.402523 316.001831 165.379936
1986 3 48.974035 245.087774 117.938499
1987 2 -97.772898 177.229549 98.205996
1988 3 -88.554971 172.467218 185.335853
1989 3 -65.467108 156.180465 157.898805
1990 2 -40.171548 219.880120 270.586116
1991 3 -35.673720 295.591448 205.084419
1992 3 -66.798197 281.152852 200.917374
1993 2 97.958943 176.421289 138.479437
1994 3 99.662017 130.202691 93.042530
1995 3 135.783532 152.113243 61.558032
1996 2 26.428636 229.089750 115.917334
1997 3 29.905176 243.252723 156.897403
1998 3 83.482925 212.747562 127.002659
1999 2 390.352756 80.354161 51.409064
2000 3 420.110449 100.488077 60.191290
2001 3 385.921699 81.060499 63.123924
2002 2 74.945153 78.440011 302.554833
2003 3 80.570016 111.181113 286.649135
2004 3 66.305829 110.851773 338.087206
2005 2 63.180968 93.311792 130.470042
2006 3 64.496124 112.294097 71.989617
2007 3 78.068773 73.828544 86.177701
2008 2 84.444013 179.037490 46.668189
2009 3 64.348969 181.928266 -18.262131
2010 3 79.354376 199.060240 53.972794
2011 2 185.382490 -31.645410 166.971923
2012 3 242.786891 -5.099591 154.817718
2013 3 223.558062 -23.609859 164.234666
2014 2 -15.184395 201.021410 215.421627
2015 3 -36.792238 198.362774 107.243115
2016 3 -75.175316 222.513760 201.390992
2017 2 -4.777282 82.702391 142.526029
2018 3 19.176524 122.416562 163.804261
2019 3 18.158952 72.331883 166.067568
2020 2 -65.144818 -92.644841 152.011063
2021 3 -40.510600 -36.790255 124.004291
2022 3 -77.639812 -23.265497 48.267985
2023 2 -70.617847 293.405498 181.114929
2024 3 -66.389958 247.689379 184.641017
2025 3 -100.574450 247.778050 164.631276
2026 2 -90.893591 310.283013 178.569735
2027 3 -94.928924 325.645057 175.567603
2028 3 -87.342351 318.721391 207.056963
2029 2 17.683987 433.163793 325.439491
2030 3 50.649914 409.272177 345.733821
2031 3 -18.337622 380.746994 289.259426
2032 2 -182.534218 108.681711 47.848804
2033 3 -181.706967 118.293974 102.677282
2034 3 -165.830069 111.299707 31.751847
2035 2 -161.725308 276.320140 149.029320
2036 3 -166.184059 286.197755 183.084189
2037 3 -192.640627 233.863013 189.183019
2038 2 -264.615093 193.484236 -3.678973
2039 3 -305.432100 203.016881 17.452483
2040 3 -264.197789 172.679758 6.308864
2041 2 42.749725 203.205202 3.236674
2042 3 32.335031 256.456488 10.556283
2043 3 58.932435 227.460216 35.179280
2044 2 180.117811 118.334858 191.869553
2045 3 140.800673 93.687558 181.752695
2046 3 175.268674 118.234867 194.025102
2047 2 -1.728710 297.724336 0.043222
2048 3 8.264585 310.720623 14.600220
2049 3 33.773740 264.196107 64.329172
2050 2 202.949164 23.652328 -149.686823
2051 3 165.803147 33.143830 -64.104336
2052 3 190.211279 47.682117 -77.936855
2053 2 -113.229634 325.492436 129.299170
2054 3 -157.604105 288.696062 145.677168
2055 3 -104.835912 309.894970 97.380410
2056 2 -320.107607 64.538867 200.539316
2057 3 -313.649412 0.267749 159.437421
2058 3 -328.889755 2.910039 116.553513
2059 2 -97.653603 280.162536 94.231320
2060 3 -85.395856 258.693783 37.508909
2061 3 -123.825979 242.343796 4.197056
2062 2 -230.941804 6.745991 -41.380495
2063 3 -202.890722 25.934795 29.061737
2064 3 -192.922379 62.348416 -26.150328
2065 2 -53.698526 225.202896 -7.478773
2066 3 -14.071398 215.086346 -45.939561
2067 3 -26.177070 216.901251 32.547291
2068 2 -154.588651 -113.122252 90.031989
2069 3 -199.200455 -64.934821 120.465573
2070 3 -132.985793 -145.525926 106.074798
2071 2 23.063470 261.268902 124.557178
2072 3 -26.103784 331.189573 86.070450
2073 3 27.567718 243.822990 102.865296
2074 2 35.890189 260.961092 140.764720
2075 3 80.000958 270.025582 155.950534
2076 3 88.584074 279.150600 136.617621
2077 2 -70.530419 326.469920 105.151252
2078 3 -99.043607 293.841648 163.038053
2079 3 -127.465885 285.442011 189.449683
2080 2 104.972311 302.096206 161.920617
2081 3 53.832564 291.507061 211.377157
2082 3 132.833007 303.970225 197.357667
2083 2 38.976585 236.633295 -78.583819
2084 3 97.673382 207.132711 -21.255358
2085 3 63.581495 220.589141 -48.759081
2086 2 -116.994332 237.051336 -121.663536
2087 3 -137.824454 211.997459 -56.595246
2088 3 -119.249831 231.622692 -106.379780
2089 2 -66.122466 -129.847436 -4.149547
2090 3 -75.254049 -80.634947 20.576068
2091 3 -75.959429 -66.897991 56.080957
2092 2 121.043547 194.211259 -111.076463
2093 3 89.783802 164.336620 -122.937074
2094 3 118.847868 194.422371 -97.010161
2095 2 149.068198 194.299764 274.544638
2096 3 87.959448 271.505126 239.388515
2097 3 104.265545 188.115862 269.358892
2098 2 -178.622012 -1.370269 -3.234326
2099 3 -140.189634 -17.926155 -14.113339
2100 3 -158.134320 -3.905395 -31.376326
2101 2 -5.381119 232.272600 116.035149
2102 3 -7.563234 277.784769 51.162140
2103 3 -14.541467 198.048243 99.588584
2104 2 114.717052 233.328476 17.940548
2105 3 151.198079 237.192675 47.927496
2106 3 133.938411 187.018614 -10.951424
2107 2 -2.220891 68.457836 48.286075
2108 3 57.165526 145.966516 9.850958
2109 3 46.394876 64.739126 39.598958
2110 2 -398.837378 269.977688 -71.201663
2111 3 -363.419566 291.821941 -25.319248
2112 3 -399.473305 256.040423 -45.696815
2113 2 30.727278 276.092958 154.487977
2114 3 39.226383 237.324877 172.926156
2115 3 46.069973 200.858983 161.963637
2116 2 12.733613 202.638082 -21.943939
2117 3 62.801684 223.478168 -12.463806
2118 3 42.786934 194.232591 -4.268464
2119 2 18.230046 46.341232 120.318873
2120 3 31.584262 66.791157 119.049994
2121 3 40.529467 103.933474 158.049159
2122 2 234.816452 345.134030 -89.362577
2123 3 259.318858 359.660263 -15.170831
2124 3 294.361222 310.315824 -53.944347
2125 2 -43.566702 457.544440 0.604108
2126 3 -6.967545 425.481524 -3.559452
2127 3 -74.133183 430.423160 -27.796401
2128 2 181.238498 135.304641 53.462777
2129 3 185.234613 153.528701 -18.293376
2130 3 161.184367 151.457558 -68.890520
2131 2 228.347805 354.498987 109.950435
2132 3 253.359387 321.447367 143.617098
2133 3 251.584667 291.484710 174.081834
2134 2 -185.210829 -140.612784 166.153553
2135 3 -184.293827 -121.344851 177.123452
2136 3 -182.771255 -97.064134 131.500285
2137 2 -361.672676 284.004476 -36.123705
2138 3 -337.833731 291.828388 -38.233697
2139 3 -375.549736 274.643290 -32.035136
2140 2 21.770725 488.077896 69.554769
2141 3 48.622895 435.840690 77.389403
2142 3 38.704702 437.195878 -4.243926
2143 2 93.902533 350.210314 369.744015
2144 3 95.544758 358.045538 389.484037
2145 3 95.423448 356.318210 420.639956
2146 2 -28.117486 201.038606 -13.315747
2147 3 -29.453490 218.961295 -0.281831
2148 3 -23.569682 246.945190 -70.552632
2149 2 165.106839 69.491457 88.908191
2150 3 199.784823 72.123820 -11.352087
2151 3 148.083555 121.859363 68.401860
2152 2 43.820105 236.833033 140.494937
2153 3 28.126117 319.036758 99.651661
2154 3 58.595651 283.176633 179.815854
2155 2 73.831707 387.039773 95.307613
2156 3 106.984148 387.341700 40.960215
2157 3 108.464735 345.792132 92.245743
2158 2 125.478800 476.052858 166.968215
2159 3 82.939368 501.344364 126.027771
2160 3 130.664413 519.248868 193.397854
2161 2 138.528819 364.414613 -35.585792
2162 3 124.689548 432.188347 -64.266868
2163 3 135.489245 358.485033 -22.603879
2164 2 65.086698 135.991943 242.920839
2165 3 48.559073 150.537455 201.508456
2166 3 67.507696 188.226275 126.451026
2167 2 237.036898 58.329966 47.376841
2168 3 244.005107 -7.349270 52.712348
2169 3 198.219347 24.217650 -1.903975
2170 2 -51.352579 176.359013 -37.541720
2171 3 -63.652411 140.205240 -41.434204
2172 3 -24.131967 184.252955 22.767175
2173 2 -30.967598 -147.258607 -111.402671
2174 3 -71.035564 -92.739070 -176.655289
2175 3 -61.632735 -113.796821 -132.716072
2176 2 -93.431076 9.298917 165.054799
2177 3 -97.804944 39.950001 152.171206
2178 3 -122.153089 -2.314425 237.201008
2179 2 -178.795365 209.806385 65.937392
2180 3 -189.292653 173.794947 79.191057
2181 3 -194.687683 192.136878 123.343839
2182 2 -83.659670 21.285609 84.338341
2183 3 -81.422191 12.519883 64.475342
2184 3 -101.738003 42.590949 95.356289
2185 2 -223.311070 -142.743968 132.228741
2186 3 -161.597360 -176.602753 35.869064
2187 3 -161.491056 -169.781959 107.875169
2188 2 21.860873 -18.736863 133.802756
2189 3 -1.697317 -17.564734 103.659264
2190 3 1.979625 -106.400644 159.105908
2191 2 198.470977 -45.467416 68.130070
2192 3 199.714175 -66.491573 123.848854
2193 3 191.260418 -70.853073 124.078578
2194 2 370.305243 -57.734475 154.224338
2195 3 305.213572 -90.855328 85.762814
2196 3 324.155497 -91.828523 164.823082
2197 2 207.084208 -110.675564 150.360095
2198 3 201.104216 -127.304048 149.544151
2199 3 198.547257 -180.899256 160.730794
2200 2 -146.587165 -143.200705 75.966909
2201 3 -93.663602 -215.863726 -28.950944
2202 3 -127.865614 -124.692515 61.878710
2203 2 62.018770 85.763374 129.315638
2204 3 82.412912 135.867192 99.349726
2205 3 22.190958 75.243203 98.599239
2206 2 221.914531 -161.384831 211.794609
2207 3 259.419973 -84.257930 284.603613
2208 3 203.308109 -85.191230 299.293215
2209 2 386.567215 -9.059287 118.371358
2210 3 423.497493 34.959653 123.015011
2211 3 398.557989 5.723944 146.743050
2212 2 -345.241898 75.250749 177.903388
2213 3 -310.405191 65.666626 118.789843
2214 3 -313.393320 47.609609 219.186960
2215 2 -17.684621 151.049581 25.660397
2216 3 3.455885 154.115434 -25.106634
2217 3 14.070241 149.608230 53.517173
2218 2 -261.379574 -220.828320 11.704499
2219 3 -226.744358 -236.785733 38.420001
2220 3 -275.167942 -204.349598 29.972069
2221 2 74.233174 46.045892 72.716896
2222 3 78.247887 56.600763 49.116866
2223 3 47.745140 39.708648 85.578135
2224 2 -112.756829 -75.018865 161.145820
2225 3 -153.531931 -30.338191 219.157548
2226 3 -141.498279 -81.677771 188.109165
2227 2 169.185385 -130.947040 151.551237
2228 3 227.413856 -123.119115 202.472005
2229 3 178.465887 -124.105842 128.108295
2230 2 40.277486 135.113439 197.109141
2231 3 72.734635 115.291705 130.811796
2232 3 76.846822 169.745468 200.531659
2233 2 -298.005273 -15.513167 240.233456
2234 3 -253.118705 -22.450749 316.565670
2235 3 -320.424831 0.920146 295.803256
2236 2 172.140248 -37.308173 61.892913
2237 3 159.804704 -74.189532 42.552622
2238 3 205.460631 3.393385 55.474163
2239 2 43.507911 -17.165310 116.080669
2240 3 68.416927 -72.094769 119.330709
2241 3 38.211503 -108.900965 121.790296
2242 2 190.497172 -37.160255 -91.685898
2243 3 225.788418 -25.341908 -25.302596
2244 3 225.310548 -53.113042 -31.612891
2245 2 317.228528 -60.109460 233.656413
2246 3 285.910448 -65.425783 236.189281
2247 3 307.606546 -55.604644 251.530025
2248 2 -44.404768 -207.483292 -70.608227
2249 3 -12.523341 -123.290634 -162.734165
2250 3 -53.436703 -187.105614 -100.500286
2251 2 -172.703682 -83.472447 -26.400095
2252 3 -140.822394 -121.543175 -54.573842
2253 3 -189.250575 -84.922745 -16.619159
2254 2 9.146299 189.516420 135.023614
2255 3 -17.058868 154.815759 75.036250
2256 3 31.975738 196.991287 64.111470
2257 2 -212.460199 90.742435 133.431737
2258 3 -187.968947 94.045072 100.597745
2259 3 -151.936505 144.060780 133.433869
2260 2 -9.635563 29.927816 135.161808
2261 3 -5.681954 72.237412 86.530807
2262 3 -8.445103 23.715199 119.492070
2263 2 37.867803 136.940873 187.947325
2264 3 82.446689 142.309155 187.319192
2265 3 24.991056 125.508308 157.637778
2266 2 -120.899759 96.419662 -125.794905
2267 3 -108.296981 101.751333 -76.561150
2268 3 -99.909312 96.191795 -79.164697
2269 2 42.453512 83.582928 124.517157
2270 3 39.449195 88.927827 86.805627
2271 3 32.147485 7.236717 140.194248
2272 2 68.536484 104.794402 41.734260
2273 3 89.179421 105.686270 82.667786
2274 3 62.994751 108.222588 77.172356
2275 2 7.954745 30.199356 67.186440
2276 3 28.709394 -2.900356 91.343247
2277 3 -10.218002 -54.329673 132.870833
2278 2 -109.682104 -25.080596 -27.785566
2279 3 -123.208108 -4.334441 -19.651063
2280 3 -113.562264 -51.039649 -35.977835
2281 2 3.166905 -111.503696 19.470436
2282 3 -23.936916 -79.208542 43.305141
2283 3 -7.173446 -140.536291 -24.866826
2284 2 24.481275 227.979670 -36.652426
2285 3 39.314765 232.838457 -72.885871
2286 3 31.091369 230.019674 -87.706821
2287 2 287.830407 224.684263 -72.833616
2288 3 327.884119 199.438857 -85.819237
2289 3 263.244116 199.161166 -13.693147
2290 2 -307.321617 294.671559 -157.035369
2291 3 -241.798123 329.189936 -139.458276
2292 3 -263.848765 287.894371 -226.411818
2293 2 22.561800 -96.096814 177.350778
2294 3 -17.708140 -135.861567 118.593240
2295 3 -28.690656 -103.614246 171.220534
2296 2 -85.927895 -16.820158 218.130617
2297 3 -69.573354 -42.051959 189.042952
2298 3 -101.456103 -29.214036 148.094076
2299 2 -265.402792 -202.266748 212.306165
2300 3 -269.322380 -213.426981 248.580167
2301 3 -213.297765 -229.262791 228.999623
2302 2 14.509139 -109.040586 -63.850948
2303 3 -4.003338 -88.631473 -51.996731
2304 3 6.558046 -87.557245 -100.500425
2305 2 -72.817143 135.907460 286.831862
2306 3 -59.439170 185.179595 296.673790
2307 3 -26.084003 175.117233 325.850853
2308 2 59.097930 331.684138 115.352352
2309 3 95.467098 390.831934 150.901054
2310 3 83.802669 298.748587 167.274596
2311 2 44.889703 49.402747 -47.051420
2312 3 45.788418 48.336285 -65.446330
2313 3 54.215515 61.155674 -15.167528
2314 2 160.678925 -249.722937 204.629805
2315 3 119.445347 -240.060736 213.886813
2316 3 150.199176 -227.171365 215.068664
2317 2 74.279824 113.125779 -312.642993
2318 3 132.354484 92.009081 -278.256473
2319 3 90.174317 89.066125 -318.273389
2320 2 -33.028211 25.621295 -190.538255
2321 3 -15.648473 -11.328098 -167.306244
2322 3 2.706540 66.360123 -177.827767
2323 2 17.307163 144.616938 182.037183
2324 3 29.810257 78.576796 144.619949
2325 3 24.250050 92.005280 145.881899
2326 2 129.700083 216.597485 43.472110
2327 3 148.925953 205.106300 68.451901
2328 3 158.915742 214.473613 65.048748
2329 2 -253.731116 387.736677 -57.646123
2330 3 -286.633616 366.020033 -40.006257
2331 3 -289.517203 414.841658 -55.096487
2332 2 -76.961320 191.917313 211.882937
2333 3 -87.243109 192.169522 261.181125
2334 3 -103.417586 170.868958 201.691756
2335 2 44.609803 -235.229636 62.076567
2336 3 32.950913 -190.485861 69.477037
2337 3 0.077624 -213.315595 76.351051
2338 2 184.322911 271.601065 126.292544
2339 3 235.716309 221.663841 126.535563
2340 3 216.754505 229.024037 86.210300
2341 2 188.466706 160.288693 238.940452
2342 3 218.741340 133.399764 221.005709
2343 3 144.414981 165.920846 242.212625
2344 2 -129.749214 155.707338 -15.475874
2345 3 -134.532091 189.921842 57.735082
2346 3 -114.881669 113.211250 56.005752
2347 2 -50.872484 246.939199 -85.082709
2348 3 -83.016471 208.004343 -94.970655
2349 3 -88.875425 201.122458 -75.658704
2350 2 37.038332 25.942265 11.922000
2351 3 22.786965 -31.692167 51.150899
2352 3 -1.412126 -12.573974 72.289527
2353 2 1.398589 395.510384 199.194592
2354 3 -30.254407 361.334286 232.612858
2355 3 -15.468766 407.894243 208.481860
2356 2 -64.475871 2.349852 284.182028
2357 3 -64.255874 -90.410275 312.781756
2358 3 -64.441608 -49.174494 294.186147
2359 2 -220.718701 -0.667790 167.443531
2360 3 -218.679213 -29.950938 222.127555
2361 3 -236.515647 -16.283758 161.249398
2362 2 -113.915811 138.741767 151.076788
2363 3 -88.628195 97.707525 129.546635
2364 3 -121.691242 150.631722 114.781179
2365 2 133.022050 99.099219 -69.635102
2366 3 64.639567 117.082436 -58.915758
2367 3 73.028072 77.891086 -59.923591
2368 2 163.718179 152.094785 252.099150
2369 3 107.102340 192.688474 299.281479
2370 3 153.773082 204.607766 272.669648
2371 2 -238.123213 -8.461243 229.179952
2372 3 -232.064599 -6.978835 298.857311
2373 3 -224.874340 -33.538765 293.929336
2374 2 -158.424268 108.395248 84.386527
2375 3 -99.676305 69.451230 152.799810
2376 3 -133.271711 65.020960 166.167807
2377 2 245.777510 265.553956 385.783655
2378 3 290.820755 216.707716 335.567512
2379 3 238.900038 248.996537 332.496924
2380 2 115.672754 237.671550 -108.444842
2381 3 133.430012 232.450307 -57.520614
2382 3 98.519669 242.809168 -114.407156
2383 2 -0.242112 155.745379 -30.249812
2384 3 0.152691 147.026262 26.041686
2385 3 -38.634734 137.719423 46.232590
2386 2 -282.338308 -18.644193 509.129327
2387 3 -273.176842 44.459954 444.226351
2388 3 -269.566713 20.009157 481.597327
2389 2 -346.196578 35.244374 246.817917
2390 3 -299.732443 30.803001 187.860713
2391 3 -313.318137 88.051102 240.893936
2392 2 -238.517272 213.782670 288.396015
2393 3 -204.820048 213.685058 253.644851
2394 3 -222.292176 156.562199 208.555833
2395 2 48.544280 219.014555 88.900829
2396 3 22.060833 197.261026 107.958405
2397 3 12.791046 154.457287 56.283649
2398 2 -52.891846 175.007960 74.902397
2399 3 -29.215032 116.682783 114.721248
2400 3 -54.351036 109.298344 78.740475
2401 2 -49.036934 221.781720 -37.433086
2402 3 -48.576664 246.633259 -25.350676
2403 3 -41.217730 255.303973 16.255672
2404 2 -31.502616 279.654135 159.960370
2405 3 -7.519887 354.292269 127.286041
2406 3 20.103981 291.157575 118.244134
2407 2 245.025455 252.906774 97.098971
2408 3 258.293900 284.643087 99.263547
2409 3 217.106535 232.140109 24.090774
2410 2 358.018691 -47.676271 74.790464
2411 3 368.144450 -73.424817 103.640287
2412 3 386.122599 -60.835290 95.912511
2413 2 69.650648 153.130729 -4.878665
2414 3 103.874777 152.031809 73.709350
2415 3 53.232367 159.279995 44.552858
2416 2 -164.771562 202.395604 -42.060787
2417 3 -161.251295 145.771049 30.374373
2418 3 -168.735274 178.476407 42.514201
2419 2 -18.998184 289.024110 207.121507
2420 3 -6.522665 297.445155 169.431907
2421 3 -0.780016 249.960169 121.152310
2422 2 166.400854 225.804469 198.074683
2423 3 230.948111 237.160990 169.206722
2424 3 199.333206 254.087326 177.721344
2425 2 -162.396349 424.757010 -0.312973
2426 3 -169.455111 429.080439 -86.176297
2427 3 -148.164596 406.839065 -35.137853
2428 2 -223.330100 43.809329 330.472807
2429 3 -260.446857 59.430307 390.325251
2430 3 -267.024803 56.089299 348.862680
2431 2 -182.101988 67.198605 240.564222
2432 3 -177.243040 20.628944 170.070300
2433 3 -120.845541 62.707131 194.506599
2434 2 61.668367 377.320495 -90.234015
2435 3 84.546503 415.261326 -76.943617
2436 3 48.598230 454.841727 -113.582816
2437 2 133.664855 259.376623 258.964926
2438 3 90.596354 245.890180 305.441901
2439 3 105.913637 266.972333 272.776151
2440 2 229.432441 146.075219 205.282756
2441 3 237.698511 146.988213 156.983637
2442 3 233.662672 143.293329 261.172490
2443 2 323.123735 80.965024 -303.740738
2444 3 299.019036 68.588330 -307.384474
2445 3 314.619051 97.001309 -300.930135
2446 2 222.896412 139.959341 224.442361
2447 3 252.061896 124.817805 234.242090
2448 3 194.393873 84.863843 228.832506
2449 2 17.310087 43.958546 -49.903877
2450 3 30.678686 49.127711 -83.342592
2451 3 20.337607 17.225733 -42.992396
2452 2 106.636943 247.506167 196.476487
2453 3 77.363412 266.035521 182.683160
2454 3 119.033719 285.974435 230.257883
2455 2 384.075493 162.176502 211.670558
2456 3 339.273673 248.188049 210.322586
2457 3 384.348815 145.516568 198.510900
2458 2 130.133422 224.094854 276.539048
2459 3 131.644668 192.463953 304.323413
2460 3 121.752562 173.653243 378.442600
2461 2 361.625418 203.734964 325.471117
2462 3 387.169890 250.268360 301.705611
2463 3 325.805930 233.457743 274.979490
2464 2 -122.111874 394.382439 126.273714
2465 3 -86.698425 399.083147 125.973939
2466 3 -138.053750 340.271609 185.335816
2467 2 -257.133764 117.723137 134.012183
2468 3 -212.806510 135.268470 128.948587
2469 3 -197.121575 130.446492 121.050641
2470 2 -80.993960 188.887008 93.409544
2471 3 -81.385209 200.381629 74.080649
2472 3 -73.007227 220.603023 99.775213
2473 2 2.908285 269.503299 33.068813
2474 3 -5.912032 252.734738 7.290492
2475 3 -9.400424 308.644356 34.822500
2476 2 -1.427785 -127.164914 -99.137534
2477 3 -17.986719 -80.474960 -177.925838
2478 3 -0.272345 -78.755766 -123.000613
2479 2 1.761962 228.303673 103.910115
2480 3 3.534580 288.470887 33.948365
2481 3 -42.214642 216.265012 45.347301
2482 2 48.196868 49.461723 -23.246220
2483 3 64.118652 16.449317 -75.484796
2484 3 60.878206 94.326891 -92.488650
2485 2 103.291028 497.106595 -172.614067
2486 3 88.402204 452.309058 -204.375479
2487 3 56.618345 499.143604 -207.647228
2488 2 -5.911451 186.086105 93.141136
2489 3 -52.450298 209.347595 42.822667
2490 3 11.210402 253.038063 80.916376
2491 2 91.333582 178.158911 -34.967013
2492 3 112.704155 211.585848 -33.209722
2493 3 93.222254 161.685814 16.520097
2494 2 16.916246 295.979310 190.355700
2495 3 20.286014 298.432612 175.457908
2496 3 -27.041850 348.076849 177.574099
2497 2 21.091339 154.869521 74.676705
2498 3 42.963473 130.035824 99.536328
2499 3 60.667077 116.702724 110.243245
2500 2 -218.744856 50.250979 245.273950
2501 3 -158.965551 104.525886 265.292132
2502 3 -208.780901 60.179601 346.995107
2503 2 -23.201358 175.714138 83.247562
2504 3 -15.393318 176.369488 76.474161
2505 3 -12.066325 235.662486 129.930735
2506 2 -20.854385 140.625175 216.164992
2507 3 5.957344 231.814175 264.490313
2508 3 12.356999 167.307401 213.550696
2509 2 -166.986375 302.100433 94.292791
2510 3 -199.144893 264.957796 57.319623
2511 3 -181.264853 294.430480 38.711053
2512 2 -95.564999 309.229174 164.832354
2513 3 -107.684139 418.022516 222.779104
2514 3 -99.396648 340.249045 198.894714
2515 2 -42.373581 203.229437 -151.881637
2516 3 -42.705342 214.148561 -130.159890
2517 3 -59.535540 189.165429 -163.838575
2518 2 0.960554 123.161990 211.469010
2519 3 27.800934 133.490009 280.529750
2520 3 22.753616 181.274527 279.279110
2521 2 -193.427635 392.123782 296.956525
2522 3 -140.655536 408.845514 252.868329
2523 3 -173.188269 434.564047 273.144927
2524 2 98.623600 283.311830 192.299755
2525 3 129.696804 273.000726 182.867437
2526 3 101.778279 234.365621 185.327310
2527 2 -38.271691 432.120688 83.283345
2528 3 -10.476281 425.424600 50.144687
2529 3 25.708382 477.934632 102.599923
2530 2 307.195527 338.957472 155.798824
2531 3 310.460232 320.267545 129.151593
2532 3 341.138268 341.978229 133.282186
2533 2 187.703965 151.185903 -20.107407
2534 3 169.911778 120.714146 -31.707687
2535 3 140.500162 105.417283 -4.124723
2536 2 176.154148 417.552430 72.563701
2537 3 172.886301 397.393799 116.138192
2538 3 216.984048 416.335235 119.156627
2539 2 56.969156 301.998898 259.184833
2540 3 51.953623 366.593387 235.207336
2541 3 76.198262 284.536170 227.452225
2542 2 -131.796480 -89.821406 110.175785
2543 3 -134.809074 -103.358381 36.552063
2544 3 -91.823743 -87.055329 106.842343
2545 2 -137.536859 45.599736 3.209943
2546 3 -154.698110 47.841598 2.995367
2547 3 -171.209655 59.759415 25.294158
2548 2 -82.937880 -245.372049 316.416709
2549 3 -82.016774 -217.697409 331.421152
2550 3 -69.601967 -238.531945 278.929192
2551 2 -190.012539 111.629260 68.437919
2552 3 -181.615108 114.084333 50.196555
2553 3 -178.075898 134.322680 78.182103
2554 2 69.736033 57.007033 4.967148
2555 3 30.881272 -4.515045 -63.914413
2556 3 42.574058 -52.172581 -3.524338
2557 2 -207.454446 -170.173150 158.396707
2558 3 -225.431658 -128.284056 222.891715
2559 3 -244.740945 -134.028188 222.966906
2560 2 294.670657 -36.293793 144.194941
2561 3 288.777618 -41.028996 132.594509
2562 3 256.638907 -18.739603 123.717763
2563 2 74.271665 -137.541229 -40.142029
2564 3 65.944210 -95.628492 50.862694
2565 3 11.273544 -108.440291 -40.497806
2566 2 18.885334 26.354088 101.547566
2567 3 2.031096 80.478544 114.705591
2568 3 17.415716 41.710260 134.827896
2569 2 103.678093 -58.885120 362.588953
2570 3 96.020551 -88.787644 332.791266
2571 3 92.430445 -85.749516 359.784328
2572 2 102.228423 134.151875 107.290905
2573 3 116.795062 99.361637 82.926304
2574 3 131.956543 66.362332 87.902554
2575 2 183.217039 277.971204 64.926727
2576 3 170.718298 235.616843 48.864089
2577 3 154.906427 312.115738 70.483352
2578 2 214.083501 -109.746521 170.883255
2579 3 235.209747 -136.904687 134.490682
2580 3 240.982640 -151.279243 71.976055
2581 2 -7.633863 119.283279 283.377589
2582 3 -12.708584 110.551686 311.558425
2583 3 -57.688922 130.334619 276.721167
2584 2 -78.996149 -99.064896 18.634725
2585 3 -94.791869 -50.544164 56.625414
2586 3 -65.045755 -148.707104 27.178617
2587 2 -348.397255 -26.628833 359.630035
2588 3 -356.098365 -48.083845 387.507969
2589 3 -357.376062 -9.271814 375.208456
2590 2 -59.878315 -52.484839 77.762082
2591 3 -84.302062 -58.497624 81.882462
2592 3 -39.298153 -38.340271 141.040001
2593 2 -247.690915 50.783350 142.048683
2594 3 -269.376857 32.475350 88.146195
2595 3 -263.146061 43.939512 97.255340
2596 2 -79.784175 15.335574 240.811087
2597 3 -87.100544 6.331417 233.497563
2598 3 -72.651690 -17.396864 251.472327
2599 2 -130.285258 98.530792 230.839518
2600 3 -210.911620 156.749196 189.206637
2601 3 -170.342249 175.899554 194.008163
2602 2 46.566115 -71.509716 22.277269
2603 3 54.085963 -94.587478 34.804856
2604 3 43.865245 -94.436028 25.542506
2605 2 107.686705 -104.059777 298.978890
2606 3 119.067477 -87.869807 356.270050
2607 3 166.790218 -74.359242 299.901808
2608 2 8.532705 62.343117 342.151936
2609 3 -14.260229 87.895502 368.029481
2610 3 35.321291 58.298515 313.401919
2611 2 -31.997633 94.019004 140.815490
2612 3 -92.401250 10.973958 125.095710
2613 3 -35.607356 34.645993 120.972931
2614 2 140.683400 306.046370 112.033597
2615 3 103.158638 225.169128 123.673664
2616 3 95.256757 210.276106 15.060834
2617 2 45.250460 12.585584 75.138897
2618 3 49.766791 -49.688459 50.408671
2619 3 37.461345 -37.231076 -0.540762
2620 2 -262.701419 107.153194 173.465094
2621 3 -241.438550 63.952878 161.844771
2622 3 -241.553026 16.474123 167.433475
2623 2 -155.540681 -4.255026 110.260746
2624 3 -175.443817 -18.977965 169.703636
2625 3 -172.322010 -87.333567 79.206999
2626 2 -172.491456 -277.578219 142.382419
2627 3 -188.732895 -256.714961 144.048591
2628 3 -146.848729 -268.600910 111.470617
2629 2 -84.366134 141.150498 -87.406261
2630 3 -86.710614 165.551427 -78.480904
2631 3 -82.474652 175.237651 -13.305551
2632 2 218.844810 251.314278 94.797003
2633 3 186.977806 260.743822 32.049991
2634 3 189.024381 256.920249 94.695528
2635 2 128.569794 -59.719280 182.991451
2636 3 142.396383 -26.133086 140.601422
2637 3 151.582462 11.346419 196.589688
2638 2 -128.927374 -29.624958 451.048100
2639 3 -102.244357 17.558807 427.265896
2640 3 -113.001421 -9.942203 451.737272
2641 2 40.418088 55.428513 158.934676
2642 3 9.812146 -22.232119 235.975426
2643 3 15.597336 32.900247 221.297560
2644 2 40.501948 86.871432 342.974993
2645 3 64.540310 81.147707 324.134917
2646 3 59.129578 109.935289 372.929631
2647 2 190.146917 55.955414 101.210656
2648 3 197.177910 48.690592 46.522992
2649 3 221.040778 87.193702 94.816202
2650 2 -350.203379 164.763937 65.656303
2651 3 -310.914515 99.880818 115.770200
2652 3 -307.438829 117.244186 94.082400
2653 2 206.115046 38.415391 126.440278
2654 3 175.445330 53.266502 186.140939
2655 3 152.087645 52.097771 102.972187
2656 2 16.714677 -9.497828 244.577287
2657 3 13.357935 60.723933 216.485535
2658 3 13.331076 51.749795 193.382483
2659 2 -10.931954 -84.892519 -44.799973
2660 3 -6.467533 -132.844854 -14.941132
2661 3 -34.036099 -67.671189 -44.862594
2662 2 55.722148 20.499767 3.400951
2663 3 45.261913 23.333879 21.732021
2664 3 39.290260 37.062762 32.089392
2665 2 -222.744582 -228.377658 310.524815
2666 3 -241.941144 -194.859419 312.869070
2667 3 -218.738965 -142.629252 260.752676
2668 2 -11.896823 168.137783 221.838103
2669 3 -0.633698 151.215293 207.643488
2670 3 -22.230668 130.358056 162.562497
2671 2 140.318342 -84.657058 146.157079
2672 3 115.324237 -55.330389 84.008853
2673 3 129.215298 -96.042953 120.140408
2674 2 -21.778425 19.981609 -87.688987
2675 3 -16.671616 -14.466816 13.285246
2676 3 -42.219498 51.007254 40.632344
2677 2 346.258225 -15.494998 -46.626818
2678 3 318.347575 41.100615 -18.578762
2679 3 291.759289 46.802155 -2.147247
2680 2 348.473716 111.134132 243.551519
2681 3 298.400068 99.690544 254.706084
2682 3 336.215710 68.967263 260.037082
2683 2 159.667797 -15.623052 -10.982075
2684 3 151.441130 -37.647225 80.574664
2685 3 151.032873 -42.164270 33.198651
2686 2 51.175208 23.092120 295.090982
2687 3 39.672137 -15.312546 275.507375
2688 3 56.242139 28.797993 274.389459
2689 2 218.609893 121.674646 8.871359
2690 3 243.314481 140.911243 -19.198484
2691 3 200.179585 127.602797 -14.661552
2692 2 198.128387 -89.789675 181.031823
2693 3 171.925803 -65.500831 79.929241
2694 3 156.879470 -76.613718 133.895909
2695 2 -243.789494 -37.012211 282.459431
2696 3 -235.941961 -71.192403 281.516548
2697 3 -258.897884 -50.009680 252.897667
2698 2 273.342563 31.244397 -24.729236
2699 3 235.982557 72.736523 34.734018
2700 3 254.987487 28.130291 96.542361
2701 2 -21.450099 233.060181 275.099795
2702 3 3.657960 250.101812 263.392011
2703 3 -7.475143 241.308703 183.973821
2704 2 120.589501 182.954783 360.935421
2705 3 73.524306 196.077008 306.236783
2706 3 71.491116 201.198251 302.998893
2707 2 -61.615326 -38.757438 167.099812
2708 3 -130.440432 -51.952446 201.366784
2709 3 -69.372651 29.410156 198.945069
2710 2 -9.201198 15.568163 273.799502
2711 3 -32.284069 62.197073 232.642639
2712 3 -54.003517 11.250668 268.808772
2713 2 -257.171577 57.619914 64.275575
2714 3 -291.491516 64.847213 33.077988
2715 3 -278.720143 35.870866 86.369142
2716 2 46.448817 74.642304 237.096829
2717 3 57.421044 95.624592 183.916989
2718 3 35.210620 82.109165 249.269283
2719 2 -90.459549 56.556952 40.622652
2720 3 -152.124537 55.243401 22.516084
2721 3 -57.319988 27.374003 81.582516
2722 2 -274.244347 342.880603 -65.994429
2723 3 -280.814405 373.443008 -9.581190
2724 3 -240.432770 296.027233 8.942195
2725 2 -174.396366 302.041866 -86.131524
2726 3 -190.072513 313.535787 -79.400289
2727 3 -158.600665 327.191819 -96.455530
2728 2 -212.187074 171.228859 139.229915
2729 3 -201.401082 134.800976 167.311278
2730 3 -155.270687 142.155638 80.562366
2731 2 -89.058798 339.383709 24.347813
2732 3 -97.107687 382.024154 32.011076
2733 3 -61.382073 385.620332 -23.329341
2734 2 -185.011815 275.329915 -53.539447
2735 3 -144.560260 223.248933 -84.262862
2736 3 -174.670859 260.151464 -30.202377
2737 2 152.350232 167.903089 299.069506
2738 3 200.725625 186.685048 366.092271
2739 3 172.921181 233.906467 349.394828
2740 2 -219.081308 -163.594272 229.324373
2741 3 -186.590036 -147.097548 266.252268
2742 3 -233.874618 -154.556572 275.922502
2743 2 142.034826 -106.311805 -209.966757
2744 3 144.840999 -58.757092 -206.456390
2745 3 118.534656 -102.628453 -270.945181
2746 2 267.015778 90.463254 248.362677
2747 3 253.736117 112.872772 231.373437
2748 3 238.054756 112.256185 346.122451
2749 2 -294.107451 112.828604 263.992522
2750 3 -263.454312 131.277406 250.389672
2751 3 -287.623891 109.204465 236.071744
2752 2 57.658654 252.168774 173.187193
2753 3 70.203608 193.870744 186.525306
2754 3 44.114010 216.543433 189.476918
2755 2 114.645362 206.378518 115.725316
2756 3 56.243862 215.254125 133.723090
2757 3 107.824839 266.134608 127.558351
2758 2 -134.376659 186.652282 215.673696
2759 3 -99.413262 146.807959 239.256253
2760 3 -115.654307 166.778200 143.286849
2761 2 -28.553268 111.484697 225.892814
2762 3 -0.393417 76.660634 190.825388
2763 3 -25.743616 120.170046 204.525719
2764 2 50.431574 284.733613 224.937384
2765 3 42.639396 243.604641 261.069068
2766 3 67.008747 254.569484 335.271731
2767 2 -25.512215 302.650159 -21.869666
2768 3 -53.264706 261.446154 -14.800791
2769 3 3.709363 299.644181 -18.436483
2770 2 -29.021571 92.095024 128.282913
2771 3 -56.752600 65.233235 104.486778
2772 3 -21.399936 90.164764 101.387682
2773 2 -26.562812 244.683598 221.543743
2774 3 -74.291888 194.814277 264.884312
2775 3 -68.294751 192.295398 236.916944
2776 2 16.636393 168.007360 119.413475
2777 3 -35.824038 192.843893 203.901848
2778 3 -5.197025 184.109716 169.001945
2779 2 85.207555 190.999187 85.765614
2780 3 93.490578 283.353581 -29.037183
2781 3 80.882427 188.252564 3.457927
2782 2 -178.550933 114.358527 195.626508
2783 3 -207.445671 95.218432 191.471328
2784 3 -162.377899 112.542573 143.703563
2785 2 208.422631 6.606559 165.895201
2786 3 225.468729 -8.596670 196.664012
2787 3 224.609051 43.846969 196.468368
2788 2 -53.387156 236.292339 214.197725
2789 3 -76.327759 239.123589 149.637683
2790 3 -45.422343 249.790474 166.307237
2791 2 -113.142630 75.434048 154.640517
2792 3 -62.527053 51.661901 150.864381
2793 3 -130.206008 33.320738 141.472196
2794 2 -282.251589 132.331299 192.644710
2795 3 -290.779740 99.195295 251.603740
2796 3 -231.630779 151.758496 161.192133
2797 2 50.672666 -74.699415 203.998166
2798 3 27.990035 -107.896631 137.047592
2799 3 22.686678 -59.044522 151.893840
2800 2 -146.642665 171.249157 -213.169219
2801 3 -154.247060 131.229824 -220.995333
2802 3 -108.567999 159.732535 -251.981736
2803 2 -75.025837 227.920829 33.924671
2804 3 -71.727558 219.948889 84.542730
2805 3 -70.840882 263.066474 16.040338
2806 2 233.824821 168.481795 106.498708
2807 3 245.702228 123.758462 113.250304
2808 3 185.559097 185.062203 154.232282
2809 2 355.139319 95.882114 110.098122
2810 3 369.028433 91.642909 95.663911
2811 3 345.309412 108.255695 122.679549
2812 2 88.218862 71.984728 332.364920
2813 3 56.482744 45.312932 315.871553
2814 3 83.855082 58.349442 265.968831
2815 2 132.601283 281.530861 132.113343
2816 3 114.120558 260.097792 120.594901
2817 3 119.605395 227.336802 135.545152
2818 2 -66.261185 268.263405 284.025318
2819 3 -79.304025 239.912311 268.145396
2820 3 -49.489586 228.548523 237.869016
2821 2 173.208134 81.612506 340.222107
2822 3 161.583417 102.525923 373.505583
2823 3 101.964203 98.127430 369.949936
2824 2 186.155140 78.350469 41.611293
2825 3 180.053400 117.491104 37.182855
2826 3 159.999367 17.040192 -17.187957
2827 2 -18.864660 282.637702 152.005334
2828 3 6.026460 298.742445 199.955762
2829 3 36.967615 294.078957 122.549945
2830 2 -21.809355 241.099842 517.317353
2831 3 -13.319442 224.586788 417.582284
2832 3 -20.646380 216.292395 459.596415
2833 2 -226.723134 360.140384 212.635842
2834 3 -184.633742 393.414990 188.434451
2835 3 -272.305061 380.731668 249.145860
2836 2 67.585514 159.204840 193.462785
2837 3 65.914738 84.171083 171.740531
2838 3 56.681610 87.542207 236.951522
2839 2 -62.988499 459.644669 139.041237
2840 3 -29.579246 417.506543 191.474114
2841 3 -16.883703 427.805955 194.502171
2842 2 -123.471643 272.561702 252.145409
2843 3 -142.912366 312.432261 278.087756
2844 3 -85.641335 261.050584 242.041227
2845 2 111.445352 266.890306 63.946617
2846 3 86.915541 307.195662 54.417363
2847 3 106.655560 239.611343 6.475657
2848 2 10.547621 158.832381 -40.126761
2849 3 51.119948 170.773293 -113.252484
2850 3 61.751947 162.450392 -83.521675
2851 2 -35.681923 325.211066 351.013191
2852 3 -55.431235 340.215201 298.115921
2853 3 -6.188725 299.893044 330.972443
2854 2 100.349279 77.380245 66.805467
2855 3 105.048881 96.254961 140.865522
2856 3 148.979309 68.506748 117.051359
2857 2 95.271750 240.764892 63.479835
2858 3 64.485722 272.529590 34.346901
2859 3 48.827773 228.744035 21.530005
2860 2 53.327924 256.637480 28.005490
2861 3 55.095813 277.795260 -33.270640
2862 3 78.320630 281.656661 4.217346
2863 2 317.806675 200.175368 309.386196
2864 3 288.683627 168.857553 261.775068
2865 3 278.991934 141.816369 273.121254
2866 2 -90.527670 -74.237387 234.807985
2867 3 -88.311550 -115.765517 214.065278
2868 3 -118.217256 -109.306768 169.799945
2869 2 178.927684 41.017895 12.754357
2870 3 207.735665 49.400254 69.836633
2871 3 214.977455 46.094139 24.724299
2872 2 299.598810 -80.145742 174.557565
2873 3 306.362151 -110.213445 162.233918
2874 3 321.493663 -74.530480 128.416707
2875 2 1.275944 96.610658 299.443116
2876 3 -43.429271 58.218807 290.735435
2877 3 -22.649969 75.743884 265.725084
2878 2 -3.640286 164.130450 -169.904154
2879 3 -38.578642 156.410718 -237.118910
2880 3 -15.840387 113.162802 -214.753189
2881 2 17.132979 -25.104037 137.149566
2882 3 -13.490993 -9.814704 127.969640
2883 3 -50.768349 -56.364683 68.264911
2884 2 -32.558639 -107.315463 312.764947
2885 3 -13.545839 -95.771587 246.244732
2886 3 -55.409747 -99.890724 309.056778
2887 2 100.723278 119.648303 240.592527
2888 3 117.912767 61.567931 197.118090
2889 3 168.695535 96.678651 246.118246
2890 2 165.472538 -340.263779 149.029717
2891 3 130.354411 -332.121946 152.146831
2892 3 109.103411 -303.383720 147.106392
2893 2 226.767625 -135.556113 102.163088
2894 3 235.295135 -131.677135 127.623071
2895 3 202.308886 -161.046992 85.002575
2896 2 323.791462 -101.008194 105.938910
2897 3 288.654761 -95.342249 106.513035
2898 3 280.700862 -134.958979 112.439618
2899 2 -17.497547 -123.723439 4.668629
2900 3 0.176704 -107.944297 90.877271
2901 3 -8.325426 -168.677246 53.374495
2902 2 187.624049 -99.831245 147.777611
2903 3 199.884915 -112.116200 122.550692
2904 3 191.824133 -97.424437 171.311492
2905 2 -128.446978 -35.900838 439.184307
2906 3 -107.399478 -23.772598 334.941150
2907 3 -147.755723 -37.741420 356.556089
2908 2 -71.909243 132.494973 30.091353
2909 3 -51.658020 98.928543 61.445883
2910 3 -59.819413 59.706717 51.193778
2911 2 186.205427 -13.705423 133.605977
2912 3 216.727673 -24.978666 103.904977
2913 3 236.425769 -2.194167 71.313302
2914 2 -182.195844 -187.760949 155.580319
2915 3 -155.416813 -193.681832 120.766586
2916 3 -117.439109 -222.914424 94.487771
2917 2 69.589959 277.415244 16.776304
2918 3 18.596599 234.635558 -9.528001
2919 3 71.550135 270.697596 17.365643
2920 2 173.986479 87.426305 137.318667
2921 3 155.407640 135.427073 164.972559
2922 3 175.077277 59.762365 223.305569
2923 2 -54.069931 -118.326405 32.501415
2924 3 -52.540346 -144.544779 87.740294
2925 3 -7.368192 -83.522811 82.530939
2926 2 -42.632075 87.092837 244.146292
2927 3 -55.446494 95.057320 182.904506
2928 3 -28.441094 77.869934 173.588176
2929 2 -20.796741 -73.425737 235.413589
2930 3 -29.112518 -33.854672 254.147347
2931 3 -86.226865 -94.108261 230.624998
2932 2 119.108427 78.345774 242.305437
2933 3 115.992998 61.968647 275.109962
2934 3 138.696293 114.572284 246.518371
2935 2 403.575795 -69.522098 103.465355
2936 3 414.800586 -39.745108 88.395768
2937 3 410.945483 -28.025373 92.622712
2938 2 148.456588 -1.126617 108.435797
2939 3 116.431822 -37.646970 43.622153
2940 3 106.983865 -22.865461 115.515954
2941 2 305.454948 -181.536710 286.537908
2942 3 365.618464 -135.660809 324.360415
2943 3 310.825302 -169.059695 297.376542
2944 2 87.778756 117.078961 145.926405
2945 3 60.391055 190.004386 159.656904
2946 3 98.865271 169.236809 122.424104
2947 2 -132.030817 77.335062 52.344264
2948 3 -124.636418 54.742515 2.881226
2949 3 -136.917867 60.244576 33.627253
2950 2 -117.626118 211.191708 -19.385377
2951 3 -126.266157 172.540198 -5.546954
2952 3 -117.847897 159.529011 -31.049408
2953 2 -122.527650 -86.930372 321.577065
2954 3 -123.001501 -41.131382 277.312544
2955 3 -147.596174 -77.539408 373.988760
2956 2 109.534285 251.388991 89.831700
2957 3 109.860408 279.273329 107.672320
2958 3 133.657078 237.672705 156.208323
2959 2 198.322545 73.644834 129.451931
2960 3 157.407799 98.652806 115.102801
2961 3 159.051318 111.114747 117.080937
2962 2 -83.616625 305.314892 195.478507
2963 3 -105.886999 274.965043 206.554357
2964 3 -98.815752 243.504019 163.806420
2965 2 -83.342341 64.872973 239.379843
2966 3 -83.034922 77.381378 306.599802
2967 3 -87.150831 80.738925 237.339580
2968 2 -101.315560 42.362400 238.767393
2969 3 -99.869871 34.205943 228.742664
2970 3 -131.884580 100.714522 249.474005
2971 2 -153.981022 98.115950 242.449010
2972 3 -147.599711 -43.372877 205.352098
2973 3 -153.948163 23.795048 276.404775
2974 2 -14.592074 -56.029193 -123.178736
2975 3 -3.601585 15.713357 -74.603644
2976 3 -11.570922 -50.116574 -79.608166
2977 2 126.379064 63.508229 74.967264
2978 3 155.701348 69.808941 62.660569
2979 3 107.638440 7.534709 67.243423
2980 2 272.666554 39.720901 31.987820
2981 3 247.538228 -3.483093 21.332667
2982 3 270.328872 17.884308 12.069442
2983 2 91.410670 -228.758297 178.786229
2984 3 82.909523 -178.084958 147.882804
2985 3 93.872189 -166.933665 186.605498
2986 2 -233.242856 -6.208495 334.103700
2987 3 -215.574463 43.509289 272.493139
2988 3 -160.543525 -5.811984 303.213172
2989 2 -71.181222 72.472588 274.629571
2990 3 -64.329480 56.363037 273.854082
2991 3 -76.306849 39.348044 226.409241
2992 2 95.696715 152.208862 114.116345
2993 3 73.588736 207.307941 136.079292
2994 3 105.047149 175.039007 149.194094
2995 2 31.885689 246.638215 129.228573
2996 3 67.250119 322.446228 59.178821
2997 3 46.183259 283.902668 101.354220
2998 2 87.009859 -37.341627 -75.880890
2999 3 90.203577 -36.339809 -48.531437
3000 3 91.044582 -25.415181 -32.025089
3001 2 19.342413 96.026509 7.452553
3002 3 37.706066 99.257883 47.497656
3003 3 10.307677 66.455066 55.778003
3004 2 -99.926764 -32.157106 212.518378
3005 3 -121.886102 -74.078799 185.290259
3006 3 -115.183019 -102.420862 183.053375
3007 2 149.184300 -83.034335 279.587752
3008 3 148.594321 -90.775140 183.660474
3009 3 162.614020 -120.660947 215.791252
3010 2 -37.789002 63.732644 110.483883
3011 3 -62.249867 42.202837 79.060866
3012 3 -64.341355 68.976929 116.044614
3013 2 30.547465 -18.945743 372.743527
3014 3 15.087015 10.520276 316.958101
3015 3 39.635430 19.358143 383.937007
3016 2 -267.560897 116.885244 -78.405492
3017 3 -228.433665 123.682684 29.332771
3018 3 -259.705106 97.128896 -10.934253
3019 2 271.729795 -29.299492 192.085475
3020 3 320.330689 -30.163798 222.702843
3021 3 265.683875 -47.063599 210.089430
3022 2 -191.901464 96.500624 141.360092
3023 3 -174.111841 99.511080 195.560654
3024 3 -190.836745 106.276728 192.884804
3025 2 95.531595 21.672213 -31.189632
3026 3 79.750838 43.040247 -6.780283
3027 3 70.357981 20.958088 -27.383733
3028 2 -127.318760 19.977981 233.286383
3029 3 -126.984367 36.946446 213.974016
3030 3 -53.059160 45.199844 163.925018
3031 2 208.756778 -67.886262 303.395512
3032 3 192.224478 -66.879654 267.010431
3033 3 159.752889 -107.488168 332.627119
3034 2 -172.390673 108.083621 189.562294
3035 3 -177.340297 150.875356 243.768954
3036 3 -177.653676 94.270734 210.639642
3037 2 -328.070922 154.793241 305.602818
3038 3 -262.388238 124.639733 253.581580
3039 3 -230.693083 122.451927 255.985840
3040 2 -95.674373 157.552241 180.050080
3041 3 -107.684299 178.224624 195.753253
3042 3 -103.510184 171.590098 205.997797
3043 2 21.095268 187.331138 128.807985
3044 3 29.158604 120.740077 165.119204
3045 3 -26.573168 172.754062 201.543865
3046 2 184.244523 257.658432 243.541481
3047 3 216.899017 221.513987 270.868926
3048 3 163.853682 202.550961 227.705622
3049 2 290.027657 85.382309 92.043351
3050 3 335.181114 44.806295 94.099311
3051 3 346.671511 32.123301 137.055388
3052 2 -328.857635 179.042949 179.293892
3053 3 -324.486602 157.774908 168.286092
3054 3 -318.972956 170.924941 189.206656
3055 2 -163.539616 56.628697 234.188801
3056 3 -168.395199 38.806325 199.560416
3057 3 -140.138263 47.750253 231.607202
3058 2 35.962900 266.071556 106.679488
3059 3 56.554662 241.842526 112.412383
3060 3 19.104407 239.944909 82.245878
3061 2 -38.868369 223.984319 199.740800
3062 3 -1.620382 234.989955 208.698262
3063 3 -28.196949 277.446291 226.677935
3064 2 60.374191 52.879849 119.956721
3065 3 137.134847 61.840867 71.208643
3066 3 122.869373 58.281464 78.054828
3067 2 176.411263 79.224460 292.599723
3068 3 169.491615 60.472173 303.486000
3069 3 168.954929 144.413094 306.248665
3070 2 320.687181 46.378064 -29.865407
3071 3 276.907754 53.725059 -9.767601
3072 3 269.111149 45.649334 1.505796
3073 2 -6.650512 251.828426 168.819716
3074 3 -4.049529 208.553384 229.195636
3075 3 -18.355952 247.831964 151.856226
3076 2 75.011777 150.168736 134.083305
3077 3 131.866212 191.894400 157.885077
3078 3 141.116295 193.979744 145.950392
3079 2 213.741812 141.991120 287.305149
3080 3 228.024270 133.496616 295.014961
3081 3 148.455244 144.842356 322.266108
3082 2 -23.240688 180.243373 104.584563
3083 3 -23.935711 153.108926 79.871298
3084 3 8.373997 184.516719 84.209949
3085 2 99.250635 -146.789463 276.170364
3086 3 85.995039 -133.775478 225.452574
3087 3 90.627857 -140.814453 284.625737
3088 2 47.119954 198.767299 178.714489
3089 3 69.400022 203.817204 232.039175
3090 3 77.481363 186.634676 223.794945
3091 2 -11.654490 260.246277 -37.630648
3092 3 -27.963871 276.705842 36.288986
3093 3 -37.728745 210.624147 -20.352473
3094 2 57.763939 459.919501 274.664870
3095 3 117.305353 399.766093 292.840832
3096 3 71.706972 371.841997 261.576509
3097 2 -106.068401 136.070724 293.169032
3098 3 -158.236298 161.606265 349.784786
3099 3 -155.945253 211.753506 347.140913
3100 2 52.663054 302.699846 -189.749075
3101 3 52.203916 346.462063 -299.680473
3102 3 60.747590 319.200752 -153.599105
3103 2 -160.425931 54.089171 134.188461
3104 3 -104.588572 117.396146 131.170866
3105 3 -140.311998 118.215444 146.365371
3106 2 28.279471 11.088660 105.327780
3107 3 -14.592523 29.095378 108.688300
3108 3 24.236965 5.364072 65.717457
3109 2 -40.649511 184.799154 45.712276
3110 3 -13.287212 144.171574 29.512724
3111 3 -50.719443 162.079347 13.469807
3112 2 101.530383 275.861123 137.821024
3113 3 108.431211 303.551803 96.213210
3114 3 100.677275 264.716383 86.152445
3115 2 -20.814677 52.502099 272.814586
3116 3 -32.709863 35.077006 282.364552
3117 3 -52.263918 2.920249 312.227061
3118 2 -44.504663 80.746086 -11.809379
3119 3 28.019990 91.619206 -15.757450
3120 3 -33.043427 55.118437 7.561459
3121 2 146.815275 251.166948 51.864284
3122 3 149.140411 261.543385 -42.006368
3123 3 186.193706 246.663089 -26.128688
3124 2 327.205547 178.347474 79.457371
3125 3 333.862522 171.567960 11.714421
3126 3 292.527588 188.649760 98.867988
3127 2 92.465140 199.656765 188.014176
3128 3 70.261518 215.166290 75.669048
3129 3 80.742475 203.782250 78.528087
3130 2 -35.993015 85.126893 255.421402
3131 3 -53.664496 85.136517 232.967020
3132 3 -48.161917 44.362267 328.879298
3133 2 104.697233 353.600718 230.968477
3134 3 89.547535 316.324436 268.857817
3135 3 74.573206 368.050018 277.984851
3136 2 177.232190 94.763231 -8.105239
3137 3 200.843034 101.418526 58.430855
3138 3 159.778673 72.469091 55.590939
3139 2 -6.761212 88.794728 292.369538
3140 3 -53.170073 157.641840 376.946977
3141 3 -1.540627 130.826242 305.226883
3142 2 154.369347 115.277938 -181.808689
3143 3 155.883822 158.538847 -159.671622
3144 3 147.051215 108.795713 -190.789826
3145 2 174.508374 230.117544 20.770107
3146 3 131.785704 217.723803 72.895883
3147 3 191.763506 258.247796 62.551547
3148 2 62.606870 63.518568 259.426293
3149 3 96.128557 32.987493 203.069804
3150 3 112.199749 21.569550 196.890876
3151 2 126.621832 263.763317 25.242731
3152 3 105.541572 307.466754 -25.982505
3153 3 122.780114 319.434776 21.706133
3154 2 -156.862687 124.799788 163.560430
3155 3 -94.298777 189.076788 199.090173
3156 3 -133.575131 103.898900 269.258146
3157 2 -21.774256 21.536184 262.637132
3158 3 -23.785951 104.525575 264.299522
3159 3 -66.380307 88.786807 172.120794
3160 2 165.049429 254.245587 165.926901
3161 3 188.738377 302.148539 268.973011
3162 3 178.145051 303.863157 220.980135
3163 2 -10.653674 320.458085 109.717998
3164 3 14.919143 354.955784 72.335246
3165 3 6.201629 296.793773 102.982400
3166 2 94.545252 248.515291 113.621552
3167 3 89.206801 261.012391 48.465719
3168 3 89.338390 273.172230 57.663817
3169 2 42.800745 -97.091182 98.796220
3170 3 -5.307637 -68.679309 33.385211
3171 3 24.262525 -111.972444 41.646135
3172 2 -268.561032 17.581183 156.402850
3173 3 -312.460505 36.302915 108.348521
3174 3 -326.726399 21.435814 108.223833
3175 2 146.912816 113.873898 117.072034
3176 3 127.567613 178.033369 93.310781
3177 3 163.004456 137.264541 107.706954
3178 2 25.912820 33.790298 160.352626
3179 3 44.046767 23.635921 255.878506
3180 3 37.827600 74.828054 162.142821
3181 2 50.252059 -220.215436 281.728743
3182 3 36.800718 -204.150422 267.154391
3183 3 53.733436 -149.466846 332.996486
3184 2 33.487760 -59.581552 107.408534
3185 3 59.452537 -60.077911 52.514202
3186 3 57.306741 -35.161024 132.584121
3187 2 5.483442 33.147075 205.174131
3188 3 -22.848348 43.869008 215.589741
3189 3 -11.916624 46.272060 220.291535
3190 2 49.526651 33.610291 -33.155040
3191 3 28.416878 18.529809 -45.040012
3192 3 30.613259 60.789133 -5.702825
3193 2 13.579388 -26.355334 229.407443
3194 3 22.251983 -4.880093 209.221000
3195 3 43.507862 -55.107677 180.347725
3196 2 120.498720 -164.720848 247.819107
3197 3 115.025753 -160.698525 250.553874
3198 3 113.267968 -206.902914 260.302085
3199 2 417.998021 52.850889 299.596801
3200 3 396.163586 49.149486 255.603059
3201 3 371.429763 -16.969714 325.582842
3202 2 -23.204378 104.806352 258.024423
3203 3 -29.630851 60.648896 299.429038
3204 3 -41.221150 39.911103 328.636713
3205 2 -150.431816 92.966450 397.945592
3206 3 -141.472655 67.603427 373.046541
3207 3 -130.795124 74.110469 402.319019
3208 2 -31.268014 97.499721 223.605354
3209 3 -6.207826 -2.910245 201.229060
3210 3 -18.438860 43.927751 193.553494
3211 2 -44.195574 48.279166 267.897682
3212 3 -70.268596 6.034321 280.600014
3213 3 -86.866552 41.966404 244.088907
3214 2 236.712229 -83.679544 415.525028
3215 3 218.714890 -72.173877 445.575467
3216 3 195.293940 -9.353320 490.739528
3217 2 -7.564741 158.103320 131.936271
3218 3 -10.026192 140.810082 131.276742
3219 3 29.128513 149.130223 118.401536
3220 2 -36.425917 -27.163567 333.016857
3221 3 -55.200552 -8.063862 292.764977
3222 3 -74.517499 -17.757270 268.087310
3223 2 74.146947 -68.551738 116.628768
3224 3 76.476002 -52.083126 130.028179
3225 3 76.433795 -62.783894 51.088027
3226 2 130.579863 38.274513 51.125225
3227 3 126.379902 52.333354 49.150561
3228 3 93.602324 18.812436 75.902651
3229 2 134.665458 2.267325 -63.397137
3230 3 93.943927 11.545013 27.574078
3231 3 131.488385 -12.279831 -25.764147
3232 2 56.225815 -68.101782 431.602605
3233 3 18.464608 -32.172102 434.274340
3234 3 26.089616 -56.533147 484.740725
3235 2 -73.504805 -80.926436 97.399296
3236 3 -107.201031 -82.450354 155.707802
3237 3 -79.498201 -92.995467 93.379620
3238 2 2.032258 88.906830 195.764859
3239 3 20.489020 115.044142 180.624316
3240 3 -25.385565 146.458952 174.455269
3241 2 229.682690 138.636355 21.045838
3242 3 235.729719 121.996916 -18.200650
3243 3 222.229463 141.816582 -41.978068
3244 2 112.076054 60.009571 156.016001
3245 3 156.314252 83.169733 200.492633
3246 3 119.833194 75.910424 235.258097
3247 2 -81.833351 -41.625498 80.159971
3248 3 -110.484815 -16.128655 51.086447
3249 3 -94.211380 -86.441973 41.091003
3250 2 -81.492302 -116.624802 203.990785
3251 3 -100.529081 -49.825321 199.876623
3252 3 -101.666321 -89.076814 240.351935
3253 2 255.377085 23.909401 407.483730
3254 3 270.749405 114.926499 437.327584
3255 3 268.013349 62.640239 355.652139
3256 2 -205.107347 38.954213 37.700290
3257 3 -138.156665 28.913372 5.149926
3258 3 -191.350062 75.667741 -20.212591
3259 2 4.860244 -79.001711 302.434362
3260 3 13.623586 -147.905138 350.247851
3261 3 10.266445 -116.811344 301.155160
3262 2 77.307406 37.982506 161.593394
3263 3 109.820678 57.455442 116.479263
3264 3 114.230782 81.806456 133.824224
3265 2 -26.744568 66.133564 177.391833
3266 3 -56.858516 90.289766 149.739158
3267 3 -33.924439 94.723426 195.411546
3268 2 -120.292093 133.076377 182.291356
3269 3 -98.933642 77.745924 218.388129
3270 3 -71.185173 62.676494 218.662968
3271 2 -66.191893 27.891595 289.205307
3272 3 -44.331138 3.681848 333.461211
3273 3 -34.918412 42.152075 290.456887
3274 2 237.792995 29.721099 -4.553668
3275 3 244.019379 53.166355 55.138196
3276 3 236.125553 42.201453 54.815254
3277 2 80.017881 -89.338913 316.018262
3278 3 77.883871 -126.519036 308.428349
3279 3 88.385430 -116.607394 271.788523
3280 2 270.019585 67.277485 114.129436
3281 3 271.998360 39.412497 38.234581
3282 3 281.687908 46.354796 14.633108
3283 2 131.997462 99.679103 86.768409
3284 3 191.817083 128.050791 137.918957
3285 3 134.676773 130.173514 53.249019
3286 2 -77.728331 -27.613071 141.765800
3287 3 -90.824829 35.506029 114.299607
3288 3 -12.403164 2.557516 122.282967
3289 2 -171.469900 12.986814 81.061130
3290 3 -160.136487 9.935430 117.812824
3291 3 -166.682302 -10.805044 150.116514
3292 2 217.772671 -81.095911 201.998903
3293 3 235.051615 -120.260846 166.659812
3294 3 231.484920 -60.207878 150.080100
3295 2 -144.560199 69.647723 309.344108
3296 3 -156.718384 61.608142 314.815542
3297 3 -153.458104 46.565105 281.225638
3298 2 176.995585 104.518376 153.215389
3299 3 180.872947 97.427120 134.507870
3300 3 149.089557 43.438768 167.129566
3301 2 -24.156472 -39.787338 67.829160
3302 3 -17.955349 -33.251279 106.870602
3303 3 -17.146130 -5.974113 105.988518
3304 2 -65.982637 197.134952 99.058253
3305 3 -109.918968 172.096111 84.393553
3306 3 -81.076169 154.724670 75.365544
3307 2 12.423137 183.714678 163.808689
3308 3 9.724437 181.188152 205.685594
3309 3 44.267104 158.046137 221.098484
3310 2 171.973945 96.894203 191.808293
3311 3 166.781122 94.134465 179.523579
3312 3 211.568891 111.956866 170.270409
3313 2 -192.656107 -40.949542 189.437413
3314 3 -196.242054 -60.371118 153.299658
3315 3 -226.411382 -78.881969 149.754076
3316 2 264.099480 77.578650 125.571101
3317 3 234.067725 69.169883 198.314537
3318 3 215.625042 55.467755 199.418024
3319 2 8.350782 -22.323645 270.115044
3320 3 1.738145 2.484699 243.882986
3321 3 12.810695 -59.027387 244.587306
3322 2 309.147655 174.167330 161.415888
3323 3 318.411321 210.577911 219.221760
3324 3 276.102209 175.632704 184.054289
3325 2 -139.933444 137.575446 132.443408
3326 3 -156.220954 81.789910 188.372564
3327 3 -143.050420 131.734728 159.345725
3328 2 406.824404 216.670602 131.803797
3329 3 372.281528 197.706116 183.075665
3330 3 382.223667 215.376748 147.590381
3331 2 -234.027302 70.346766 129.928770
3332 3 -280.054166 26.706609 99.068798
3333 3 -244.900703 -5.713951 145.128165
3334 2 -8.596773 156.465408 -70.745517
3335 3 -12.371381 128.789567 -166.721177
3336 3 -43.432081 163.969239 -71.573631
3337 2 29.371942 201.610667 -167.527111
3338 3 44.253713 219.225788 -209.651048
3339 3 7.931157 274.482094 -231.657384
3340 2 -87.165498 170.669630 81.420791
3341 3 -46.949088 219.239624 40.854648
3342 3 -47.901241 188.025275 109.932481
3343 2 75.498046 205.457306 167.296369
3344 3 83.735263 149.795091 219.399228
3345 3 77.383033 183.188777 131.905743
3346 2 -133.915268 174.086307 67.483301
3347 3 -158.102977 174.337892 96.504207
3348 3 -86.141378 169.567669 152.526761
3349 2 -48.219506 22.663374 281.486084
3350 3 -53.896332 -28.155609 322.265001
3351 3 -54.676611 45.139016 292.395961
3352 2 -27.684476 120.878459 26.822369
3353 3 -60.927738 142.946223 -51.977827
3354 3 -28.316949 180.604322 61.495513
3355 2 44.334216 86.132344 228.911848
3356 3 26.480574 74.036227 230.081540
3357 3 59.922706 76.084027 226.888635
3358 2 -115.845568 275.605204 -39.265531
3359 3 -91.196148 243.886255 -61.816793
3360 3 -130.770634 261.660869 -77.234730
3361 2 56.501833 67.134614 93.022007
3362 3 53.550528 -74.774456 52.525868
3363 3 89.597212 -60.162767 119.926885
3364 2 -71.464953 155.531880 292.928828
3365 3 -41.266648 232.739128 343.026806
3366 3 -48.985390 197.432606 367.780420
3367 2 116.176975 122.937309 197.016126
3368 3 124.566987 198.650469 183.045367
3369 3 95.985677 128.914014 155.796813
3370 2 72.085964 88.475461 -69.029009
3371 3 6.241899 46.754173 -115.211374
3372 3 32.372696 88.763476 -101.580644
3373 2 -256.586602 244.118698 65.606202
3374 3 -255.653319 241.923716 78.599998
3375 3 -225.283806 180.573488 40.706520
3376 2 52.467458 235.559705 420.465624
3377 3 110.447103 282.641047 329.468978
3378 3 53.135822 294.738670 351.914484
3379 2 -125.561012 235.416906 36.986017
3380 3 -163.737077 195.877117 121.512487
3381 3 -147.218162 181.895957 76.073869
3382 2 -29.070354 204.174459 -63.564937
3383 3 41.130169 214.767132 -96.853857
3384 3 10.678352 210.105483 -71.528765
3385 2 97.119029 106.721796 105.763868
3386 3 123.692790 141.348807 63.715127
3387 3 141.817706 125.866756 101.881791
3388 2 31.523355 322.342230 192.697408
3389 3 61.065221 319.114695 173.557961
3390 3 27.209634 390.339407 185.334045
3391 2 79.098753 317.434409 94.627515
3392 3 110.489822 238.672721 92.109505
3393 3 72.491953 282.873977 80.841388
3394 2 43.924339 378.510200 44.846807
3395 3 34.283687 418.888856 -30.071047
3396 3 -8.332655 409.759018 -3.725905
3397 2 -224.889919 349.237544 299.134013
3398 3 -234.295965 279.800796 346.168175
3399 3 -212.723809 327.406564 327.025269
3400 2 -28.366965 256.816130 76.576365
3401 3 -1.625709 234.608160 25.712178
3402 3 14.712666 232.696571 39.708865
3403 2 126.501835 310.675436 377.602825
3404 3 148.909968 346.598446 423.253347
3405 3 121.610737 353.143008 328.903931
3406 2 184.389257 293.530720 152.002557
3407 3 177.767865 262.669916 164.597805
3408 3 198.616992 305.795439 100.058826
3409 2 147.730650 245.069544 -6.661998
3410 3 130.412266 201.364845 -4.648004
3411 3 141.048495 232.633762 37.939250
3412 2 -192.406425 22.136137 233.989080
3413 3 -222.569393 48.054770 288.170184
3414 3 -225.340994 77.035283 276.682768
3415 2 49.043712 112.146897 29.303375
3416 3 101.245211 111.578447 87.666492
3417 3 95.521834 99.259875 32.986749
3418 2 -145.038857 239.996558 296.266007
3419 3 -121.413680 308.980949 269.168821
3420 3 -111.240333 244.946267 288.141842
3421 2 37.234180 358.280627 387.032468
3422 3 9.181445 278.520808 358.689772
3423 3 29.252491 284.795738 312.292472
3424 2 -85.755441 189.833612 -97.839751
3425 3 -78.569108 219.922145 -33.957275
3426 3 -84.855017 227.168704 -48.112971
3427 2 -103.253230 195.693601 131.799286
3428 3 -161.285769 209.457690 157.028604
3429 3 -156.074445 185.331547 75.956009
3430 2 119.962189 231.580136 200.402109
3431 3 125.840099 235.117564 257.170201
3432 3 127.431076 233.768215 202.896026
3433 2 80.239024 268.716447 -93.180967
3434 3 53.340613 165.469917 -74.314367
3435 3 65.687391 202.743888 -31.126319
3436 2 155.080568 91.345734 387.621484
3437 3 179.664493 113.987543 365.682163
3438 3 190.185840 54.125464 335.669403
3439 2 123.073046 177.236893 167.306868
3440 3 113.747526 188.915242 72.244689
3441 3 118.361907 183.484637 51.182257
3442 2 -2.064467 -49.441534 241.437191
3443 3 -21.446719 -15.770758 308.057119
3444 3 2.811041 -40.758010 261.562578
3445 2 10.980740 70.879418 139.282161
3446 3 -24.984317 110.137552 59.125500
3447 3 -50.620725 83.597182 119.874805
3448 2 155.844948 196.065741 163.144741
3449 3 203.478159 172.279825 240.000226
3450 3 138.497957 202.897436 170.739553
3451 2 -181.067540 -37.362837 178.270079
3452 3 -189.756916 6.248304 239.263966
3453 3 -164.089292 -20.991327 159.705579
3454 2 -183.419298 231.103177 77.498033
3455 3 -169.137098 183.755045 55.414734
3456 3 -168.597972 178.218968 23.781378
3457 2 -383.742028 282.482558 76.028935
3458 3 -360.723789 264.445184 142.399275
3459 3 -377.715804 268.531548 126.066197
3460 2 -68.274852 260.425080 -50.306811
3461 3 -93.792387 287.058561 -33.203840
3462 3 -77.322058 274.100193 -34.317678
3463 2 -275.170900 -54.878464 328.061130
3464 3 -307.127693 -62.971766 305.744804
3465 3 -305.234085 -103.865846 256.401446
3466 2 88.281523 345.833275 22.080101
3467 3 76.064485 296.877852 -19.476736
3468 3 95.706347 326.263963 -50.867578
3469 2 21.614613 442.800420 63.821404
3470 3 24.719240 349.367389 53.754619
3471 3 28.845203 385.532937 75.681996
3472 2 -196.282333 -2.017647 215.203251
3473 3 -223.690659 45.368808 250.369504
3474 3 -209.620588 25.351691 263.590847
3475 2 119.200638 430.090855 -0.321548
3476 3 59.275320 473.937760 16.256105
3477 3 70.950647 420.918019 57.350419
3478 2 -128.944358 196.259185 143.465259
3479 3 -117.766452 214.055222 92.754720
3480 3 -131.684567 196.703439 181.953634
3481 2 101.596674 301.702445 36.822533
3482 3 117.527261 409.947247 66.221586
3483 3 126.307714 420.139682 36.334151
3484 2 54.414141 293.091742 173.604441
3485 3 60.192300 268.747722 117.922243
3486 3 18.251537 282.578193 149.582106
3487 2 340.490114 194.206090 17.849107
3488 3 287.608013 205.436081 28.355502
3489 3 306.369670 211.786423 -45.580698
3490 2 104.938017 -178.254364 306.666136
3491 3 73.787916 -160.310329 318.235883
3492 3 61.962411 -183.997022 291.295758
3493 2 102.749419 -230.986698 244.320033
3494 3 86.960035 -182.376762 164.109166
3495 3 117.835161 -171.195456 205.956705
3496 2 -44.649533 90.233692 110.866692
3497 3 -49.616850 8.688755 89.780999
3498 3 -26.240732 112.737720 166.233329
3499 2 108.473807 -174.368043 54.746097
3500 3 106.099549 -127.348566 113.183638
3501 3 33.397059 -134.815740 147.015084
3502 2 103.908104 19.306514 199.469172
3503 3 90.878643 10.958044 186.468586
3504 3 109.069529 10.049422 181.315481
3505 2 -137.941616 -16.727202 241.227543
3506 3 -142.018202 -21.357576 235.196708
3507 3 -186.781445 -33.099324 271.930952
3508 2 -221.382261 220.336248 198.827162
3509 3 -251.313419 237.191337 199.944101
3510 3 -207.054077 245.061425 222.742939
3511 2 -69.981168 77.130078 54.706684
3512 3 -69.189907 85.156465 39.569183
3513 3 -62.311881 79.176407 0.428549
3514 2 83.724577 -174.117096 289.591631
3515 3 144.597146 -94.813588 280.267366
3516 3 94.007020 -158.736397 219.642071
3517 2 176.744842 -101.447369 190.187346
3518 3 176.024587 -113.027636 120.816414
3519 3 234.315904 -110.507055 225.995996
3520 2 143.161441 70.207366 310.049942
3521 3 161.286862 47.340822 346.871333
3522 3 149.304150 55.654411 301.907768
3523 2 188.167686 -84.199690 156.324855
3524 3 234.475810 -60.059066 167.564676
3525 3 216.018029 -102.452129 178.572743
3526 2 441.745957 -35.469687 65.285133
3527 3 419.350753 -66.397876 41.778380
3528 3 453.870236 -82.762095 103.044268
3529 2 64.051030 -206.162952 41.704013
3530 3 56.220173 -204.197525 27.554186
3531 3 29.223160 -197.130239 -47.868139
3532 2 -129.516774 -210.181019 371.741414
3533 3 -163.103208 -164.306212 371.618267
3534 3 -160.376100 -221.945835 371.180666
3535 2 -96.807681 53.172832 266.490885
3536 3 -83.546550 23.072548 303.004613
3537 3 -86.420123 33.248843 306.928205
3538 2 -46.712575 -202.709664 97.390531
3539 3 -58.623549 -207.954671 130.290802
3540 3 -87.881551 -212.276336 88.220371
3541 2 184.486305 -45.878410 323.250194
3542 3 193.162321 45.296528 280.577023
3543 3 205.089485 -24.649125 308.995278
3544 2 -64.888246 17.831254 348.545901
3545 3 -61.110285 79.929780 421.345402
3546 3 -43.060214 67.179916 390.855738
3547 2 191.537845 -199.911544 142.505621
3548 3 193.400443 -166.215004 105.759402
3549 3 214.199777 -180.089187 131.848423
3550 2 203.498594 -107.126504 194.016060
3551 3 181.118994 -42.410290 243.818349
3552 3 194.219941 -95.860548 172.984611
3553 2 109.859028 -2.772885 77.548877
3554 3 80.290648 -27.819955 123.553109
3555 3 53.007363 -60.010260 34.525724
3556 2 60.646081 36.501532 78.559879
3557 3 70.636960 80.376497 83.649409
3558 3 25.711407 64.411611 53.778477
3559 2 53.194800 -42.122226 117.169136
3560 3 57.611061 -40.138082 174.979233
3561 3 1.888122 -25.033040 137.067908
3562 2 63.422741 -55.892636 209.081228
3563 3 49.022575 -77.780928 187.732418
3564 3 39.591746 -7.782992 161.073415
3565 2 162.454015 -145.131269 89.857168
3566 3 160.241457 -147.508550 97.679070
3567 3 192.967202 -156.538055 120.588056
3568 2 71.743781 -38.267970 243.811135
3569 3 69.506243 -71.994839 234.767392
3570 3 104.570420 -56.535032 235.933098
3571 2 0.753939 -48.555550 212.493117
3572 3 -0.828375 13.914919 266.089727
3573 3 -6.544745 -2.326702 187.618350
3574 2 25.868038 -25.496877 201.796617
3575 3 35.797954 -25.745068 202.255050
3576 3 19.540618 -23.301843 241.276901
3577 2 30.929250 51.600964 293.079597
3578 3 -13.371279 60.435957 250.729331
3579 3 -4.965947 65.643796 285.867889
3580 2 223.682867 152.687797 214.962733
3581 3 169.392225 106.339218 193.699484
3582 3 189.545808 151.172782 186.446370
3583 2 111.452267 223.240039 100.803611
3584 3 97.587020 210.915933 97.414602
3585 3 123.104586 238.675276 166.750955
3586 2 60.116957 205.221852 46.937431
3587 3 0.179844 221.828275 57.818842
3588 3 19.943554 233.225832 46.880257
3589 2 212.110162 -119.513160 131.819675
3590 3 202.403839 -161.286900 148.636612
3591 3 182.172534 -117.943333 204.621336
3592 2 199.079197 -64.701177 165.723424
3593 3 158.411015 -41.354972 243.477878
3594 3 114.657367 -29.916341 207.447789
3595 2 -53.874442 34.910029 219.096860
3596 3 -60.057732 -9.653041 242.737447
3597 3 -62.961563 32.300951 243.569971
3598 2 140.860216 -28.098916 228.268270
3599 3 153.747088 -34.321691 212.335835
3600 3 141.853967 -49.432161 183.656045
3601 2 -16.405051 230.780649 138.841035
3602 3 -26.435327 185.615989 142.621286
3603 3 -9.730913 191.240403 171.123653
3604 2 148.861493 -31.126207 427.893624
3605 3 157.941477 -16.852174 415.886608
3606 3 103.684717 -9.027774 414.529668
3607 2 -265.097597 46.447438 319.174282
3608 3 -221.490476 71.809517 237.150727
3609 3 -240.983777 20.800816 330.438634
3610 2 -161.151721 213.716379 13.617705
3611 3 -145.184996 163.680054 -14.785376
3612 3 -160.404436 163.231877 15.591856
3613 2 -131.312694 76.835856 270.529248
3614 3 -146.743669 84.162683 346.666113
3615 3 -133.720358 76.722025 311.119920
3616 2 43.520840 -51.314025 -18.887098
3617 3 73.026081 10.584133 60.359302
3618 3 82.768751 16.793436 27.151005
3619 2 -100.830788 49.120157 319.201148
3620 3 -60.071523 50.905828 279.546568
3621 3 -99.133137 48.954784 285.590781
3622 2 -139.699661 187.240491 120.501683
3623 3 -144.506905 205.321957 94.428767
3624 3 -119.107364 196.583660 114.253312
3625 2 -7.571199 66.490272 203.206365
3626 3 10.630103 59.563170 211.346583
3627 3 -9.749469 76.618872 179.074445
3628 2 86.106945 245.644950 49.431482
3629 3 80.402111 199.229753 35.555891
3630 3 123.329149 320.774730 66.678238
3631 2 -74.340788 49.321923 305.463526
3632 3 -56.442432 90.868448 316.127091
3633 3 -39.337279 52.518075 278.713713
3634 2 185.837805 217.947078 151.422822
3635 3 163.894478 168.296622 120.667343
3636 3 211.741949 224.514583 88.064915
3637 2 136.924544 -17.649019 105.446812
3638 3 102.085778 10.876562 155.578999
3639 3 120.383437 16.007457 150.439604
3640 2 475.997688 -140.988436 371.252148
3641 3 408.267873 -103.545887 345.597869
3642 3 414.894405 -101.237869 374.180584
3643 2 -69.228990 -42.835809 393.515886
3644 3 13.940893 -12.525434 319.818893
3645 3 -4.940433 -41.210227 299.293657
3646 2 -49.708579 206.954137 273.932558
3647 3 -94.447258 174.952175 300.934274
3648 3 -44.505501 143.903165 294.066247
3649 2 252.639994 162.802554 140.481855
3650 3 286.091701 177.329335 116.123043
3651 3 255.355244 150.617126 114.352434
3652 2 169.873903 -121.451311 361.070414
3653 3 142.132638 -155.731103 451.499503
3654 3 136.800528 -115.776860 363.061650
3655 2 -96.839036 -78.758982 272.576651
3656 3 -59.081286 -72.532166 332.573277
3657 3 -97.546289 -71.248529 312.984375
3658 2 162.804912 52.274369 157.496622
3659 3 164.766444 33.946117 86.613323
3660 3 213.340900 75.600842 151.560186
3661 2 -76.718361 90.578617 248.982415
3662 3 -92.527089 92.125774 218.733047
3663 3 -85.800761 78.341050 233.074151
3664 2 -77.964943 76.961227 242.031743
3665 3 -124.875192 52.943977 230.770047
3666 3 -101.882762 75.263969 204.288485
3667 2 350.368952 334.364805 167.909575
3668 3 317.934289 323.012861 98.163234
3669 3 313.701174 366.571188 99.249432
3670 2 134.530954 360.569936 8.679997
3671 3 132.200494 297.090439 18.949270
3672 3 118.838334 345.031279 44.524241
3673 2 422.991917 -14.515910 306.353914
3674 3 483.394541 -21.597306 383.647684
3675 3 408.384272 -13.823043 316.869200
3676 2 -146.859341 115.874075 -9.075401
3677 3 -146.294110 128.557724 20.412460
3678 3 -120.982744 123.188233 10.673061
3679 2 -208.597824 285.947310 224.658763
3680 3 -211.324487 308.393547 210.060018
3681 3 -258.998802 314.932727 226.418836
3682 2 63.304577 -135.335225 130.289935
3683 3 84.698318 -149.808776 103.837037
3684 3 42.732205 -161.437727 185.396172
3685 2 163.682868 135.230558 142.501663
3686 3 180.286431 122.755010 227.489626
3687 3 230.614593 72.607583 155.558647
3688 2 21.349815 -45.340308 183.936659
3689 3 65.003652 -110.947325 236.030652
3690 3 32.241531 -81.865916 219.986990
3691 2 -316.353668 215.276369 27.200212
3692 3 -282.658367 177.377517 51.144577
3693 3 -295.162827 193.278568 61.303163
3694 2 128.385608 131.504170 106.720737
3695 3 102.098122 162.391460 124.064074
3696 3 118.342538 156.299271 89.531034
3697 2 -117.260752 -12.805189 102.114643
3698 3 -131.848146 -17.502697 27.982214
3699 3 -130.368453 -37.038917 67.763794
3700 2 41.484783 353.846571 59.622064
3701 3 59.928786 347.839693 17.769800
3702 3 69.269582 311.621142 17.653062
3703 2 106.916255 36.548641 108.512206
3704 3 101.890752 35.603030 151.702689
3705 3 83.078956 36.106856 140.879536
3706 2 129.639184 21.104358 142.062319
3707 3 144.689646 7.333396 167.299691
3708 3 119.434156 19.881507 178.631641
3709 2 60.924854 191.842189 -25.110204
3710 3 65.514245 233.074063 -8.562637
3711 3 72.231955 206.710595 11.625555
3712 2 167.532757 392.178912 323.618730
3713 3 226.086365 387.236608 250.753614
3714 3 191.124793 394.704344 308.957969
3715 2 58.877526 151.544359 204.518670
3716 3 55.027772 154.931691 223.229972
3717 3 46.937292 163.754676 232.029820
3718 2 140.605369 41.336050 191.735907
3719 3 188.273275 52.118065 183.436064
3720 3 187.042291 27.503610 218.296590
3721 2 -62.081167 193.954322 357.757111
3722 3 6.043991 233.033832 280.986744
3723 3 -25.292754 247.161440 354.738889
3724 2 -36.755423 97.714299 151.250354
3725 3 -14.407157 90.229253 76.817654
3726 3 17.935075 92.912961 163.480590
3727 2 -72.620175 233.164027 328.390346
3728 3 -66.721473 220.439577 302.881337
3729 3 -24.682404 255.056721 298.701985
3730 2 -14.660124 395.754139 283.982030
3731 3 18.386249 372.776786 292.794186
3732 3 -38.954775 380.205174 305.164701
3733 2 -91.997207 146.730272 373.608987
3734 3 -60.513638 134.321083 307.273124
3735 3 -68.912061 144.456525 340.500027
3736 2 -50.861792 154.546916 447.256567
3737 3 -93.042058 142.422473 436.678046
3738 3 -97.233822 98.650685 396.964513
3739 2 137.535599 359.905600 119.403621
3740 3 120.581847 330.805056 203.778258
3741 3 64.643696 336.431523 165.457987
3742 2 -237.996708 63.101134 163.226740
3743 3 -307.254913 77.803586 161.142913
3744 3 -258.563060 119.764205 222.791227
3745 2 -192.087302 259.437835 158.847639
3746 3 -194.509486 237.978372 148.230970
3747 3 -186.456530 250.108730 129.839049
3748 2 68.782173 -5.243401 267.144150
3749 3 71.819877 9.830397 219.070677
3750 3 33.391129 6.115301 228.242752
3751 2 51.191009 171.276692 179.731234
3752 3 97.710980 162.509415 219.401074
3753 3 56.476579 181.530993 178.391178
3754 2 234.889564 115.062714 -88.353379
3755 3 241.071406 93.797523 -223.171861
3756 3 214.285609 96.306534 -125.055913
3757 2 59.366116 27.246957 508.541861
3758 3 52.843960 -3.257569 534.351024
3759 3 73.011162 51.574100 562.200062
3760 2 -18.836059 53.317756 -20.419223
3761 3 -10.882986 80.184657 -20.590907
3762 3 4.397498 5.227996 -45.939376
3763 2 166.387038 125.338537 353.167725
3764 3 124.973383 194.463103 348.574501
3765 3 141.647521 181.912316 300.967155
3766 2 -24.325468 -2.093759 311.187620
3767 3 -71.319775 -8.495649 276.734341
3768 3 -63.317679 -28.799879 259.822968
3769 2 -77.236189 172.143838 -132.379900
3770 3 -45.361882 114.937803 -66.515884
3771 3 -84.761605 126.438437 -71.336987
3772 2 -156.633378 315.910575 212.893317
3773 3 -176.820707 304.657337 248.755624
3774 3 -203.482698 314.212865 245.830989
3775 2 -146.986339 134.162662 116.113006
3776 3 -154.734593 143.258769 135.893917
3777 3 -163.502456 132.981799 155.142985
3778 2 -194.323253 285.991251 27.452256
3779 3 -205.591355 337.819005 -41.024903
3780 3 -182.093792 326.255327 16.093408
3781 2 119.645840 296.892783 286.826160
3782 3 64.098285 255.114877 357.720466
3783 3 91.408938 257.313052 334.748108
3784 2 -205.563303 -17.296876 329.618787
3785 3 -129.031522 -74.538037 280.735099
3786 3 -197.854477 -19.288193 283.339836
3787 2 69.640710 220.697335 171.318780
3788 3 74.161503 148.365356 220.799936
3789 3 49.923628 203.383441 157.532714
3790 2 63.194048 226.959812 301.242676
3791 3 54.424546 224.495243 330.020777
3792 3 82.442585 244.928068 298.121106
3793 2 20.734049 202.591283 -6.680044
3794 3 -3.031460 202.996492 -28.378553
3795 3 23.580090 192.249131 17.868353
3796 2 201.823991 34.024078 103.462726
3797 3 178.381755 24.615271 153.206772
3798 3 194.333159 -22.127201 65.193820
3799 2 234.874429 172.299925 354.865985
3800 3 256.450160 174.907384 312.917007
3801 3 246.527173 137.612157 324.610547
3802 2 -96.825688 117.815282 165.632181
3803 3 -69.402139 131.724450 181.705883
3804 3 -58.981735 104.912334 187.659110
3805 2 0.907096 44.912633 377.989167
3806 3 36.780112 -5.195072 438.369331
3807 3 5.435779 13.634390 445.161927
3808 2 7.350487 -52.366086 252.812051
3809 3 17.254999 -62.883976 269.697869
3810 3 0.623171 -71.233454 236.971062
3811 2 -213.319359 -40.119696 289.394234
3812 3 -246.589665 0.082477 153.150291
3813 3 -223.320758 -37.472912 280.346506
3814 2 180.829378 102.809049 58.413744
3815 3 188.522169 105.706446 23.281235
3816 3 200.045068 70.734206 -0.293970
3817 2 115.424267 96.132354 201.977351
3818 3 91.343787 67.942870 112.818432
3819 3 76.907567 61.559755 119.744240
3820 2 22.162066 258.849429 285.163346
3821 3 45.293317 251.735588 294.388691
3822 3 42.909532 297.703536 315.350015
3823 2 -161.791839 111.077314 222.731296
3824 3 -207.034381 66.005369 202.740607
3825 3 -202.608402 118.147914 172.280152
3826 2 181.576909 86.831103 58.246820
3827 3 236.774175 97.531505 71.863873
3828 3 201.257614 131.822822 83.324266
3829 2 -147.107877 77.042334 114.222571
3830 3 -127.209005 116.300388 104.648231
3831 3 -112.233381 100.195820 187.769894
3832 2 117.546143 114.758803 185.730831
3833 3 88.679507 102.470260 220.367685
3834 3 77.464157 129.800834 227.356903
3835 2 207.962029 208.394028 182.589259
3836 3 181.177760 223.063304 217.123504
3837 3 188.056476 187.126276 191.455644
3838 2 140.667389 129.704842 -38.319954
3839 3 90.238907 169.491648 95.714072
3840 3 106.117310 189.560315 91.269721
3841 2 -187.858020 -72.496907 553.319875
3842 3 -148.638103 -78.041674 486.741482
3843 3 -225.419037 -52.400599 551.612021
3844 2 53.955520 4.595090 222.288141
3845 3 86.988327 53.866394 249.967884
3846 3 8.043016 104.432813 293.662856
3847 2 -9.693626 182.965000 84.453009
3848 3 -20.545308 162.912876 88.969285
3849 3 -18.791809 185.499205 129.122651
3850 2 -113.838162 -27.794518 307.756854
3851 3 -122.981559 -51.102169 330.378039
3852 3 -124.271458 -38.918695 317.412493
3853 2 -71.734177 100.092652 48.324136
3854 3 -78.616190 40.833883 121.442943
3855 3 -53.133240 68.741061 150.486942
3856 2 -47.469146 -27.254219 210.800393
3857 3 -24.383030 -39.849569 235.814951
3858 3 -82.793898 -32.928591 263.762245
3859 2 105.698354 -44.547587 309.993719
3860 3 120.735326 -21.395005 313.079383
3861 3 146.077357 -28.089417 332.441237
3862 2 70.583278 14.236909 323.609578
3863 3 66.915649 -69.130649 328.984842
3864 3 30.945873 4.120027 364.020438
3865 2 22.482699 -106.173264 285.655030
3866 3 -20.940341 -95.627542 294.310161
3867 3 -6.373833 -143.642222 301.820123
3868 2 151.494288 -167.133966 200.065181
3869 3 109.250062 -191.154849 210.796795
3870 3 142.566322 -156.225956 151.796341
3871 2 243.141337 103.206018 310.320315
3872 3 250.543391 95.447690 357.766264
3873 3 217.587129 99.749795 333.526420
3874 2 13.085575 -294.848978 364.574174
3875 3 34.824770 -280.658546 295.300834
3876 3 87.789534 -255.177109 356.146534
3877 2 335.035357 171.067420 340.449248
3878 3 349.679311 143.938416 364.289021
3879 3 344.899996 145.706819 315.785715
3880 2 -30.489306 89.415542 455.933305
3881 3 -26.872302 169.995837 419.718957
3882 3 -54.493447 148.380439 435.341883
3883 2 -26.430345 99.477030 241.067769
3884 3 -63.040739 107.036190 215.256817
3885 3 -40.702922 63.466376 208.964373
3886 2 -42.224071 -14.613499 129.666396
3887 3 10.607328 44.862060 72.122876
3888 3 -0.017520 -1.763085 111.074394
3889 2 -141.962074 208.252309 299.633225
3890 3 -160.594193 221.527139 308.040992
3891 3 -128.881093 228.040320 390.547189
3892 2 57.891578 253.208230 -25.294108
3893 3 25.425069 230.954343 -3.181261
3894 3 38.065298 258.736842 -1.661219
3895 2 86.403512 -96.667743 183.132773
3896 3 51.401812 -67.184880 176.033878
3897 3 70.872401 -121.272600 196.776069
3898 2 87.858580 91.221393 135.542412
3899 3 77.353323 50.498699 148.480299
3900 3 106.059129 92.692438 161.954531
3901 2 354.532356 125.426121 14.615047
3902 3 347.672632 158.078020 -18.436959
3903 3 320.913150 152.218107 -32.702156
3904 2 -197.591779 -92.006649 -87.367807
3905 3 -195.051767 -141.802929 -128.664738
3906 3 -241.240534 -120.063190 -39.957743
3907 2 254.771502 311.681686 47.301659
3908 3 219.042529 286.663219 40.859854
3909 3 163.208116 286.863490 16.060010
3910 2 179.476905 147.317454 190.900911
3911 3 145.594261 197.763087 153.523164
3912 3 173.103223 119.650067 141.159993
3913 2 82.885649 -141.281848 131.768149
3914 3 58.072603 -146.211184 70.207914
3915 3 48.238814 -59.818739 62.131964
3916 2 276.481749 -83.154206 -107.116779
3917 3 278.938467 -145.668208 -98.606438
3918 3 250.266100 -100.825620 -132.028607
3919 2 -82.794502 -6.874923 256.609619
3920 3 -129.016892 -11.129956 229.934959
3921 3 -92.185104 66.174764 282.543368
3922 2 -126.141168 98.898477 120.060300
3923 3 -123.262646 108.924615 122.420746
3924 3 -157.553720 106.608197 45.383755
3925 2 51.508769 199.167385 77.162465
3926 3 47.277734 226.276729 70.187511
3927 3 36.894053 241.993671 98.093302
3928 2 -27.393899 165.623952 388.251204
3929 3 -36.958868 129.295946 432.321447
3930 3 -58.476054 149.714083 392.004432
3931 2 208.039554 124.961729 193.325892
3932 3 241.548363 149.456020 248.975772
3933 3 232.716965 170.607278 237.798788
3934 2 95.661520 12.031631 443.703909
3935 3 97.790859 18.528418 460.724922
3936 3 112.210552 -40.616116 463.934230
3937 2 -22.313400 197.336698 280.299029
3938 3 -89.877285 247.704887 263.968240
3939 3 -62.774603 267.933138 254.671321
3940 2 129.522083 -61.176983 367.328648
3941 3 99.250740 -79.213468 389.724832
3942 3 108.038563 -86.472754 341.523655
3943 2 -32.510411 -124.619185 -12.786716
3944 3 -34.359954 -126.980182 -13.803182
3945 3 3.288314 -95.691780 52.186502
3946 2 279.254040 23.083613 169.724136
3947 3 349.719121 53.610875 211.283921
3948 3 375.167999 39.277971 170.653439
3949 2 116.624593 282.051456 347.199442
3950 3 115.502575 202.940556 339.076698
3951 3 97.328858 277.114564 327.468811
3952 2 160.207995 -236.123648 -157.872432
3953 3 211.930424 -298.387349 -130.535198
3954 3 228.712431 -251.441872 -155.739412
3955 2 175.717629 -116.236090 83.752305
3956 3 224.700713 -138.369939 101.344920
3957 3 194.787723 -77.540244 65.441133
3958 2 61.957604 -66.649089 -65.997944
3959 3 113.836748 -99.037338 28.249293
3960 3 118.943154 -103.017022 31.089015
3961 2 -229.635464 12.898239 241.485443
3962 3 -235.622321 59.645927 241.922712
3963 3 -266.929999 84.049578 248.437812
3964 2 -152.675791 25.902468 285.895437
3965 3 -147.574371 -3.092538 284.757169
3966 3 -117.047429 42.629298 239.192908
3967 2 17.030451 85.616288 362.145891
3968 3 61.434701 123.813623 354.343026
3969 3 25.920810 119.303652 350.158065
3970 2 173.480051 170.993649 328.572981
3971 3 150.207533 160.963231 340.450281
3972 3 211.596056 135.236890 319.222755
3973 2 206.147991 19.558573 85.966308
3974 3 199.502331 -23.597129 73.119204
3975 3 184.870825 3.722468 0.310606
3976 2 -69.930129 -0.063216 219.399985
3977 3 -88.622476 -3.377022 270.586707
3978 3 -108.068449 35.188889 254.497948
3979 2 101.178452 -136.556053 102.186568
3980 3 96.650606 -128.005270 34.549961
3981 3 125.318364 -130.909182 1.259716
3982 2 96.297842 -145.676844 309.261832
3983 3 107.423656 -198.854101 232.008361
3984 3 75.592167 -150.270910 252.356257
3985 2 191.063956 378.568524 42.090639
3986 3 210.526112 341.298202 30.207343
3987 3 183.080834 325.211735 28.962573
3988 2 93.199434 145.019448 211.766673
3989 3 28.994086 66.064054 229.370576
3990 3 81.190568 99.202753 198.849932
3991 2 211.621199 -32.774024 335.809857
3992 3 173.146804 -20.311179 323.058960
3993 3 198.730913 -31.019077 336.885556
3994 2 66.683970 57.461858 277.387218
3995 3 44.720174 69.630002 278.180587
3996 3 46.718450 69.783436 332.957701
3997 2 -168.078813 296.578571 13.108089
3998 3 -180.192345 319.136407 70.556698
3999 3 -146.002350 328.965034 69.777113
4000 2 -124.604076 132.797804 145.510171
4001 3 -112.935568 76.903675 86.981771
4002 3 -112.616039 90.778287 111.374742
4003 2 71.633903 -271.889627 280.302480
4004 3 42.367151 -220.198635 304.940512
4005 3 67.488327 -228.471924 275.565554
4006 2 265.088917 -107.906240 344.211923
4007 3 238.769392 -93.994921 396.271799
4008 3 277.157289 -103.833530 433.517377
4009 2 332.948071 164.145031 69.875451
4010 3 369.857495 155.390009 86.415825
4011 3 344.534753 173.170735 41.790831
4012 2 -95.517770 39.470220 386.582282
4013 3 -59.808918 53.704176 286.635222
4014 3 -123.516914 94.094653 295.852965
4015 2 -119.484267 225.778546 438.932182
4016 3 -152.989946 208.206331 466.290737
4017 3 -147.429784 159.358312 465.236811
4018 2 173.464891 200.164983 193.327018
4019 3 181.533118 201.057779 238.302871
4020 3 203.669827 202.875132 250.403492
4021 2 89.478157 -252.385967 386.883931
4022 3 38.716591 -241.083802 296.927390
4023 3 86.635767 -269.805029 352.549445
4024 2 -6.943973 117.400821 169.457952
4025 3 -33.423885 102.051230 117.206482
4026 3 4.347221 134.506872 139.569897
4027 2 280.852412 149.268384 63.850138
4028 3 269.311407 139.271917 64.882406
4029 3 251.397374 143.701526 149.973836
4030 2 21.477997 355.730838 -17.887842
4031 3 53.496381 333.611402 33.286471
4032 3 51.440007 287.592931 27.736109
4033 2 -131.759664 334.889353 327.351089
4034 3 -131.615399 298.670012 307.366120
4035 3 -109.239693 377.242862 239.913503
4036 2 -79.707451 -62.163833 246.827733
4037 3 -115.673485 -91.065101 193.106815
4038 3 -96.122810 -54.250049 262.081145
4039 2 157.487383 25.759468 257.789865
4040 3 247.514096 11.177676 269.994868
4041 3 151.892119 3.532065 236.304291
4042 2 258.245339 -14.353506 321.680746
4043 3 249.696753 13.446545 377.671244
4044 3 231.156751 -2.296927 371.384410
4045 2 -236.703876 179.070073 302.677131
4046 3 -258.696048 118.455937 277.438606
4047 3 -217.949466 107.598490 296.458126
4048 2 80.551448 208.013815 148.562030
4049 3 140.892705 201.371352 143.415402
4050 3 118.900620 237.143687 69.476045
4051 2 -209.155659 -18.115232 225.274478
4052 3 -181.363737 23.256581 177.744427
4053 3 -183.699214 47.107406 200.157550
4054 2 51.239798 -115.658038 341.209717
4055 3 80.335506 -112.548823 418.236361
4056 3 92.097376 -168.391467 465.736004
4057 2 139.512586 -81.412069 229.665767
4058 3 197.201574 -31.332688 259.626531
4059 3 145.653804 -97.432511 206.875583
4060 2 252.282910 20.055122 -56.325145
4061 3 237.838278 76.854675 -96.178127
4062 3 276.312870 20.548732 -88.013350
4063 2 35.317512 61.647780 75.720288
4064 3 45.626918 49.167651 70.950827
4065 3 10.355601 78.407382 85.107713
4066 2 129.981589 179.793052 158.075803
4067 3 146.013192 156.219905 148.471857
4068 3 103.337938 170.443345 104.860379
4069 2 -19.554516 211.173645 330.082553
4070 3 15.886490 248.576442 341.436304
4071 3 55.290131 221.640016 360.999596
4072 2 -88.102959 130.174229 88.840021
4073 3 -85.425535 126.273919 -12.310924
4074 3 -99.575017 167.278193 66.265671
4075 2 231.080187 56.026836 64.485334
4076 3 232.498760 78.810478 70.740320
4077 3 218.349315 46.504752 67.852423
4078 2 175.961322 51.446562 190.375351
4079 3 184.746292 86.785900 235.471934
4080 3 188.905813 94.457283 248.857090
4081 2 4.302345 136.026008 254.125205
4082 3 31.689225 144.325646 274.816506
4083 3 0.168156 126.729820 351.054671
4084 2 -234.295989 275.661156 148.742765
4085 3 -214.370865 245.237870 180.469064
4086 3 -171.308626 229.795943 100.094880
4087 2 110.791270 225.739395 80.368840
4088 3 83.437667 196.527070 57.487289
4089 3 52.524166 189.781491 -20.901481
4090 2 -252.086500 -14.322744 393.221249
4091 3 -258.265161 -10.834558 422.409956
4092 3 -234.061319 -20.236541 386.405404
4093 2 -9.096613 -27.195599 67.051429
4094 3 -12.417009 -11.931517 59.827136
4095 3 -51.882005 73.522766 23.847347
4096 2 -47.641840 166.659212 1.084286
4097 3 -36.419539 145.880627 62.995791
4098 3 -22.559062 206.475628 88.509043
4099 2 13.452777 237.150620 160.281070
4100 3 7.729524 275.767738 144.953538
4101 3 7.024229 273.134508 155.214827
4102 2 28.129321 113.147035 6.544601
4103 3 11.948395 140.364452 -14.214337
4104 3 64.219891 122.351929 13.271311
4105 2 47.046564 48.401217 223.521934
4106 3 61.568860 94.424115 210.075056
4107 3 44.863931 106.166414 218.739284
4108 2 98.387679 113.385377 419.967022
4109 3 105.287946 125.206799 433.214732
4110 3 131.442597 90.347557 395.440844
4111 2 -154.226884 38.222121 129.601206
4112 3 -153.031420 17.871079 77.172895
4113 3 -88.443342 10.585932 71.991218
4114 2 -67.436947 289.950355 337.772567
4115 3 -83.237023 213.397028 264.277989
4116 3 -81.013089 206.185241 269.874489
4117 2 -286.826701 -4.977202 320.998991
4118 3 -307.863799 -26.391338 308.609305
4119 3 -327.096079 30.046150 336.488401
4120 2 27.113044 113.406823 313.384962
4121 3 18.889782 166.356950 360.220417
4122 3 11.415573 144.460014 333.014532
4123 2 -188.203975 329.995398 217.597307
4124 3 -191.183303 339.147586 151.873081
4125 3 -177.609071 323.644629 213.254122
4126 2 96.355881 241.522339 172.873855
4127 3 75.239705 175.827319 104.037654
4128 3 86.717556 215.044154 147.528891
4129 2 76.686423 12.909417 125.605375
4130 3 48.112191 24.065470 220.829218
4131 3 90.331142 10.235961 133.233612
4132 2 128.873695 133.041293 91.651229
4133 3 94.007186 156.227674 85.800201
4134 3 114.774887 210.946204 100.287701
4135 2 -45.870435 115.031241 182.921925
4136 3 -13.386436 79.863462 164.063249
4137 3 -20.711756 91.793865 173.583314
4138 2 -112.830817 55.071060 -17.021788
4139 3 -92.715220 45.394721 41.812715
4140 3 -95.582107 39.315393 101.934803
4141 2 62.489800 26.052063 163.628748
4142 3 43.133822 40.003028 239.019333
4143 3 43.622416 30.407307 231.345926
4144 2 -64.996053 243.383039 326.968733
4145 3 -123.491549 254.986614 291.557902
4146 3 -96.383819 251.984163 234.808594
4147 2 -86.121300 263.416827 -24.705281
4148 3 -118.051434 339.251158 -37.134989
4149 3 -120.936549 359.720138 45.291522
4150 2 -97.733532 102.525649 75.441958
4151 3 -57.264500 89.703382 137.373228
4152 3 -53.549706 76.026927 200.738337
4153 2 221.896881 350.307470 203.134071
4154 3 254.801526 358.097446 154.266768
4155 3 232.777062 399.408276 163.963942
4156 2 -122.334774 103.373858 341.480293
4157 3 -93.194741 107.989377 248.150500
4158 3 -97.369238 107.905388 294.090456
4159 2 112.112444 40.842355 103.233362
4160 3 109.052200 62.779077 159.314892
4161 3 79.334329 52.344548 109.630500
4162 2 -152.142261 212.637133 112.964810
4163 3 -168.694712 249.074884 170.926275
4164 3 -153.746315 208.728462 129.007974
4165 2 159.891769 139.299604 115.550413
4166 3 158.708026 162.547487 118.511296
4167 3 189.623530 118.523338 126.353472
4168 2 -46.870712 196.233125 98.364192
4169 3 -63.511085 214.209089 99.091310
4170 3 -43.645478 275.574765 95.110101
4171 2 165.174258 232.706059 238.894046
4172 3 150.372997 162.549539 308.449384
4173 3 163.137542 199.776119 301.138774
4174 2 -24.565393 255.642861 296.257279
4175 3 -49.045758 223.205418 349.549785
4176 3 -20.086518 207.245071 318.590322
4177 2 -7.216057 70.498501 285.838421
4178 3 -3.835343 101.965553 260.932894
4179 3 20.723767 117.089620 321.004840
4180 2 85.724348 -26.371485 333.019514
4181 3 75.750724 -72.659943 368.725148
4182 3 72.960050 -30.024523 372.036531
4183 2 -238.428852 232.191606 166.099240
4184 3 -300.721362 212.339190 157.462173
4185 3 -277.534022 230.665309 95.487365
4186 2 177.037244 54.736585 198.615503
4187 3 159.237662 68.062779 200.064129
4188 3 189.084688 77.258569 165.111169
4189 2 -97.418748 45.736048 218.574676
4190 3 -28.143045 112.655245 214.391818
4191 3 -20.324993 152.709570 153.186318
4192 2 124.530110 70.525960 189.215346
4193 3 163.040765 50.811305 282.193099
4194 3 146.551086 22.715567 239.695275
4195 2 -132.449884 311.378786 225.969389
4196 3 -116.833883 241.325276 143.206040
4197 3 -127.998602 208.434624 170.032529
4198 2 -400.382358 47.335012 171.878015
4199 3 -428.193617 38.690216 129.325676
4200 3 -383.799857 78.058413 154.984863
4201 2 -117.230605 -41.802495 120.465306
4202 3 -169.012417 -17.366307 58.746248
4203 3 -112.994828 -18.370523 68.754403
4204 2 -48.648347 318.044740 396.779369
4205 3 -38.083856 275.626034 316.065646
4206 3 -56.798382 368.243264 478.065261
4207 2 181.451218 252.129653 217.843287
4208 3 216.216402 337.726807 247.280298
4209 3 204.472230 375.859881 225.286269
4210 2 -202.605962 231.951348 281.569338
4211 3 -165.711328 218.901709 285.813124
4212 3 -129.217631 208.484768 297.893854
4213 2 188.721282 235.821416 133.923162
4214 3 174.644936 269.355042 184.726688
4215 3 132.304148 293.614283 172.634296
4216 2 -51.308319 -47.192592 303.536816
4217 3 -32.576674 -10.077656 362.111644
4218 3 -42.906143 -59.500992 275.541511
4219 2 48.953727 225.964905 72.941491
4220 3 47.602843 248.416676 106.552107
4221 3 15.209786 174.768614 90.627560
4222 2 -141.419682 305.006397 315.584186
4223 3 -157.477131 347.014404 348.273037
4224 3 -124.388929 271.281425 355.350084
4225 2 -176.938079 239.334518 137.863039
4226 3 -203.707705 257.335813 162.605655
4227 3 -195.455341 270.019257 141.390519
4228 2 266.259705 297.091655 228.664337
4229 3 272.777702 313.791524 150.864722
4230 3 266.977003 297.009613 136.501302
4231 2 209.746029 74.050952 26.612130
4232 3 271.869463 102.406660 -5.055787
4233 3 232.812706 97.065236 34.791840
4234 2 -82.605403 -9.798500 139.491966
4235 3 -144.455608 3.914133 146.552232
4236 3 -135.654146 -88.903774 99.095913
4237 2 -78.940680 -158.781204 439.437870
4238 3 -52.896456 -135.706270 491.236175
4239 3 -69.883115 -208.377745 487.679310
4240 2 -60.118630 29.439576 292.530344
4241 3 -95.655034 8.624454 321.844043
4242 3 -29.572646 66.519441 337.997826
4243 2 104.453867 60.071153 10.458697
4244 3 134.533666 54.449863 109.706300
4245 3 108.061235 -41.615380 48.044749
4246 2 -197.099686 -169.204653 220.764914
4247 3 -174.547275 -178.587307 247.997369
4248 3 -174.120283 -132.897689 280.188282
4249 2 58.352941 -48.029558 440.367616
4250 3 35.338962 -30.753428 494.964640
4251 3 60.333056 -93.641429 544.603097
4252 2 -39.569460 -245.845115 104.027275
4253 3 -75.187617 -223.622381 93.068381
4254 3 -46.810948 -266.739055 101.839851
4255 2 -240.239315 23.524412 -30.863359
4256 3 -231.390661 22.764596 1.445797
4257 3 -196.057498 23.788363 -63.501260
4258 2 193.611745 -167.849023 434.880996
4259 3 208.906996 -222.706186 402.093760
4260 3 212.661477 -202.343575 457.337518
4261 2 -80.834029 65.740716 313.853506
4262 3 -110.248222 41.432675 255.981965
4263 3 -113.125930 37.202296 322.104637
4264 2 26.216329 79.982223 385.252541
4265 3 46.077898 28.977252 390.417731
4266 3 50.812526 37.803585 337.572735
4267 2 25.192361 -92.222542 191.045628
4268 3 -21.212612 -76.605242 207.929028
4269 3 12.913292 -114.023517 207.700393
4270 2 182.002582 109.705902 299.871233
4271 3 190.709941 134.643186 268.193832
4272 3 211.710100 146.164483 277.705345
4273 2 138.444971 28.796248 93.211940
4274 3 140.942314 23.736340 114.067143
4275 3 135.849090 21.766766 100.572217
4276 2 -102.369765 119.071734 451.709447
4277 3 -57.258054 135.302999 378.676347
4278 3 -74.468827 197.065696 395.438814
4279 2 -342.386683 -89.712049 120.019687
4280 3 -246.998785 -110.178171 138.815554
4281 3 -279.222614 -79.062680 119.858069
4282 2 -75.922274 41.934540 380.313236
4283 3 -54.314073 39.458842 467.587745
4284 3 -68.883005 -3.614410 425.881537
4285 2 -1.083800 159.914165 276.977553
4286 3 22.378393 161.663175 225.869067
4287 3 26.417207 206.024532 233.347882
4288 2 76.852060 177.719644 276.029670
4289 3 62.523793 162.841826 259.763332
4290 3 74.784163 141.347477 313.662254
4291 2 136.485448 79.000235 177.634657
4292 3 156.765746 71.174423 214.435992
4293 3 119.185262 64.853573 257.669560
4294 2 92.541192 -12.185500 418.188682
4295 3 50.786544 16.665961 353.892730
4296 3 99.722774 47.784238 387.356738
4297 2 28.629055 99.995238 146.337057
4298 3 -14.253758 44.448722 123.791838
4299 3 -26.594334 68.410064 115.604135
4300 2 92.255144 -177.455850 134.783612
4301 3 20.387170 -154.868047 174.537582
4302 3 103.619604 -201.883965 179.828973
4303 2 111.376812 63.176149 139.679417
4304 3 174.262315 37.408863 159.670853
4305 3 186.507084 71.672310 222.587114
4306 2 298.942152 263.263659 252.170042
4307 3 309.370296 261.561782 206.372773
4308 3 276.693248 277.837619 224.247086
4309 2 347.192248 79.255808 63.000966
4310 3 317.481834 24.637665 38.592714
4311 3 301.238595 115.736735 35.282310
4312 2 -44.272205 68.666222 201.070671
4313 3 -58.156038 104.851653 211.609335
4314 3 -81.821593 60.743250 224.540137
4315 2 -80.235675 48.752808 162.157564
4316 3 -144.771809 -1.574183 181.390727
4317 3 -104.815527 22.051013 128.775667
4318 2 -184.722409 132.123448 179.476804
4319 3 -203.416684 128.318531 199.932734
4320 3 -228.027971 185.809889 175.323395
4321 2 -89.407094 103.561023 181.389878
4322 3 -98.432687 72.304785 285.325316
4323 3 -70.004314 63.409899 233.481713
4324 2 145.338207 245.213619 374.842078
4325 3 107.048325 248.524246 373.511672
4326 3 139.467378 261.420048 338.022846
4327 2 62.537110 2.422819 232.116949
4328 3 22.392016 -35.178319 202.847664
4329 3 33.313748 -20.170824 190.656758
4330 2 141.878481 -4.257715 310.065294
4331 3 120.005986 -86.957793 340.409171
4332 3 92.366218 -30.409446 242.289126
4333 2 91.005771 -96.871936 213.416405
4334 3 73.712308 -80.997288 243.723341
4335 3 74.514735 -123.374714 214.077198
4336 2 305.202997 58.756761 137.781233
4337 3 323.484517 57.161087 100.573057
4338 3 300.262248 46.525118 109.471769
4339 2 138.757537 -27.031529 292.641442
4340 3 116.449385 -34.470811 276.736334
4341 3 154.205546 23.877258 367.424338
4342 2 300.604714 175.912873 174.278381
4343 3 342.918633 232.333082 247.553347
4344 3 318.251365 199.144198 153.870831
4345 2 122.092680 9.617095 484.461182
4346 3 136.660268 13.736321 440.873193
4347 3 116.652479 48.897942 421.337800
4348 2 131.939115 61.902204 65.757059
4349 3 231.610365 25.437366 80.784133
4350 3 178.089711 15.086389 146.941628
4351 2 -161.019977 142.793648 -80.210652
4352 3 -143.130410 114.849937 -70.343906
4353 3 -173.766885 164.434049 -70.561406
4354 2 -162.904958 -358.324978 390.057812
4355 3 -168.844536 -317.361718 328.235314
4356 3 -128.745702 -362.788561 430.364346
4357 2 -173.189046 329.770283 321.452627
4358 3 -172.719619 315.250922 381.284867
4359 3 -161.100128 320.003599 358.297821
4360 2 51.903145 -90.736833 344.079071
4361 3 51.706908 -124.785824 330.797520
4362 3 54.237500 -160.129459 295.813238
4363 2 -47.041310 -166.234131 356.287838
4364 3 -34.530059 -110.696759 374.460091
4365 3 -76.292614 -187.442206 369.605627
4366 2 36.414345 123.131642 168.020710
4367 3 42.811873 88.423592 158.025605
4368 3 75.366784 145.723407 153.771957
4369 2 -79.168036 176.752880 -10.484114
4370 3 -95.347892 159.133273 -32.835968
4371 3 -95.986149 194.760028 80.024102
4372 2 199.165498 35.298253 244.977966
4373 3 229.282493 79.768542 211.433712
4374 3 219.946701 76.578812 224.202931
4375 2 103.627418 -57.743818 401.823000
4376 3 125.085530 -3.194776 486.960726
4377 3 120.976239 -4.955008 428.935592
4378 2 101.612629 57.059636 254.257984
4379 3 70.439265 82.146556 289.132404
4380 3 59.381698 69.334716 233.529798
4381 2 -26.435728 160.728142 282.223839
4382 3 -2.530520 132.910779 333.998931
4383 3 -6.672633 129.605102 321.289329
4384 2 75.267591 -42.560566 249.014668
4385 3 97.877030 9.720420 268.311351
4386 3 82.503718 -17.052985 278.450665
4387 2 -148.309269 -54.219047 133.932314
4388 3 -186.810015 -49.756605 141.708295
4389 3 -149.054409 -21.323157 161.962982
4390 2 101.756975 134.584383 12.511889
4391 3 96.478911 68.377903 4.157105
4392 3 79.193305 66.966675 38.737129
4393 2 -6.155063 194.051021 308.855672
4394 3 6.259048 72.956346 302.268407
4395 3 -8.806347 226.724754 322.271459
4396 2 295.804667 -31.588664 193.155158
4397 3 317.840125 -3.499367 166.942899
4398 3 281.159234 -86.385261 223.851002
4399 2 224.029573 163.196132 117.170935
4400 3 267.937944 117.629607 28.317883
4401 3 228.206805 150.083106 27.100009
4402 2 203.913667 -18.225413 325.688072
4403 3 189.461270 -8.674785 268.951626
4404 3 223.623250 29.356296 354.433107
4405 2 439.246470 -251.010709 316.256363
4406 3 409.815343 -235.525785 365.970379
4407 3 394.996125 -227.103600 369.690210
4408 2 -25.459615 246.797495 312.737712
4409 3 2.815076 229.192577 297.244815
4410 3 0.618409 212.569490 304.557823
4411 2 -260.685965 -63.126644 266.127313
4412 3 -284.193142 -45.610366 258.506271
4413 3 -262.290820 -52.964808 225.430432
4414 2 -226.866821 306.690636 483.342638
4415 3 -227.810432 283.618105 528.744357
4416 3 -210.084604 243.355762 427.277373
4417 2 -51.968490 144.998869 330.760617
4418 3 -107.531689 169.164026 328.899263
4419 3 -94.632936 137.410518 382.746797
4420 2 337.573249 305.656198 252.965717
4421 3 357.006822 276.620212 257.173891
4422 3 331.961741 259.320838 234.051594
4423 2 341.466486 137.464310 182.079917
4424 3 325.959033 184.478298 189.995338
4425 3 311.003154 140.476902 135.674286
4426 2 -31.093761 109.422244 207.838098
4427 3 -56.540670 101.994997 196.020047
4428 3 -29.092342 75.244085 188.162251
4429 2 -73.244381 169.412175 63.871680
4430 3 -76.019070 181.542259 86.665195
4431 3 -18.475013 143.492756 33.654138
4432 2 -40.610446 215.775070 238.262535
4433 3 -37.491776 288.472650 299.198797
4434 3 -6.307518 233.700069 296.410779
4435 2 79.673868 29.358671 274.910296
4436 3 64.761586 14.544957 289.620766
4437 3 45.390821 40.061954 303.817540
4438 2 312.428851 -162.558206 198.409102
4439 3 294.746728 -72.044831 224.252401
4440 3 296.707927 -144.034736 141.042095
4441 2 510.203669 -14.807977 253.254542
4442 3 479.054715 -37.799295 239.553289
4443 3 510.278852 12.815251 290.798724
4444 2 22.310294 317.128651 430.841286
4445 3 -36.788966 367.004510 459.685426
4446 3 4.090216 357.454760 435.557436
4447 2 47.905443 233.155695 22.186600
4448 3 6.066003 278.412280 43.117717
4449 3 43.963391 240.403303 49.481064
4450 2 -135.585680 -77.105455 203.761817
4451 3 -130.503808 -77.143823 225.269773
4452 3 -140.188561 -28.234017 178.121783
4453 2 113.229797 -51.709101 160.906648
4454 3 123.304142 -40.420144 165.314682
4455 3 157.085152 -46.769115 191.773050
4456 2 91.941192 -88.294637 92.889709
4457 3 122.538160 -113.128486 149.244984
4458 3 109.378829 -118.350580 149.811498
4459 2 148.588220 177.970712 205.061668
4460 3 148.205291 184.083884 213.086174
4461 3 174.695938 236.809710 264.155396
4462 2 -150.789886 223.446680 127.698317
4463 3 -127.265331 135.580036 109.369104
4464 3 -137.035522 142.812790 80.362345
4465 2 97.035649 196.662023 216.678559
4466 3 126.590305 228.106291 235.150855
4467 3 87.983982 168.057413 226.276204
4468 2 -57.571889 169.793499 95.772223
4469 3 22.730995 188.592805 107.152609
4470 3 -30.106965 205.807126 138.061552
4471 2 -118.220177 -150.061471 328.293548
4472 3 -88.899150 -92.509957 251.693877
4473 3 -101.215430 -116.448965 316.547458
4474 2 204.705076 122.977106 92.024590
4475 3 218.331074 117.929124 84.803246
4476 3 204.141103 114.671789 92.887374
4477 2 -204.336805 161.931014 306.762435
4478 3 -187.392389 149.735946 310.374766
4479 3 -186.335054 158.987814 299.419941
4480 2 -22.490913 55.161666 424.521128
4481 3 2.806970 37.884761 435.565961
4482 3 6.851697 11.120340 448.956302
4483 2 225.814498 263.021074 118.565968
4484 3 196.792084 214.059023 156.520572
4485 3 196.900139 265.894851 174.580768
4486 2 -149.292062 81.155807 -40.941533
4487 3 -110.876495 56.727616 19.562920
4488 3 -133.377436 105.471266 67.070563
4489 2 -72.632574 164.025875 210.672412
4490 3 -109.846139 65.587609 179.600117
4491 3 -89.569070 153.690337 177.898886
4492 2 -9.610148 -168.262337 81.171384
4493 3 -28.019251 -180.783764 43.717497
4494 3 6.526552 -174.607845 53.428990
4495 2 -243.885975 -40.556709 188.849449
4496 3 -172.405500 -32.277912 173.159958
4497 3 -232.290444 17.372592 143.385593
4498 2 39.431225 10.013126 237.575024
4499 3 47.253530 23.231339 274.220478
4500 3 54.805325 5.857409 255.258362
4501 2 -49.384533 -6.827725 286.230391
4502 3 -41.685925 25.850468 304.502302
4503 3 -52.092672 -3.843677 249.636381
4504 2 111.492902 187.382711 260.329302
4505 3 91.510571 202.854393 248.819301
4506 3 147.451116 244.412688 152.002465
4507 2 -36.796786 395.278762 335.094226
4508 3 -65.896071 424.479836 349.734007
4509 3 -26.957081 347.619839 372.573513
4510 2 49.256996 270.890067 260.676526
4511 3 48.519367 223.091113 215.691355
4512 3 71.307946 283.231551 292.284678
4513 2 -1.570833 -144.195324 351.979619
4514 3 18.937834 -159.956738 324.985541
4515 3 -22.464050 -135.184459 361.326856
4516 2 49.042212 189.195777 490.328534
4517 3 10.652428 220.294011 490.435997
4518 3 12.427712 239.463998 488.525506
4519 2 54.404866 -81.398985 185.499317
4520 3 98.508829 -110.852983 172.974739
4521 3 58.566317 -71.146531 131.198286
4522 2 104.100358 328.749255 330.228137
4523 3 142.620565 345.264543 348.527966
4524 3 127.746426 284.668751 345.680533
4525 2 33.472880 369.007401 195.995561
4526 3 44.613309 408.838550 154.911803
4527 3 77.890329 383.565990 192.353283
4528 2 291.912983 -207.172456 166.773863
4529 3 281.037240 -214.454244 98.245852
4530 3 269.332409 -191.697703 67.711636
4531 2 48.551625 64.585194 201.474357
4532 3 45.662430 66.048854 92.102766
4533 3 76.920385 82.301678 139.030470
4534 2 25.242587 149.505586 310.651745
4535 3 5.607054 105.177603 320.095576
4536 3 -11.186049 167.150447 348.615574
4537 2 -50.865126 28.473813 332.809201
4538 3 -80.999396 -5.153232 371.138153
4539 3 -102.742588 11.290907 439.790667
4540 2 -88.038511 66.700247 169.625189
4541 3 -106.959273 41.918600 108.631874
4542 3 -99.261281 56.489365 95.844563
4543 2 246.381293 8.717133 296.406646
4544 3 234.570048 91.400135 266.069337
4545 3 242.631397 22.828711 324.390824
4546 2 332.885164 -168.465253 402.815998
4547 3 359.830312 -188.441690 357.827929
4548 3 388.283391 -195.399247 355.288898
4549 2 -65.984196 233.029438 330.624185
4550 3 -36.361321 249.222943 373.818192
4551 3 -55.665783 257.750707 350.154448
4552 2 24.871298 194.384254 571.581139
4553 3 53.649299 209.759054 589.677741
4554 3 27.111112 161.781601 588.824717
4555 2 -67.723537 332.271206 312.469424
4556 3 -58.664567 362.897347 267.243273
4557 3 -28.209508 285.710367 315.770474
4558 2 107.615922 73.194065 11.363723
4559 3 106.593904 75.242816 -8.656060
4560 3 73.257973 82.748441 -55.684086
4561 2 -140.053071 180.928964 332.225942
4562 3 -133.207559 204.479381 350.702021
4563 3 -152.685737 223.212945 357.350288
4564 2 -25.679680 176.267027 303.976391
4565 3 -16.070793 159.101086 281.384600
4566 3 -47.516364 171.383715 263.187990
4567 2 -251.139388 143.755387 184.132653
4568 3 -250.874669 156.312301 197.900166
4569 3 -291.413572 212.716941 199.771466
4570 2 11.312115 170.942030 396.668326
4571 3 66.166269 160.560956 432.123755
4572 3 -26.725652 115.951473 366.087585
4573 2 15.310485 206.445326 76.787268
4574 3 6.579623 240.011322 122.361414
4575 3 33.942645 191.702218 131.110040
4576 2 -25.923190 -1.758503 180.148576
4577 3 -55.147018 -67.154685 144.545893
4578 3 8.608219 -26.421397 153.786073
4579 2 -63.940264 349.713591 290.269990
4580 3 -50.476299 323.784083 249.145380
4581 3 -54.614024 316.146485 283.706897
4582 2 -174.283887 307.146430 207.148945
4583 3 -184.321978 252.513759 192.043903
4584 3 -180.282700 312.934793 226.461718
4585 2 86.230233 21.101202 137.245404
4586 3 124.998748 10.133732 247.857228
4587 3 151.127973 -20.969578 146.428716
4588 2 16.309936 -151.695931 114.428465
4589 3 -49.130586 -119.595415 181.842425
4590 3 -9.774177 -180.111841 154.498365
4591 2 44.204920 270.172455 225.832772
4592 3 36.871499 244.137247 191.353790
4593 3 54.117524 257.991725 146.508031
4594 2 101.872708 294.035716 214.845398
4595 3 87.341485 257.314952 237.527382
4596 3 37.478507 263.945373 224.881512
4597 2 -21.812898 225.308840 440.793482
4598 3 -37.513616 247.560918 478.981315
4599 3 -36.950752 209.737524 517.639889
4600 2 -185.217694 269.599527 57.127527
4601 3 -190.814166 248.423441 68.763836
4602 3 -200.557994 236.897499 77.020064
4603 2 -187.853707 129.187585 301.614903
4604 3 -171.637103 113.029004 312.634622
4605 3 -196.048106 153.627741 353.970670
4606 2 18.666719 210.572118 354.515218
4607 3 26.632125 170.231641 353.767886
4608 3 -9.375546 162.820844 390.021315
4609 2 -53.332001 211.617701 122.345952
4610 3 -49.282191 259.041368 140.762930
4611 3 -44.737892 241.299565 117.323946
4612 2 -10.756093 145.938623 69.282394
4613 3 -48.125207 128.019424 80.157983
4614 3 -21.398974 155.801452 62.140632
4615 2 124.549855 141.767237 157.437844
4616 3 88.583408 205.406311 163.268561
4617 3 58.677107 173.295836 145.700999
4618 2 78.705150 470.076237 280.242456
4619 3 16.682554 394.815214 254.349375
4620 3 90.625491 392.526361 335.394583
4621 2 -7.145015 192.576008 321.645410
4622 3 29.496241 203.027357 324.119307
4623 3 -8.271402 188.050332 297.352518
4624 2 343.110757 438.474163 210.554745
4625 3 333.474502 481.870960 212.220881
4626 3 354.578846 467.980083 191.714282
4627 2 -65.996577 391.467778 142.886539
4628 3 -81.073322 357.010187 155.305997
4629 3 -59.155353 425.548545 202.512082
4630 2 238.804740 -47.816037 42.085964
4631 3 236.741070 -64.141355 -0.115751
4632 3 245.813721 -63.680498 19.611658
4633 2 -93.758419 31.676615 280.819479
4634 3 -122.988683 8.200058 331.560942
4635 3 -116.044299 40.284638 289.196543
4636 2 72.608759 -151.030273 113.359538
4637 3 52.462913 -110.580796 132.839834
4638 3 60.750080 -78.419105 187.427743
4639 2 -83.182527 54.003119 250.553394
4640 3 -86.382334 40.566346 293.566796
4641 3 -65.593391 65.072127 238.940286
4642 2 47.367766 -85.878213 153.068707
4643 3 11.286706 -44.791722 160.235781
4644 3 36.857190 -7.164213 81.753974
4645 2 278.819604 98.574975 196.856869
4646 3 263.954265 53.394594 200.056896
4647 3 235.743129 60.783728 197.555377
4648 2 -22.806267 -3.988552 289.098914
4649 3 -16.487081 1.248471 395.704076
4650 3 8.985478 50.095006 362.043557
4651 2 -255.451852 11.772860 172.297072
4652 3 -263.075462 56.537673 199.240020
4653 3 -265.545393 10.081593 240.106674
4654 2 7.866242 -267.376023 104.385026
4655 3 78.243709 -259.203203 92.853322
4656 3 64.025912 -229.415244 176.130049
4657 2 152.075172 155.294663 220.648595
4658 3 135.287101 168.845816 228.256055
4659 3 123.028022 132.312377 277.398511
4660 2 2.824376 157.139308 205.738458
4661 3 -4.279587 127.562391 188.797323
4662 3 -3.448166 107.426294 281.327750
4663 2 187.426305 -283.707826 126.920650
4664 3 200.167222 -292.219580 60.210642
4665 3 189.795860 -279.558425 42.151061
4666 2 35.538685 23.698984 145.447066
4667 3 29.740978 -2.103070 122.913277
4668 3 69.128361 30.484408 134.341693
4669 2 -13.494037 -7.090336 224.749213
4670 3 1.035359 44.352219 214.775762
4671 3 23.449002 28.055739 220.707732
4672 2 -38.107940 98.923252 217.806199
4673 3 -61.965372 64.526905 222.053324
4674 3 -19.300806 91.192216 266.848461
4675 2 -153.753463 183.959665 264.728635
4676 3 -130.185031 173.691284 290.788502
4677 3 -147.362526 188.006893 268.931569
4678 2 81.323278 -74.467405 166.567960
4679 3 63.740696 -62.656687 169.734820
4680 3 76.793572 -57.003210 171.301583
4681 2 55.046999 -57.828042 71.917794
4682 3 78.167879 -15.979076 45.302927
4683 3 79.353544 -37.584709 68.844207
4684 2 -123.457691 149.140410 483.934090
4685 3 -105.788497 85.480088 516.200839
4686 3 -95.062122 68.459896 400.300659
4687 2 -60.903235 47.920563 463.398318
4688 3 -67.827111 16.175195 478.469907
4689 3 -48.028750 22.790761 477.203123
4690 2 173.185961 13.642239 379.986972
4691 3 180.720251 51.079010 313.771433
4692 3 191.168461 -9.616619 329.818029
4693 2 37.713645 -122.314413 127.373954
4694 3 19.852451 -99.935813 109.841062
4695 3 79.377670 -144.974680 105.661018
4696 2 289.487176 -54.070950 125.342059
4697 3 292.485732 -78.592259 119.202534
4698 3 325.041526 -64.966112 136.042140
4699 2 37.802977 35.201458 50.622926
4700 3 1.895123 50.018688 74.741973
4701 3 -14.203755 48.311601 86.703316
4702 2 252.844394 103.303150 67.260943
4703 3 208.690814 134.736381 157.999183
4704 3 252.413359 152.036294 149.515532
4705 2 142.769071 -298.240780 -3.582798
4706 3 101.146708 -242.463347 35.842171
4707 3 101.008507 -284.423857 -6.073520
4708 2 235.072987 -147.929952 243.662617
4709 3 263.262998 -92.876980 276.440073
4710 3 281.299666 -116.642470 241.124933
4711 2 -213.516240 96.617956 378.241808
4712 3 -207.907099 51.374713 403.681937
4713 3 -168.623917 99.090826 410.060439
4714 2 111.977027 -93.911556 323.254179
4715 3 139.587893 -90.300470 326.576283
4716 3 104.264300 -88.968119 302.135038
4717 2 9.764879 47.847971 391.423203
4718 3 -10.659852 43.188230 435.218995
4719 3 23.062639 24.180586 419.847049
4720 2 -37.532116 62.709981 425.317800
4721 3 -14.000714 -20.692267 372.708174
4722 3 -3.839452 3.783358 348.946340
4723 2 -182.658430 109.105341 256.889476
4724 3 -168.183022 177.198471 256.126184
4725 3 -215.078327 151.077025 264.462820
4726 2 -19.237837 123.864223 286.528017
4727 3 -27.743137 83.926058 246.312948
4728 3 -41.458008 113.862305 281.790501
4729 2 -293.810958 209.026922 334.078089
4730 3 -281.949303 207.930769 322.521591
4731 3 -304.070469 207.696775 353.484135
4732 2 -119.480187 20.748770 118.863152
4733 3 -115.052224 50.555694 102.488669
4734 3 -76.643171 29.561668 140.216132
4735 2 -29.650830 -92.582641 263.589500
4736 3 -22.970444 -106.502429 215.677202
4737 3 8.413901 -125.621481 200.125905
4738 2 69.656080 29.821932 329.457501
4739 3 14.431912 16.115987 242.926135
4740 3 -1.466563 19.612761 280.930927
4741 2 122.646165 -69.966428 544.367062
4742 3 92.838961 -80.178636 526.010218
4743 3 125.425752 -145.527264 464.761716
4744 2 317.892753 60.074669 194.659158
4745 3 258.496427 17.457387 173.904402
4746 3 239.407661 111.350124 224.760690
4747 2 164.022413 59.858038 61.068135
4748 3 154.225229 62.525542 134.518110
4749 3 178.205888 5.969792 94.914033
4750 2 -212.791005 132.386277 215.755917
4751 3 -233.155496 71.998659 243.486384
4752 3 -238.446452 146.380559 216.644755
4753 2 -72.141880 23.594394 321.764516
4754 3 -42.025057 89.800910 323.489752
4755 3 -25.671958 52.743653 285.575355
4756 2 28.460796 145.810269 292.517742
4757 3 64.009189 110.538086 295.461899
4758 3 -10.051246 128.303927 278.290504
4759 2 48.756860 194.105088 96.557934
4760 3 44.718880 167.926671 71.531263
4761 3 88.206031 158.149921 134.983657
4762 2 -58.730549 -198.558575 297.287365
4763 3 -43.341769 -227.825955 273.485602
4764 3 -64.744584 -179.271226 264.294891
4765 2 79.118522 58.852746 384.518494
4766 3 78.640696 18.924087 311.798132
4767 3 70.266149 31.952362 348.105089
4768 2 131.139239 -12.887524 -34.538744
4769 3 125.679564 28.469474 -42.426874
4770 3 120.255003 -14.386651 -51.283650
4771 2 65.927020 212.712151 284.312501
4772 3 69.895841 208.238306 350.609504
4773 3 88.756515 211.990009 266.849882
4774 2 226.818601 -17.282710 162.895744
4775 3 183.739698 -37.430564 203.096042
4776 3 179.750966 -20.828995 117.419830
4777 2 31.245689 -202.271613 97.273017
4778 3 71.003571 -215.468537 102.957010
4779 3 31.489248 -218.987842 21.276536
4780 2 129.798376 -39.684478 64.188994
4781 3 101.261338 -45.450372 105.824537
4782 3 121.550054 -35.678711 151.317113
4783 2 229.887485 -211.825028 -19.256427
4784 3 210.804413 -214.622616 49.790453
4785 3 241.537345 -200.048443 -20.752156
4786 2 133.687373 131.664051 83.085196
4787 3 188.581662 167.638656 94.567976
4788 3 146.057378 128.081481 101.153271
4789 2 -153.765813 200.776287 274.147871
4790 3 -146.952888 183.623832 233.417574
4791 3 -122.495432 169.088111 218.692730
4792 2 -102.005015 177.227344 241.752365
4793 3 -111.823497 154.534692 201.173096
4794 3 -83.822621 155.616644 196.130886
4795 2 -226.659290 -20.461819 270.604291
4796 3 -266.301121 -64.980054 274.774122
4797 3 -254.400371 -3.034173 249.036958
4798 2 -65.940929 262.263491 128.585854
4799 3 -39.965374 200.805449 123.607219
4800 3 -4.055302 270.521925 66.790272
4801 2 129.245865 23.943191 214.956570
4802 3 128.874767 15.347943 149.736852
4803 3 124.838805 -4.676612 157.634318
4804 2 32.902401 35.744939 247.482898
4805 3 27.030374 45.520094 297.306407
4806 3 40.236925 34.308273 247.028912
4807 2 168.906738 140.359343 396.382288
4808 3 197.195363 159.921220 345.439479
4809 3 190.696223 165.502302 388.331838
4810 2 369.776618 -111.112352 255.354145
4811 3 377.270099 -125.033516 221.617716
4812 3 404.089334 -89.669439 273.495990
4813 2 172.106921 163.713701 83.396528
4814 3 213.931742 176.047051 66.884662
4815 3 165.965913 177.309888 90.534503
4816 2 -140.867269 137.052495 393.725424
4817 3 -99.050238 175.253418 326.931202
4818 3 -123.098895 113.658568 354.385613
4819 2 -15.437855 372.917882 233.531440
4820 3 -52.071054 325.126256 246.200153
4821 3 -17.801805 414.031482 313.320602
4822 2 -196.870833 -92.827658 357.297442
4823 3 -209.791340 -104.827973 406.722596
4824 3 -200.585528 -101.566267 396.304532
4825 2 75.944617 175.972398 544.670667
4826 3 52.157749 213.415806 514.810982
4827 3 53.837738 197.101487 509.831009
4828 2 327.784680 -20.510781 237.169511
4829 3 318.377377 -15.808765 202.959057
4830 3 343.488867 -45.015362 251.413761
4831 2 110.329219 75.685572 449.603810
4832 3 58.917244 146.466524 471.071541
4833 3 86.950427 54.553225 413.075783
4834 2 -59.787700 -122.834095 -39.186571
4835 3 -45.426959 -142.932121 -14.330530
4836 3 -40.984933 -88.669149 17.130170
4837 2 341.135729 -24.180057 346.320734
4838 3 341.931168 -45.634625 268.713156
4839 3 364.164888 -43.496762 320.237821
4840 2 30.917700 239.801639 14.682365
4841 3 50.287876 218.980452 25.827873
4842 3 -0.750930 226.408474 36.120739
4843 2 -159.373525 54.634705 253.222787
4844 3 -103.514917 -1.782180 199.422581
4845 3 -118.788612 74.373651 239.501421
4846 2 7.854805 284.152323 295.098418
4847 3 -22.379568 286.503179 303.511998
4848 3 -31.805195 305.610250 291.913005
4849 2 22.904445 16.706641 258.958634
4850 3 63.651548 17.191191 261.078811
4851 3 68.838502 -18.785976 263.569295
4852 2 -60.950521 221.778861 61.137163
4853 3 -76.323957 247.396939 130.769182
4854 3 -84.532770 214.653982 116.678459
4855 2 -59.863099 207.223207 376.119012
4856 3 -41.905712 211.007614 259.565917
4857 3 -72.165741 192.535352 245.870476
4858 2 378.656331 -122.454444 334.576581
4859 3 382.520284 -170.793956 305.438026
4860 3 394.415808 -134.507063 326.404442
4861 2 254.376703 274.485181 282.099696
4862 3 272.428309 285.619445 344.500803
4863 3 253.383988 290.470828 301.917677
4864 2 -233.888816 29.139012 210.204163
4865 3 -231.690679 19.765781 167.404459
4866 3 -218.923299 94.495149 244.091490
4867 2 -232.030409 223.778437 387.592920
4868 3 -243.786561 275.216279 382.594718
4869 3 -256.921821 205.529070 408.207813
4870 2 -198.487446 79.443178 94.915251
4871 3 -182.174151 126.103061 51.731328
4872 3 -175.917990 122.812307 89.895926
4873 2 -116.851964 289.848395 249.075909
4874 3 -141.871632 292.898496 216.209996
4875 3 -119.712405 267.959867 279.660360
4876 2 310.684056 60.655149 330.627691
4877 3 272.302001 68.933555 297.355950
4878 3 288.714735 43.598406 355.946887
4879 2 -2.054819 252.154634 331.363287
4880 3 -28.573263 247.490841 316.081958
4881 3 8.403949 218.353260 305.494765
4882 2 76.069384 277.665506 356.800685
4883 3 66.797796 233.888344 412.536587
4884 3 70.065983 194.145318 429.694955
4885 2 105.698342 135.450777 222.116558
4886 3 111.419118 181.399111 203.516576
4887 3 141.358040 165.026074 219.202994
4888 2 -123.712735 -8.315810 331.827090
4889 3 -126.162860 15.715549 239.641949
4890 3 -155.314342 27.784065 274.174275
4891 2 -76.891023 260.031137 300.421537
4892 3 -67.000656 212.102308 288.007772
4893 3 -88.620393 249.616065 344.784074
4894 2 -84.178626 59.296882 21.610838
4895 3 -42.960805 111.027208 -11.972497
4896 3 -70.027892 36.436648 22.305591
4897 2 -60.363567 165.334964 -41.150042
4898 3 -53.053854 179.173037 -15.907303
4899 3 -57.979616 215.638733 -14.856399
4900 2 -55.346925 142.665126 186.524974
4901 3 -24.245765 143.820210 208.769873
4902 3 -10.873215 109.660776 192.407125
4903 2 16.049131 328.683998 133.382121
4904 3 95.171122 332.592837 155.951909
4905 3 67.479554 311.461741 128.969050
4906 2 51.698400 52.219444 337.559929
4907 3 16.174496 -3.532883 309.713917
4908 3 47.532578 29.260444 341.429329
4909 2 294.405297 110.826747 261.275192
4910 3 331.313809 82.248893 240.854301
4911 3 329.644887 114.951989 267.829982
4912 2 -152.166073 224.114923 321.970032
4913 3 -87.614132 226.036243 357.528827
4914 3 -99.687114 257.963582 288.936373
4915 2 18.479807 36.853228 116.004943
4916 3 -9.599432 98.716124 102.337244
4917 3 21.636799 44.244249 171.852376
4918 2 -4.335139 -62.396253 160.323113
4919 3 -26.176573 -33.079440 129.606824
4920 3 -1.286046 -30.757716 109.810912
4921 2 147.130934 134.392627 288.671517
4922 3 151.553622 163.706327 294.511340
4923 3 126.006944 132.525252 264.408959
4924 2 -115.557247 -71.047384 321.304183
4925 3 -135.896385 -1.718978 250.991383
4926 3 -135.227019 -13.141930 236.933901
4927 2 207.138488 263.126349 361.541966
4928 3 194.583027 216.084218 380.003062
4929 3 196.150660 230.906191 344.881831
4930 2 173.283774 268.028985 224.843944
4931 3 158.661856 286.633601 232.577670
4932 3 181.467758 268.773038 243.068914
4933 2 277.892976 158.167300 169.868955
4934 3 227.313998 164.988352 141.311001
4935 3 247.933619 151.295085 177.341091
4936 2 35.343787 35.686439 135.901464
4937 3 5.432139 34.424491 161.971940
4938 3 -5.587500 13.128276 121.955107
4939 2 -52.499278 89.250644 176.283548
4940 3 -76.022194 123.944851 138.556427
4941 3 -105.018016 36.094504 165.504236
4942 2 64.489247 439.962814 98.849924
4943 3 47.041113 504.122642 83.399734
4944 3 86.398810 515.163781 138.400021
4945 2 -70.279350 72.686740 523.787007
4946 3 -39.607267 31.308148 491.298837
4947 3 -5.221783 59.640491 481.820260
4948 2 142.981506 -31.486286 91.453486
4949 3 125.637732 6.972390 118.976593
4950 3 96.114179 -9.820835 105.655888
4951 2 104.682030 213.579586 228.723973
4952 3 123.569280 246.894423 178.655887
4953 3 83.260937 242.399823 207.937387
4954 2 38.785267 335.872644 385.852369
4955 3 92.474704 292.247631 435.405025
4956 3 82.803791 324.033920 451.330928
4957 2 -106.040891 206.150211 279.776329
4958 3 -147.136989 218.713495 368.014572
4959 3 -151.452793 184.062065 332.999770
4960 2 117.069549 89.998094 345.872578
4961 3 125.722776 57.243323 329.966566
4962 3 159.635160 51.919418 345.380360
4963 2 -173.749371 205.920078 227.928814
4964 3 -189.261224 224.734848 182.497794
4965 3 -241.450456 224.869010 205.328000
4966 2 -111.964656 183.716487 -50.612962
4967 3 -116.039208 114.888062 -77.109240
4968 3 -63.624199 181.250246 29.929401
4969 2 -70.867184 113.409788 299.602447
4970 3 -76.333231 53.599191 283.873848
4971 3 -61.884433 58.288933 208.570872
4972 2 -84.959879 117.925962 262.213462
4973 3 -67.074471 110.999589 208.025365
4974 3 -40.678321 145.920051 257.564754
4975 2 1.232236 -126.920186 175.177737
4976 3 -38.398326 -108.671639 152.519731
4977 3 -8.703546 -143.699117 146.766318
4978 2 122.394054 -107.657126 288.254102
4979 3 120.850227 -88.890463 272.625474
4980 3 112.949314 -115.531630 290.860224
4981 2 -1.873196 209.047508 275.159763
4982 3 -11.007578 239.714580 267.036983
4983 3 -18.708069 237.108398 329.795297
4984 2 135.276440 6.989018 440.997225
4985 3 124.463838 -70.971317 455.061018
4986 3 119.745526 -46.609812 426.375416
4987 2 -1.739860 96.314060 271.532394
4988 3 27.736450 79.007754 178.425222
4989 3 35.951709 124.743289 271.292171
4990 2 -117.039590 140.326061 103.989965
4991 3 -64.726601 155.260453 129.137053
4992 3 -66.876357 149.423894 116.364669
4993 2 60.199828 289.832704 65.574036
4994 3 75.707463 258.773606 52.927553
4995 3 15.657670 247.177298 59.973906
4996 2 151.882863 251.501944 71.860833
4997 3 136.374399 213.819221 138.835398
4998 3 124.225581 221.356471 109.709612
4999 2 -120.650076 145.856026 348.323151
5000 3 -82.174430 154.017914 313.901204
5001 3 -86.532676 95.617218 306.099336
5002 2 97.871891 250.200564 229.798952
5003 3 110.663199 279.885271 152.430877
5004 3 121.163723 182.591309 181.856744
5005 2 149.451632 165.194765 266.548399
5006 3 120.884602 130.218496 251.445812
5007 3 102.331973 147.632707 224.109326
5008 2 183.221488 89.439284 32.393737
5009 3 168.032529 166.040960 31.892630
5010 3 168.441994 133.982773 47.994279
5011 2 -85.906782 278.902618 220.705315
5012 3 -107.304081 218.285631 187.003741
5013 3 -64.276728 257.844928 261.391752
5014 2 -31.018143 68.129697 232.261740
5015 3 -102.656127 85.523033 265.388985
5016 3 -85.166559 124.004384 237.202613
5017 2 191.435287 168.754818 250.555627
5018 3 168.658214 188.927208 198.556144
5019 3 169.491849 128.714169 177.560500
5020 2 358.986509 -61.491112 -21.700778
5021 3 336.727794 6.812289 -34.307129
5022 3 288.741703 -9.732899 -4.498054
5023 2 92.818865 303.345238 244.757394
5024 3 93.616184 275.471406 272.041053
5025 3 90.175667 301.980623 261.822120
5026 2 127.334286 371.684663 257.698104
5027 3 102.261411 375.698259 319.287575
5028 3 112.029027 391.229405 302.137289
5029 2 -177.825414 181.748232 93.771941
5030 3 -222.963354 223.137425 106.904766
5031 3 -209.393756 241.428695 135.478089
5032 2 -102.612816 251.107940 230.597671
5033 3 -103.516064 253.686115 205.850220
5034 3 -133.509118 232.163570 275.956822
5035 2 -6.159235 342.845967 39.438806
5036 3 24.318520 310.594397 -8.431902
5037 3 12.820894 323.946738 -12.666101
5038 2 -92.651474 168.681518 86.276159
5039 3 -26.939853 158.209233 78.235544
5040 3 -78.504753 163.282234 106.146852
5041 2 -193.971494 233.524186 413.527666
5042 3 -138.686658 314.623897 376.094102
5043 3 -133.665721 269.912735 378.225350
5044 2 73.131443 4.009090 387.817588
5045 3 61.398320 86.123556 398.829245
5046 3 83.480564 7.426961 451.393332
5047 2 -25.577899 156.764765 256.292083
5048 3 -43.586786 176.605307 247.364549
5049 3 -70.900419 88.083419 279.402460
5050 2 -74.089731 130.242085 -15.938623
5051 3 -81.611745 85.073503 -1.945763
5052 3 -53.960342 117.742408 25.067911
5053 2 -304.522777 319.277320 146.171388
5054 3 -261.176382 331.778891 159.018557
5055 3 -243.972917 386.275363 116.274541
5056 2 147.461974 43.261304 278.838557
5057 3 153.959006 3.053396 281.738338
5058 3 144.709095 13.034088 284.068587
5059 2 352.176900 -150.637972 147.212001
5060 3 345.999274 -143.518596 143.656059
5061 3 343.527667 -108.490723 155.522675
5062 2 134.411918 58.404508 217.873769
5063 3 157.616772 92.481091 174.008783
5064 3 88.947190 47.592695 220.879370
5065 2 220.074315 265.664902 264.126888
5066 3 195.778909 251.159376 249.454354
5067 3 184.751271 314.788012 246.871814
5068 2 -81.951352 4.631677 297.427100
5069 3 -34.906056 11.670897 282.541763
5070 3 -66.468586 77.893360 282.213303
5071 2 -52.343945 -89.972035 189.031309
5072 3 -73.873376 -46.342612 225.876743
5073 3 -34.016699 -51.066462 259.702257
5074 2 -124.839314 -155.967727 236.823818
5075 3 -124.282686 -175.171680 195.710168
5076 3 -150.668865 -136.021288 223.336106
5077 2 145.081191 -278.227624 372.817888
5078 3 117.737922 -291.572303 380.941111
5079 3 159.176381 -294.643568 374.176857
5080 2 57.343898 -90.066735 -22.692885
5081 3 76.183749 -60.469513 83.965321
5082 3 80.518725 -59.279572 26.132515
5083 2 9.220703 -76.033583 447.715609
5084 3 31.557866 0.394251 515.886828
5085 3 11.939645 9.387460 485.344429
5086 2 29.653130 -41.827510 183.048393
5087 3 42.135423 -75.192361 209.768813
5088 3 49.290052 -30.387347 142.192911
5089 2 92.991583 -231.754894 220.793662
5090 3 11.454910 -232.930185 163.682064
5091 3 49.078432 -222.557382 206.453684
5092 2 -40.883405 -12.863794 327.790812
5093 3 -11.045256 22.292775 331.463701
5094 3 -9.001765 15.620015 380.004907
5095 2 256.668660 171.434786 211.923015
5096 3 204.182343 206.033198 193.223393
5097 3 264.536702 186.772259 193.513675
5098 2 -34.433011 -221.363754 221.578119
5099 3 -41.559050 -249.095943 203.141212
5100 3 -65.461512 -216.838215 254.570187
5101 2 262.566185 128.624494 273.800019
5102 3 274.246808 150.901507 209.160681
5103 3 302.993176 93.819098 248.556715
5104 2 122.153246 -53.188767 218.677434
5105 3 182.776071 -104.126455 234.861034
5106 3 141.522174 -34.793381 245.561668
5107 2 -305.864293 91.879670 580.729245
5108 3 -323.336051 100.827969 561.201086
5109 3 -343.503463 135.771861 636.920831
5110 2 -26.104299 -18.727934 361.310803
5111 3 -63.374972 -21.342558 343.091018
5112 3 -41.277464 37.059647 359.432602
5113 2 21.021313 -129.745735 247.443283
5114 3 17.158333 -146.013543 193.048692
5115 3 -7.587906 -117.597633 221.448384
5116 2 226.029473 118.741968 57.990851
5117 3 228.070859 135.945440 71.818828
5118 3 219.098806 179.435235 15.050378
5119 2 247.277503 -55.960470 113.194266
5120 3 275.823735 -15.551451 81.234830
5121 3 282.172976 -31.305796 121.571690
5122 2 35.912165 39.726633 217.114960
5123 3 17.639619 82.530043 202.573213
5124 3 16.269553 32.261911 177.359450
5125 2 186.899455 201.115434 298.847845
5126 3 144.924760 191.393738 226.677012
5127 3 137.186465 166.780983 200.444677
5128 2 -80.490732 178.547228 421.039916
5129 3 -99.833475 189.486893 396.232201
5130 3 -71.438429 185.581855 449.107754
5131 2 309.737486 188.815761 282.611695
5132 3 311.900029 133.268772 232.412878
5133 3 256.246770 162.208750 208.175599
5134 2 -96.180295 40.272143 95.927651
5135 3 -164.205617 -3.434608 33.838029
5136 3 -100.974905 -13.741750 26.040494
5137 2 270.203599 -237.709911 505.197966
5138 3 289.185087 -184.403585 497.143309
5139 3 267.896088 -192.399852 507.032104
5140 2 83.538271 -65.772638 307.628098
5141 3 104.091021 -69.123548 317.384096
5142 3 118.216612 -37.275309 336.999846
5143 2 12.241595 -236.328784 256.564670
5144 3 -2.249546 -266.368161 236.602692
5145 3 1.727314 -250.085681 334.727701
5146 2 -41.560547 -85.930151 76.907776
5147 3 -7.584501 -90.365643 77.445520
5148 3 -52.288759 -130.288862 90.144872
5149 2 -21.287213 91.462122 366.555151
5150 3 -76.188725 129.064407 290.017570
5151 3 -54.405101 118.851614 306.930180
5152 2 -417.281392 -3.123549 281.234882
5153 3 -343.552542 51.282461 245.716884
5154 3 -382.206958 47.180056 290.808909
5155 2 148.333669 71.517880 144.462851
5156 3 125.889917 68.684782 186.057943
5157 3 152.587823 79.247198 138.696872
5158 2 -23.874668 -74.194017 352.047521
5159 3 -31.954640 -34.419295 372.161117
5160 3 -20.253819 -1.923388 364.116055
5161 2 -198.809798 247.816061 363.935154
5162 3 -215.802897 260.524409 444.803927
5163 3 -262.151127 213.595079 416.690107
5164 2 -262.450307 27.595816 163.876877
5165 3 -252.474372 -18.926536 224.973808
5166 3 -286.070505 -29.262329 187.125559
5167 2 160.271703 162.217903 250.503206
5168 3 161.452944 153.375715 275.669658
5169 3 137.212483 168.548906 158.526044
5170 2 -71.288106 -24.245128 270.221252
5171 3 -138.783361 -2.555337 256.408274
5172 3 -65.494950 -7.494910 298.493129
5173 2 162.171610 -25.722577 235.417593
5174 3 198.500409 -10.522068 190.387031
5175 3 173.680667 -37.428774 270.463302
5176 2 49.198528 286.242152 222.447656
5177 3 48.202528 272.879760 264.886490
5178 3 42.426868 231.184687 287.600782
5179 2 122.701073 -231.767605 261.731116
5180 3 170.532460 -268.969249 264.110447
5181 3 176.848053 -265.833396 282.332723
5182 2 345.958848 -249.960397 321.191314
5183 3 343.192029 -204.882113 301.196473
5184 3 347.650373 -205.765330 366.988545
5185 2 -117.708277 14.574413 377.314831
5186 3 -112.103302 46.773568 362.262764
5187 3 -129.897917 -3.504709 404.782287
5188 2 -142.614517 379.875241 477.355903
5189 3 -157.708154 345.390739 443.842592
5190 3 -169.981357 387.578491 411.619758
5191 2 -197.411536 158.700636 293.411267
5192 3 -195.127098 184.096594 227.476913
5193 3 -199.232303 143.562004 230.981467
5194 2 -13.375617 399.554510 244.938941
5195 3 6.340120 400.592416 235.956531
5196 3 24.472461 384.378202 329.407589
5197 2 29.431548 113.630014 202.529593
5198 3 24.355657 161.605596 244.900746
5199 3 4.972053 160.605489 191.331039
5200 2 -77.193285 249.846213 214.155230
5201 3 -125.564882 210.024490 273.331806
5202 3 -84.639857 261.770537 265.009470
5203 2 146.503819 -79.492946 203.222547
5204 3 106.549768 -79.675032 287.471048
5205 3 130.728307 -101.356098 199.176896
5206 2 195.847486 -20.898840 204.906009
5207 3 194.431785 -28.239555 157.745711
5208 3 160.602904 -46.722461 137.361549
5209 2 -58.036799 -36.281227 19.717774
5210 3 -109.624472 -3.442805 -15.448704
5211 3 -99.459790 -52.892450 0.147621
5212 2 32.743641 117.242993 229.467577
5213 3 -0.563718 112.866835 209.189742
5214 3 50.270941 118.148750 258.989577
5215 2 73.024750 -89.832764 375.980033
5216 3 79.704989 -114.472454 427.411148
5217 3 64.861417 -69.524211 343.352294
5218 2 64.919557 -213.613203 129.053208
5219 3 96.484679 -230.078379 105.818734
5220 3 48.109310 -168.346462 133.286218
5221 2 193.869599 -148.246353 288.188894
5222 3 206.957826 -151.871343 341.130301
5223 3 214.743660 -197.914887 401.000606
5224 2 -118.760116 -0.405599 284.727055
5225 3 -165.627407 -51.467087 326.213190
5226 3 -118.892969 -51.237555 230.322556
5227 2 39.194931 281.120284 315.142285
5228 3 36.745195 227.313373 306.550923
5229 3 2.674738 303.613745 322.050592
5230 2 146.671379 182.768120 387.522398
5231 3 101.474359 195.164036 389.549283
5232 3 116.748788 136.253806 355.637820
5233 2 110.469418 36.678522 160.067381
5234 3 102.724011 52.976955 124.114162
5235 3 86.193467 62.938559 155.110233
5236 2 58.674516 75.245214 100.632204
5237 3 77.406488 26.879918 80.691593
5238 3 61.397738 100.921779 90.401960
5239 2 86.816693 161.191918 293.832353
5240 3 46.052034 195.165572 266.853720
5241 3 84.753756 227.393986 244.594484
5242 2 -120.358747 247.818022 230.954804
5243 3 -123.028161 248.969290 212.573050
5244 3 -106.395522 262.208086 200.310127
5245 2 234.856040 6.049264 141.951913
5246 3 194.954432 -4.364036 217.343467
5247 3 251.841030 -24.375767 157.526855
5248 2 307.908462 176.081565 51.814047
5249 3 311.946076 116.964488 20.390971
5250 3 298.837044 171.309533 28.376263
5251 2 -161.333578 119.420999 166.285049
5252 3 -169.140068 156.709376 156.675244
5253 3 -185.590234 118.426167 144.195578
5254 2 4.470549 11.820245 227.450047
5255 3 -5.269546 33.672630 238.244453
5256 3 -10.131030 44.337115 253.666052
5257 2 266.363015 174.061052 57.648387
5258 3 313.078090 252.091460 89.494771
5259 3 325.973774 228.564594 68.476183
5260 2 319.269692 94.446252 148.348664
5261 3 358.244783 85.143169 203.016921
5262 3 312.757168 106.648792 184.186495
5263 2 22.612035 66.363563 228.621141
5264 3 14.875281 -11.387568 190.610167
5265 3 45.883124 -5.318096 247.919761
5266 2 4.804229 25.852382 273.175945
5267 3 18.257780 -21.184255 246.939200
5268 3 14.449686 4.845028 296.226963
5269 2 -62.087699 141.813405 514.064167
5270 3 -86.181028 112.560765 550.186809
5271 3 -102.847536 95.967266 509.622689
5272 2 218.918181 -17.064635 110.631156
5273 3 190.401061 -37.714865 124.913656
5274 3 210.433636 -17.190268 115.343486
5275 2 56.029198 329.209397 398.347728
5276 3 80.820894 255.836883 399.068010
5277 3 49.987025 290.223272 417.502720
5278 2 -132.395025 132.255832 224.420902
5279 3 -108.813084 173.293008 223.613344
5280 3 -144.478680 192.324712 245.961997
5281 2 210.993406 59.390305 148.602864
5282 3 223.347907 -8.986209 78.308539
5283 3 219.101185 11.491147 144.491165
5284 2 97.152621 215.410015 276.209648
5285 3 101.451558 221.797502 268.038911
5286 3 54.960961 192.783775 264.450808
5287 2 217.808870 104.245679 234.411956
5288 3 197.286273 77.821512 185.090371
5289 3 215.791727 118.638845 203.002880
5290 2 93.032509 155.990320 167.950003
5291 3 80.889243 125.014929 193.474373
5292 3 95.335280 137.129672 190.819410
5293 2 -116.668394 113.317292 373.710324
5294 3 -161.520920 154.926005 311.973866
5295 3 -124.874564 108.358841 345.607685
5296 2 -49.672146 137.545539 401.787868
5297 3 -67.376640 157.847736 353.546244
5298 3 -67.194394 144.789438 323.920176
5299 2 171.881309 135.629108 499.230199
5300 3 145.779557 218.527440 396.442920
5301 3 205.973911 215.059967 454.023957
5302 2 -202.804865 247.453758 1.612136
5303 3 -182.373560 224.301206 106.278283
5304 3 -189.392437 225.368334 96.253864
5305 2 -124.337003 -50.717022 149.813777
5306 3 -124.672863 -106.925724 219.739626
5307 3 -128.507149 -12.776898 186.474472
5308 2 102.255335 -77.023930 446.120236
5309 3 170.757480 -16.514145 431.434436
5310 3 109.902610 -6.603185 391.348067
5311 2 97.724507 222.368453 144.957560
5312 3 140.221565 223.258573 110.593588
5313 3 88.481633 232.558501 177.993027
5314 2 63.612142 147.911037 325.362270
5315 3 44.566472 172.715838 261.245411
5316 3 85.298724 163.293287 279.849121
5317 2 -36.317924 -75.652169 100.749944
5318 3 -20.111337 -82.343817 112.758353
5319 3 -50.435540 -71.828291 107.589241
5320 2 98.022479 210.381958 353.059561
5321 3 69.002642 225.587793 376.738473
5322 3 58.625222 209.871641 386.538035
5323 2 -13.464044 99.348516 414.550445
5324 3 -67.639239 108.197759 427.780404
5325 3 -58.980626 160.094154 400.312283
5326 2 -3.446214 272.431158 209.539218
5327 3 -13.304785 273.297087 236.551766
5328 3 -18.776024 283.797242 176.710374
5329 2 -20.231064 63.248240 203.416789
5330 3 12.103396 94.258008 295.796060
5331 3 -44.567466 60.197523 250.566126
5332 2 5.144664 247.326422 373.469713
5333 3 -37.708901 200.140307 393.643757
5334 3 -5.977190 257.715965 386.353924
5335 2 118.082890 69.743609 148.287524
5336 3 102.063649 76.964093 122.316576
5337 3 84.185864 35.728389 135.042979
5338 2 19.757932 91.978004 261.032405
5339 3 17.362160 66.682975 296.998706
5340 3 8.982583 70.896937 318.371466
5341 2 203.499469 158.228679 385.141314
5342 3 168.487733 182.603154 383.980405
5343 3 160.003508 182.760457 372.687471
5344 2 130.949210 234.237997 149.189583
5345 3 159.973953 182.987244 139.719965
5346 3 163.373938 251.494798 187.193591
5347 2 -147.678654 195.748352 270.169181
5348 3 -94.177769 158.768127 276.806321
5349 3 -102.908521 147.063923 336.831492
5350 2 -69.778820 175.333240 271.793911
5351 3 -78.864825 155.561818 347.364843
5352 3 -22.530301 203.187717 279.344983
5353 2 -122.576432 -5.624506 350.669436
5354 3 -125.813393 3.880226 418.485533
5355 3 -113.969117 41.588228 355.259634
5356 2 -61.586085 55.351617 304.898885
5357 3 -73.424193 102.570821 260.117347
5358 3 -55.942396 68.491969 286.280082
5359 2 116.776876 224.549553 230.021996
5360 3 166.419083 188.091824 307.477753
5361 3 130.422988 188.141694 302.214030
5362 2 62.265784 308.463821 232.406789
5363 3 127.891481 250.983524 230.568499
5364 3 72.313917 259.141656 239.995152
5365 2 -89.022426 388.810099 229.253574
5366 3 -113.754277 386.160570 244.548779
5367 3 -149.752430 381.072092 214.707583
5368 2 55.143490 112.123543 354.790849
5369 3 35.083320 61.473231 363.849317
5370 3 48.558426 59.928825 331.321180
5371 2 -241.034877 139.831640 327.046876
5372 3 -210.658659 130.964365 275.675692
5373 3 -196.292760 161.712133 325.235654
5374 2 -21.136218 313.489080 321.887663
5375 3 -35.063725 350.699497 214.360838
5376 3 -89.790368 284.953649 278.511759
5377 2 -58.012611 24.240091 227.285163
5378 3 -75.596041 82.584022 193.414977
5379 3 -39.963907 59.566560 284.492682
5380 2 13.980796 22.911226 284.325712
5381 3 -35.542371 63.221697 184.292408
5382 3 7.969818 76.457243 303.291924
5383 2 326.904617 244.794939 -123.265247
5384 3 310.817414 247.441138 -1.735460
5385 3 306.657560 248.333523 -43.735009
5386 2 -167.009670 350.938296 384.228175
5387 3 -147.597209 342.649680 319.324645
5388 3 -155.307502 340.776482 322.634460
5389 2 12.707694 -4.437403 248.143839
5390 3 26.471219 62.054779 243.015792
5391 3 -15.946143 88.332571 231.653128
5392 2 -157.504493 320.295338 116.799087
5393 3 -191.532795 279.261926 114.318345
5394 3 -194.771025 377.694582 163.596042
5395 2 -34.342693 321.947314 594.704543
5396 3 -33.582972 342.539510 516.674975
5397 3 -81.628446 335.061344 535.862368
5398 2 -54.727655 97.970286 236.433841
5399 3 -30.771986 133.580467 254.001597
5400 3 -11.441653 86.218066 275.766954
5401 2 304.592139 8.595946 200.671726
5402 3 299.109355 42.777475 202.760000
5403 3 300.198329 62.382983 245.577592
5404 2 -200.594920 -15.828451 128.702330
5405 3 -191.664526 -1.000936 168.208918
5406 3 -276.657952 -21.892926 101.993600
5407 2 50.861407 119.643962 287.432705
5408 3 83.622149 90.976163 258.429143
5409 3 90.610442 142.482773 267.174965
5410 2 -79.676595 130.649226 213.080048
5411 3 -71.787200 170.129179 222.084157
5412 3 -126.326710 166.285597 166.900146
5413 2 -1.273925 -11.677725 172.018793
5414 3 22.864516 35.749099 261.957039
5415 3 22.537774 18.536578 219.747154
5416 2 -74.923914 101.733148 255.802725
5417 3 -50.406157 123.325710 222.484024
5418 3 -75.295813 57.103945 242.893549
5419 2 41.841380 80.525400 143.314905
5420 3 53.824269 127.674257 124.378547
5421 3 72.649635 128.668511 137.819945
5422 2 45.893887 100.763465 215.560735
5423 3 69.740242 85.897073 167.846729
5424 3 38.617677 60.124246 195.366099
5425 2 -42.292087 29.249723 246.169412
5426 3 -88.496365 51.752129 229.414916
5427 3 -76.798301 -14.116661 274.973253
5428 2 -37.982544 207.261036 309.544291
5429 3 -39.734419 219.304166 266.823681
5430 3 -37.487696 192.224957 267.499364
5431 2 -234.290566 154.693987 224.593425
5432 3 -212.031925 240.711038 139.376624
5433 3 -205.636194 185.690627 234.704656
5434 2 -179.382793 -19.832784 147.593638
5435 3 -180.324593 -44.284347 154.118379
5436 3 -191.163879 -37.026529 187.176708
5437 2 41.564896 191.635821 205.718530
5438 3 44.970531 153.609055 143.997166
5439 3 4.221418 174.434850 158.174981
5440 2 -160.758672 214.895791 168.494698
5441 3 -171.117882 196.864346 244.017739
5442 3 -188.097337 204.414185 191.503858
5443 2 39.572607 -51.689959 361.546689
5444 3 71.729083 -68.656267 405.147447
5445 3 53.185378 -41.372765 348.761897
5446 2 153.264608 430.198106 440.127411
5447 3 129.736910 408.589839 375.821902
5448 3 139.731530 419.120995 363.626051
5449 2 -233.603120 185.575409 97.617598
5450 3 -208.139994 198.101960 82.341154
5451 3 -209.492825 213.689179 66.080863
5452 2 41.475927 136.278954 244.095402
5453 3 58.221876 148.139618 186.430760
5454 3 80.022460 176.301069 235.392776
5455 2 -148.334917 2.664425 173.554871
5456 3 -132.010666 33.003261 167.615501
5457 3 -156.260321 23.865735 190.859284
5458 2 -3.372730 47.496890 469.380810
5459 3 -39.947163 90.458685 514.159636
5460 3 -47.767168 107.795705 459.099990
5461 2 141.670470 124.644963 182.318572
5462 3 131.535677 153.490067 165.742863
5463 3 129.323279 195.685908 194.292283
5464 2 54.042526 253.538269 77.352467
5465 3 62.064540 204.899263 110.424939
5466 3 51.745378 165.634716 73.108857
5467 2 -125.894468 291.452356 369.990641
5468 3 -154.452224 273.893901 298.075346
5469 3 -132.931772 252.259437 369.987024
5470 2 -205.510822 165.302138 433.575352
5471 3 -190.753280 215.564445 459.155788
5472 3 -200.802598 169.021319 401.609181
5473 2 10.756190 38.897518 442.377562
5474 3 -26.139601 103.972656 355.745615
5475 3 -43.399407 4.346775 396.814759
5476 2 153.404881 98.196297 321.706965
5477 3 102.988736 89.664976 319.738702
5478 3 119.917289 104.215271 303.185550
5479 2 94.857281 160.014818 492.506502
5480 3 50.874604 174.088739 470.959244
5481 3 86.154520 197.628544 519.328812
5482 2 123.063888 106.420751 123.944480
5483 3 151.995058 66.610595 252.254532
5484 3 133.695039 96.179936 187.125172
5485 2 114.487835 179.732813 125.975867
5486 3 118.539900 217.918433 208.672836
5487 3 127.028130 256.307501 186.260487
5488 2 159.077928 232.151041 187.027728
5489 3 169.691097 259.212462 202.637831
5490 3 144.286947 287.801503 244.826422
5491 2 196.612581 149.522494 223.211705
5492 3 241.043625 167.785347 218.312034
5493 3 208.543639 165.146537 167.526195
5494 2 12.707857 236.038123 350.652645
5495 3 15.558215 169.790777 391.595173
5496 3 36.496373 193.711343 318.387703
5497 2 220.178093 423.561923 -205.546905
5498 3 218.727351 389.010157 -215.007786
5499 3 250.738177 441.030854 -136.241145
5500 2 -220.887383 178.387827 180.003139
5501 3 -202.717110 152.607534 164.526147
5502 3 -248.257748 193.286003 143.764389
5503 2 -18.448070 292.308965 123.410182
5504 3 -49.875887 281.242040 153.119283
5505 3 -28.245300 248.317392 100.841631
5506 2 -11.963204 42.660955 214.507566
5507 3 -19.857991 83.279747 308.838826
5508 3 -2.271164 47.638406 276.650829
5509 2 202.126314 168.879767 266.319580
5510 3 199.459341 158.534574 286.250725
5511 3 227.242635 154.364298 335.322326
5512 2 12.547798 274.202138 415.085840
5513 3 21.070863 249.991414 416.441931
5514 3 52.838022 257.062500 386.542980
5515 2 -123.589164 299.149889 489.959647
5516 3 -100.739951 310.107708 472.356298
5517 3 -109.819110 283.578179 445.470551
5518 2 -32.159253 313.752266 365.451886
5519 3 -34.078177 330.320435 391.093950
5520 3 -63.783785 352.021844 396.748591
5521 2 -129.600598 445.787606 300.237832
5522 3 -133.918201 437.926748 248.720677
5523 3 -95.121443 427.941912 244.089940
5524 2 150.313479 76.937413 282.855922
5525 3 107.696535 151.913215 239.513950
5526 3 159.595275 129.332147 245.229223
5527 2 48.119987 401.678306 54.375568
5528 3 81.373781 393.651903 61.165855
5529 3 38.892206 409.545702 35.434344
5530 2 255.638501 212.917835 267.594003
5531 3 214.571774 294.012848 272.916071
5532 3 225.731278 240.753352 264.951440
5533 2 279.573433 340.482097 252.482097
5534 3 243.705828 331.229560 374.945703
5535 3 188.552624 289.427540 339.686084
5536 2 393.429626 225.452460 -24.579556
5537 3 347.672953 161.084211 14.633765
5538 3 370.578441 195.202442 -4.309602
5539 2 273.486496 159.566854 331.326974
5540 3 289.358625 189.407147 415.737629
5541 3 278.014526 168.805737 400.793836
