ITEM: TIMESTEP
601000
ITEM: NUMBER OF ATOMS
5541
ITEM: BOX BOUNDS pp pp pp
-19.1 19.1
-19.1 19.1
-19.1 19.1
ITEM: ATOMS id type xu yu zu
1 1 44.666039 -1722.738597 -2079.598256
2 1 112.044828 -1762.896639 -2008.172079
3 1 49.544217 -1725.001846 -2115.787399
4 1 66.751558 -1706.046361 -2072.645646
5 1 57.148930 -1672.849814 -2119.224881
6 1 145.413057 -1735.018550 -2087.428724
7 1 121.302498 -1677.342011 -2059.506101
8 1 136.013864 -1718.079762 -2132.090898
9 1 123.536766 -1674.131961 -2092.791238
10 1 113.617157 -1625.756917 -2133.552127
11 1 33.341746 -1808.587458 -2097.732314
12 1 15.698974 -1740.000447 -2095.818206
13 1 64.217469 -1711.758793 -2091.245278
14 1 83.604734 -1669.803727 -2149.911425
15 1 145.677049 -1653.779993 -2043.728401
16 1 145.919620 -1713.430656 -2203.711630
17 1 31.126642 -1718.511806 -2127.551627
18 1 57.634250 -1692.005996 -2069.434604
19 1 79.472210 -1686.866826 -2104.308508
20 1 53.867121 -1783.669218 -2162.604291
21 1 29.888892 -1608.778475 -2079.751184
22 1 109.031050 -1663.212488 -2181.033872
23 1 159.272234 -1760.124594 -2082.435835
24 1 82.017208 -1682.649401 -2172.475668
25 1 38.217633 -1726.000099 -2171.187442
26 1 118.113888 -1763.119959 -2115.017593
27 1 31.105047 -1783.647324 -2198.229254
28 1 45.101757 -1733.691034 -2116.812429
29 1 30.501257 -1667.466525 -2228.578501
30 1 65.620383 -1658.313181 -2198.457317
31 1 166.185276 -1776.906717 -2285.734853
32 1 74.477199 -1584.855690 -2135.521147
33 1 55.171234 -1699.668712 -2182.579388
34 1 52.482919 -1710.413518 -2244.789151
35 1 87.401755 -1720.180629 -2128.955729
36 1 -4.294229 -1651.623783 -2113.650984
37 1 81.769590 -1826.599791 -2056.628665
38 1 64.907944 -1763.299370 -2080.754957
39 1 177.083007 -1803.595223 -2121.374285
40 1 45.962883 -1786.127690 -2159.998760
41 1 83.362015 -1752.219826 -2186.224268
42 1 57.243482 -1723.731620 -2062.165658
43 1 63.043522 -1717.578628 -2163.423695
44 1 116.693750 -1698.827489 -2048.193571
45 1 57.421244 -1745.121614 -2184.654838
46 1 93.434326 -1761.139997 -2122.289638
47 1 25.836575 -1702.450123 -2163.754350
48 1 88.827908 -1845.116176 -2100.722379
49 1 123.295810 -1804.002333 -2064.777389
50 1 106.187612 -1638.904243 -2146.988967
51 1 101.692779 -1782.803425 -2045.298569
52 1 122.494208 -1715.893872 -2138.193104
53 1 45.683290 -1759.019668 -2085.916273
54 1 95.810728 -1714.076413 -2073.889735
55 1 151.572442 -1755.194635 -1999.050285
56 1 136.547493 -1699.386277 -2128.771064
57 1 85.693036 -1713.570414 -2170.867711
58 1 121.456962 -1744.364441 -2158.707287
59 1 70.186452 -1722.494356 -2093.757222
60 1 98.158542 -1693.997757 -2118.144200
61 1 254.748010 -1802.437508 -2102.369158
62 1 252.346237 -1748.439797 -2068.695944
63 1 262.835908 -1682.888169 -2066.675112
64 1 195.449668 -1733.904137 -2018.595088
65 1 286.161141 -1688.175124 -2096.032689
66 1 217.915680 -1824.551470 -2106.065702
67 1 272.410216 -1676.886491 -2001.019600
68 1 259.513669 -1681.805016 -1927.627798
69 1 216.260168 -1760.341954 -2140.285677
70 1 232.587280 -1715.257360 -1981.799991
71 1 264.972765 -1772.504043 -2058.736590
72 1 305.726865 -1690.541762 -2061.606497
73 1 334.077842 -1651.196968 -1993.809553
74 1 266.912099 -1748.025633 -2016.156065
75 1 216.479556 -1626.806012 -2069.090516
76 1 285.365332 -1637.018182 -1983.954266
77 1 251.907856 -1659.363493 -1957.686688
78 1 244.111867 -1648.091037 -1975.495701
79 1 199.732836 -1782.862418 -2038.708942
80 1 206.345563 -1718.930350 -2086.920195
81 1 260.880970 -1722.837364 -2003.269087
82 1 175.963922 -1736.391679 -2156.338529
83 1 200.737679 -1678.806853 -1921.815506
84 1 222.156695 -1727.388311 -2097.823982
85 1 263.634206 -1766.114595 -2013.883256
86 1 187.426021 -1657.574983 -2070.019302
87 1 226.418281 -1762.227893 -1997.434800
88 1 236.553531 -1731.111292 -2072.142579
89 1 273.631267 -1687.946695 -2140.964110
90 1 264.302919 -1695.451287 -2034.664915
91 1 250.397215 -1678.538284 -2016.751982
92 1 251.643951 -1692.372237 -2172.640847
93 1 291.415196 -1710.337862 -2144.644417
94 1 226.427747 -1762.002262 -2057.490730
95 1 231.471190 -1646.205219 -2001.764607
96 1 313.259639 -1781.876572 -1983.078326
97 1 177.512945 -1696.857135 -2015.155244
98 1 227.003503 -1727.648000 -1958.613408
99 1 215.942266 -1758.622897 -2059.038017
100 1 231.689591 -1694.443425 -1973.254629
101 1 273.869610 -1720.945587 -2037.547665
102 1 236.042038 -1684.624863 -2096.449107
103 1 267.707144 -1666.762506 -2012.829589
104 1 224.461519 -1640.348772 -2061.887849
105 1 270.320343 -1724.993210 -2109.857605
106 1 239.929211 -1740.448061 -2026.840794
107 1 297.765817 -1646.574257 -2023.423387
108 1 298.995865 -1577.661023 -2007.654102
109 1 152.004573 -1693.882569 -1995.850018
110 1 312.896491 -1759.258558 -2094.415432
111 1 244.969992 -1682.301162 -1974.180905
112 1 239.441826 -1773.155395 -2009.012001
113 1 249.352463 -1737.787554 -2133.355653
114 1 187.935283 -1614.053024 -2018.404223
115 1 281.025876 -1799.084173 -2125.977769
116 1 225.673202 -1692.320177 -1988.674217
117 1 196.627495 -1710.443684 -2002.617077
118 1 239.569293 -1661.712737 -2049.123980
119 1 203.599561 -1666.856164 -2072.976449
120 1 232.884710 -1780.207385 -1965.388585
121 1 131.194086 -1614.843403 -1994.405174
122 1 197.854067 -1615.190791 -2043.503143
123 1 152.207272 -1626.036554 -2174.908933
124 1 93.985500 -1597.502127 -2022.674690
125 1 163.311092 -1646.000873 -1987.690076
126 1 109.926946 -1513.706574 -2142.122140
127 1 166.381208 -1652.106914 -2067.160023
128 1 73.655119 -1602.903905 -2099.326543
129 1 182.775615 -1722.404590 -2125.059316
130 1 148.248342 -1719.351205 -2049.742777
131 1 152.835324 -1604.739001 -1989.692309
132 1 136.283390 -1663.185728 -2043.391251
133 1 150.900772 -1597.898290 -2115.574392
134 1 164.657194 -1650.358908 -2119.235509
135 1 89.043511 -1584.968567 -2065.432204
136 1 157.099314 -1603.109953 -2009.760255
137 1 137.885497 -1675.156243 -2095.274987
138 1 142.689500 -1578.828955 -2120.365050
139 1 181.976885 -1619.122132 -2112.155952
140 1 156.059455 -1655.668122 -2166.145398
141 1 161.447447 -1652.982072 -2077.101959
142 1 181.009128 -1677.553412 -2148.305977
143 1 114.291268 -1642.456694 -2045.146379
144 1 139.379524 -1654.062793 -2204.204070
145 1 154.652677 -1557.039513 -2104.628387
146 1 204.107998 -1647.595985 -2115.970144
147 1 182.193462 -1577.426998 -2198.453037
148 1 171.576090 -1565.745973 -2126.692957
149 1 159.635702 -1562.372446 -2098.696084
150 1 155.724026 -1513.068967 -1977.285371
151 1 137.386637 -1658.702775 -2050.930183
152 1 130.886906 -1691.991521 -2223.340425
153 1 87.450205 -1637.491096 -2091.985562
154 1 120.876301 -1566.727075 -2064.672583
155 1 187.308563 -1673.810603 -2099.849391
156 1 167.791388 -1603.341910 -2018.095120
157 1 138.098105 -1689.049188 -2124.958643
158 1 100.676628 -1554.842312 -2070.130160
159 1 136.768692 -1702.644981 -2081.227912
160 1 144.986250 -1629.646537 -2034.619598
161 1 107.630447 -1651.363485 -2125.227448
162 1 126.553563 -1684.582413 -2105.499308
163 1 74.919172 -1609.102509 -2045.925780
164 1 130.722193 -1690.061794 -2092.388990
165 1 224.060915 -1608.313467 -2068.112279
166 1 197.126354 -1693.232313 -2026.674876
167 1 142.548636 -1682.044757 -2166.729063
168 1 139.594314 -1708.334302 -2083.417910
169 1 190.768054 -1701.499551 -2052.404697
170 1 149.537354 -1636.813715 -2071.426652
171 1 136.187057 -1604.179605 -2136.447424
172 1 107.374664 -1627.058038 -2088.180521
173 1 213.416823 -1640.390493 -2142.297948
174 1 99.828838 -1647.946049 -2066.794974
175 1 210.916103 -1668.713641 -1986.921303
176 1 203.922122 -1617.829403 -2091.006587
177 1 165.130959 -1643.268603 -2094.611463
178 1 149.132313 -1598.331794 -2078.754200
179 1 100.566133 -1604.374828 -2070.841806
180 1 187.582045 -1681.589967 -2063.113634
181 2 -154.212414 20.400663 366.459571
182 3 -201.118442 31.994831 325.518741
183 3 -128.602928 -21.478416 236.606014
184 2 -184.648175 -160.458586 236.581085
185 3 -209.888413 -162.177020 168.289035
186 3 -174.412845 -149.575299 224.387153
187 2 -289.616618 359.915391 51.590426
188 3 -277.726763 276.846664 33.556665
189 3 -237.274431 315.131051 121.698582
190 2 -47.080591 374.679420 -328.383014
191 3 22.616850 268.469378 -330.788418
192 3 0.163052 295.648829 -350.575602
193 2 -278.902161 53.360727 126.767040
194 3 -285.868275 -89.929752 262.240568
195 3 -277.896406 -58.478079 230.521115
196 2 -261.549143 -297.674451 -171.824776
197 3 -234.612277 -299.215800 -183.738407
198 3 -261.322459 -304.120885 -129.852512
199 2 -30.460490 158.855978 61.740843
200 3 -83.437208 206.685781 116.643557
201 3 -118.013337 93.185254 95.362950
202 2 117.371046 111.167665 75.942890
203 3 190.834068 74.021585 149.640248
204 3 170.287707 113.293482 78.733865
205 2 -95.295547 88.913580 -223.189741
206 3 -62.122394 83.386116 -173.242975
207 3 -98.979553 115.561103 -112.250851
208 2 117.070455 163.108403 16.462199
209 3 107.116995 202.447876 9.824819
210 3 141.677471 144.134589 -24.972070
211 2 202.169415 40.289855 -32.251847
212 3 103.841191 -73.225915 5.793755
213 3 158.443332 -67.515840 28.686222
214 2 541.890541 275.085400 136.255654
215 3 501.846985 212.014594 211.590810
216 3 503.682591 282.211618 183.355540
217 2 347.610464 76.263491 281.215360
218 3 363.554252 16.549572 273.896780
219 3 395.147921 71.330001 246.382105
220 2 -349.975216 -39.349120 12.215040
221 3 -321.758607 -54.927574 -29.702183
222 3 -351.275468 -137.976422 -17.747067
223 2 -218.036975 -250.478407 -97.847814
224 3 -246.294774 -246.868393 -140.508364
225 3 -258.449102 -302.495334 -87.714921
226 2 -16.687922 -159.160094 202.944295
227 3 138.406332 -189.882266 277.394987
228 3 63.060145 -81.312085 252.512690
229 2 65.299538 -57.285880 75.160463
230 3 53.303329 -26.232012 40.979958
231 3 64.814122 14.944000 -25.677793
232 2 101.836509 353.469444 210.488319
233 3 52.350258 353.063277 53.275326
234 3 124.530011 430.900696 -36.704672
235 2 -88.120289 97.552031 43.570815
236 3 -81.743569 114.221848 63.450566
237 3 -147.786967 78.109640 69.478956
238 2 -178.401873 15.541009 104.838126
239 3 -209.647629 -14.286789 -0.957330
240 3 -149.275978 -9.094416 115.528234
241 2 -148.961367 -196.882151 -136.363719
242 3 -192.236436 -176.838587 -129.821412
243 3 -182.472925 -218.884833 -177.986230
244 2 -59.666748 -95.947683 -91.980840
245 3 -89.852388 -200.066475 -106.853325
246 3 -135.522378 -212.735734 -198.043881
247 2 101.471124 57.145407 24.920586
248 3 121.598824 44.805719 -17.457795
249 3 70.703737 51.686355 -129.737936
250 2 485.279990 -258.471938 -193.082674
251 3 456.420601 -231.498763 -383.363835
252 3 497.279242 -247.000732 -160.912408
253 2 -186.037241 -404.548556 -220.427444
254 3 -271.755681 -270.322552 -193.896930
255 3 -159.939101 -386.733940 -219.877915
256 2 -166.693851 23.856535 243.868686
257 3 -94.251720 83.411975 150.998534
258 3 -159.436975 30.122603 185.824695
259 2 -292.439688 393.950698 -41.943439
260 3 -376.259738 354.142051 27.970919
261 3 -249.434083 368.630122 -63.631769
262 2 320.135557 331.693716 -355.398329
263 3 282.836709 305.760742 -313.168314
264 3 303.940288 343.644740 -360.999350
265 2 -253.777459 -145.980519 -423.711737
266 3 -372.655648 -189.085637 -327.892088
267 3 -337.190261 -124.845561 -255.443925
268 2 -601.333682 340.428273 30.266687
269 3 -647.547296 374.288761 -127.738378
270 3 -603.921417 335.691348 11.736187
271 2 -233.241649 -27.033510 91.577104
272 3 -256.067961 -51.866374 259.258862
273 3 -236.104751 40.000673 171.898238
274 2 -193.875728 -146.703149 2.160392
275 3 -209.987778 -166.060270 1.275007
276 3 -109.604283 -116.024081 -35.292109
277 2 -45.723637 146.273505 -340.633371
278 3 -90.136865 222.417669 -333.981894
279 3 -45.968796 239.351136 -294.445240
280 2 -340.374483 546.885755 34.417839
281 3 -306.243168 596.119903 -39.097939
282 3 -308.616569 592.982164 87.928672
283 2 -54.794353 41.422068 -225.791859
284 3 -42.485474 101.961608 -261.741553
285 3 -30.083294 59.251547 -142.774586
286 2 -189.853175 -85.671397 358.061639
287 3 -128.166606 -134.832921 408.784650
288 3 -166.124910 -42.273262 330.250722
289 2 -58.103736 -9.635457 286.992078
290 3 -30.558105 31.020300 391.923613
291 3 -74.746771 60.691430 190.889471
292 2 196.575347 -164.210638 340.901573
293 3 187.409506 -165.434963 405.351449
294 3 227.887018 -145.771035 319.775513
295 2 223.639766 186.339317 -428.035493
296 3 152.536390 76.810472 -376.756125
297 3 225.011047 183.199450 -495.035138
298 2 -96.692995 141.000682 186.765917
299 3 -119.280754 204.668827 243.832723
300 3 -145.442148 217.331973 237.842943
301 2 -362.433038 -13.491476 -19.936267
302 3 -399.038623 34.248294 -57.311745
303 3 -403.989183 0.791196 4.172823
304 2 -370.521478 -10.739634 -28.023385
305 3 -397.940207 -56.196417 -6.584600
306 3 -454.422824 1.551318 -46.489178
307 2 -257.264336 227.665276 244.624136
308 3 -223.492225 226.887942 202.297267
309 3 -203.655250 258.090903 249.189757
310 2 -74.603461 103.827310 4.127354
311 3 -34.596060 101.325704 -64.397866
312 3 -128.110046 -15.024554 -66.659577
313 2 -152.112902 -235.755521 73.546966
314 3 -147.029329 -188.344200 66.213227
315 3 -109.054410 -222.540034 66.666092
316 2 230.840981 -284.293799 143.509607
317 3 191.666618 -229.197747 53.487881
318 3 188.651410 -210.951101 57.126005
319 2 -73.671706 72.548617 184.219801
320 3 -121.038971 135.425142 165.026448
321 3 -80.552912 41.161704 158.551184
322 2 -91.935495 -85.111697 94.752571
323 3 -109.630264 -148.171593 7.708252
324 3 -149.647815 -96.151527 94.662522
325 2 -227.284297 69.868637 87.077356
326 3 -194.257289 21.639710 150.795464
327 3 -173.753746 -19.053272 218.295114
328 2 -199.559732 134.001010 -245.904089
329 3 -247.423928 198.253334 -202.046059
330 3 -201.244652 183.316143 -270.611795
331 2 4.054787 -71.855811 -194.893803
332 3 -14.260669 -172.670728 -289.677167
333 3 -57.201765 -123.790673 -240.815786
334 2 58.412234 242.826532 -53.294099
335 3 100.249186 267.249553 -53.143764
336 3 207.839763 257.088211 -74.382610
337 2 -620.978311 285.914986 120.171767
338 3 -556.742892 254.203958 159.828108
339 3 -564.236127 306.248891 207.295359
340 2 -210.267287 232.180674 246.543078
341 3 -176.092551 182.742029 292.495747
342 3 -216.776779 170.534936 356.365999
343 2 -14.773111 68.863478 196.003071
344 3 -25.667749 49.670288 166.668042
345 3 -63.783920 103.906099 165.119435
346 2 141.082475 72.106404 9.294409
347 3 109.942038 102.530073 72.676174
348 3 96.244462 58.998711 74.924724
349 2 55.910575 -261.767497 148.199565
350 3 116.746378 -277.994330 173.337159
351 3 149.430766 -258.261572 166.758400
352 2 387.140482 23.161821 -56.677753
353 3 384.661948 79.969854 -55.731120
354 3 410.294075 121.702919 -32.311436
355 2 -265.725685 340.857460 296.017646
356 3 -274.954175 287.131481 286.928401
357 3 -272.771518 350.066330 320.013097
358 2 70.775667 -226.345864 -86.306086
359 3 48.497808 -253.051033 -222.393549
360 3 -14.980087 -219.319903 -180.511220
361 2 166.559553 249.726631 2.011386
362 3 149.523217 197.332851 -5.501184
363 3 140.280910 212.061834 0.511058
364 2 -145.418471 258.807709 453.086905
365 3 -157.854970 270.941457 376.204701
366 3 -204.264851 238.179312 348.356549
367 2 229.477230 114.615700 28.510858
368 3 202.240901 138.110059 -21.531682
369 3 170.362743 166.660230 -34.371414
370 2 496.650266 -220.821402 76.655606
371 3 408.849644 -130.591762 101.713779
372 3 464.868688 -191.417290 -40.088141
373 2 386.583706 214.427286 28.757674
374 3 287.608087 273.630502 -8.630334
375 3 378.147969 156.566836 2.454717
376 2 -266.363733 379.629661 57.437740
377 3 -302.844538 346.050879 3.883282
378 3 -277.016613 342.646731 -13.961004
379 2 54.558795 -40.861031 20.380348
380 3 0.961660 12.669856 94.056614
381 3 6.260579 85.168902 -3.291577
382 2 17.600854 161.703862 170.988670
383 3 79.853722 90.875222 151.770047
384 3 75.703217 136.732452 177.379212
385 2 82.982401 255.128394 85.399877
386 3 62.445713 331.577890 114.051118
387 3 26.101733 165.681835 115.712926
388 2 -292.475727 68.915424 296.298851
389 3 -255.113724 92.239236 305.768828
390 3 -238.290539 60.607860 254.941140
391 2 -50.685722 -31.653100 -88.648809
392 3 -14.365097 18.484795 -138.089398
393 3 58.730857 -4.886292 -158.531490
394 2 -92.319164 407.952262 77.858391
395 3 -210.770152 377.349232 72.416143
396 3 -145.449518 368.669410 196.508427
397 2 197.112846 374.828757 -178.246326
398 3 224.525893 433.760348 -183.724532
399 3 213.205040 286.360867 -147.205730
400 2 -30.392208 178.387218 332.880683
401 3 -6.699053 194.406285 319.596974
402 3 -11.407072 214.538079 383.175467
403 2 -155.671820 42.345698 156.260384
404 3 -216.292229 150.584680 77.641855
405 3 -217.763381 83.313782 101.945653
406 2 163.257010 116.833139 -17.579754
407 3 91.570379 47.026403 -37.404273
408 3 66.696890 157.265290 -48.262674
409 2 190.622075 97.583451 -41.444306
410 3 198.646622 28.076443 -63.538265
411 3 239.161405 45.444422 -72.309375
412 2 251.519516 -78.515979 -365.616857
413 3 260.641172 -10.523275 -301.649789
414 3 199.313399 -12.267961 -349.526770
415 2 -616.139564 36.813769 202.404583
416 3 -527.403464 98.767484 209.861865
417 3 -583.091307 1.951819 220.543549
418 2 -435.097070 515.133372 77.786194
419 3 -375.397841 526.738224 27.650810
420 3 -409.002356 518.264937 143.461448
421 2 -235.101437 428.586270 117.812252
422 3 -253.825699 391.510806 121.355638
423 3 -165.753875 428.331446 190.107967
424 2 242.775848 -116.634168 226.530727
425 3 255.221837 -118.751395 276.748863
426 3 246.566219 -115.309951 188.335236
427 2 -464.374675 579.871328 331.221541
428 3 -456.748871 525.380603 315.700782
429 3 -476.678655 553.853939 366.704610
430 2 150.868763 111.212168 29.368781
431 3 195.803609 134.570137 90.148599
432 3 163.012479 150.681577 -5.674947
433 2 63.373200 -113.006852 77.160616
434 3 19.184930 -139.776974 124.224411
435 3 32.445092 -71.598296 142.533585
436 2 -267.563140 361.803216 299.003799
437 3 -273.750996 363.637735 347.395546
438 3 -249.423114 320.758157 297.042935
439 2 -46.956384 104.977484 -344.436862
440 3 -120.315030 116.411030 -401.025418
441 3 -96.286414 78.510863 -312.198971
442 2 -178.036150 343.187152 80.679756
443 3 -109.723911 439.793864 128.492645
444 3 -119.759549 372.894741 103.650297
445 2 124.674795 248.583375 37.422277
446 3 140.155095 194.553462 -20.209076
447 3 114.846145 213.007662 55.659005
448 2 168.374428 421.408449 -387.949051
449 3 240.553109 495.408064 -372.871262
450 3 252.330461 499.545362 -332.574065
451 2 231.719837 305.419954 -135.328596
452 3 300.219972 378.547816 -124.188082
453 3 312.240079 343.268373 -135.898662
454 2 -134.574194 -30.967166 -69.476869
455 3 -121.028076 28.432596 -157.538086
456 3 -120.909915 30.530310 -149.405803
457 2 169.859557 384.305739 -29.757663
458 3 191.731497 438.408359 78.417865
459 3 177.477202 318.553596 142.561696
460 2 -372.322155 154.454033 -265.446180
461 3 -372.848240 167.047088 -355.058449
462 3 -410.846343 156.575366 -259.441288
463 2 -323.586769 260.582110 345.163774
464 3 -305.247840 293.872513 219.873991
465 3 -356.146137 218.683360 352.383933
466 2 -90.503463 -192.234703 -212.635817
467 3 -136.983399 -190.286426 -94.470807
468 3 -118.624700 -207.432829 -131.971148
469 2 -36.355565 63.473833 51.712772
470 3 -43.452498 91.370798 120.284008
471 3 -63.324932 -9.628263 68.418475
472 2 -136.547718 301.109843 241.901123
473 3 -73.396350 343.193203 163.549304
474 3 -222.229762 133.030217 189.437062
475 2 25.292591 106.544856 285.989984
476 3 23.928443 115.063672 322.115044
477 3 73.907137 226.769728 294.505804
478 2 -169.367110 492.046305 72.944512
479 3 -206.616880 441.937699 129.263724
480 3 -175.556247 536.523306 55.738788
481 2 -96.510546 274.408901 84.454559
482 3 -26.760529 236.575290 4.813552
483 3 -13.457530 233.734826 170.305891
484 2 -42.873475 261.540861 -305.943874
485 3 -49.300272 276.276048 -249.141702
486 3 -73.766739 300.717998 -254.408507
487 2 54.547727 166.833118 -214.085477
488 3 4.102398 208.088909 -238.488212
489 3 -18.554680 192.938083 -186.604975
490 2 270.057053 317.206801 -57.909742
491 3 257.098141 308.420245 14.539732
492 3 356.244341 298.432278 -146.594738
493 2 161.605393 214.478296 -65.227613
494 3 267.643916 187.920335 48.626712
495 3 238.291004 249.976939 22.139692
496 2 -523.396022 166.031290 70.547947
497 3 -506.093217 163.654541 31.131273
498 3 -570.431624 214.129966 182.534033
499 2 -412.758414 294.246416 290.564387
500 3 -421.816645 269.702232 248.060363
501 3 -367.070466 314.135901 131.239867
502 2 173.529808 42.236111 479.148931
503 3 143.613071 96.859985 459.533716
504 3 203.109822 27.678831 370.556371
505 2 114.366808 -212.106124 -3.197466
506 3 76.254107 -154.068301 -62.873939
507 3 44.515729 -93.694629 -143.390726
508 2 143.846878 401.974789 22.683074
509 3 121.288570 345.069716 51.325339
510 3 176.048214 295.254004 -16.856455
511 2 -125.176123 352.962533 359.798832
512 3 -180.579686 321.755406 368.247101
513 3 -169.948190 321.568393 395.130154
514 2 -305.490176 242.288026 39.425532
515 3 -336.930225 336.307091 29.104014
516 3 -268.783649 283.394146 -2.721010
517 2 433.257196 213.493530 359.638265
518 3 389.748331 296.994925 369.146364
519 3 416.782714 260.004514 349.624515
520 2 184.898717 178.264505 155.574128
521 3 159.264987 140.168271 111.056449
522 3 112.766360 123.306043 123.258823
523 2 -115.336195 -129.081627 22.778102
524 3 -59.622353 -64.416515 141.291507
525 3 -126.942129 -128.903220 120.256128
526 2 55.756227 31.553988 319.205318
527 3 129.498357 10.689340 308.885287
528 3 52.916712 86.212266 189.966867
529 2 75.285524 182.487434 49.616479
530 3 40.095285 203.502567 125.259349
531 3 128.864180 236.347697 70.748481
532 2 -30.406102 718.666249 -155.490480
533 3 -45.178034 636.939270 -204.695764
534 3 -104.183161 646.835920 -80.089913
535 2 96.961797 402.466587 -326.323138
536 3 148.422287 439.982337 -396.100099
537 3 129.692034 359.509194 -287.257574
538 2 20.989771 200.927189 75.962448
539 3 -74.371958 113.119287 95.144034
540 3 -45.931833 116.091892 122.471359
541 2 -45.573314 223.798461 401.099286
542 3 -94.677455 301.039386 329.159450
543 3 -130.023990 215.611776 277.931710
544 2 -178.613150 529.636404 128.324337
545 3 -164.867279 485.480579 157.496096
546 3 -113.522861 386.139862 110.168063
547 2 -201.936708 -169.352514 32.814340
548 3 -195.866286 -181.413328 23.155383
549 3 -255.268257 -189.369030 34.781247
550 2 288.380330 365.297617 -83.285641
551 3 198.947072 360.373132 44.199320
552 3 240.424829 362.591163 -1.033150
553 2 6.801675 -23.304568 145.134457
554 3 31.329217 16.155728 -10.365937
555 3 -41.956443 -66.013717 -5.408158
556 2 -24.252960 398.501766 -4.518644
557 3 -98.744316 422.104562 -107.481920
558 3 -37.568481 393.640439 -16.492242
559 2 33.231699 323.149699 -286.954652
560 3 81.732491 320.087313 -139.112860
561 3 126.028562 402.757384 -229.610369
562 2 -139.801257 512.387174 106.268910
563 3 -147.371819 382.087525 36.696616
564 3 -167.126561 473.351027 110.896759
565 2 -97.221854 593.808547 77.266921
566 3 -81.065200 592.177858 98.902844
567 3 -53.065599 529.558132 135.429681
568 2 11.448411 222.895905 159.832970
569 3 128.559417 143.345806 166.035821
570 3 12.703848 62.740591 123.894789
571 2 -26.796823 491.042336 116.241282
572 3 -34.315485 556.508972 77.338661
573 3 1.166225 495.904575 54.466429
574 2 -441.363708 355.059873 -72.846458
575 3 -403.086540 351.993990 -3.024663
576 3 -453.146680 292.907497 -37.128074
577 2 -376.842840 358.470285 142.825058
578 3 -338.440251 356.371972 33.469661
579 3 -370.252149 300.425164 212.245606
580 2 24.923313 -34.242233 11.206625
581 3 -4.720820 -43.617871 -72.777892
582 3 15.224582 -62.375940 -28.121484
583 2 -358.581632 -189.961708 382.109253
584 3 -339.193366 -161.132805 347.201471
585 3 -377.580548 -190.869039 360.441690
586 2 -240.920327 101.945279 30.721850
587 3 -220.422602 105.196479 87.048779
588 3 -177.514821 141.671898 83.099344
589 2 371.295517 394.849393 97.624554
590 3 396.953528 388.234070 122.545027
591 3 444.393542 348.678331 226.112666
592 2 184.236068 -24.383548 105.496844
593 3 204.847567 -77.968321 -1.975741
594 3 225.374774 -67.351915 -39.758197
595 2 -14.521238 376.439407 -121.255928
596 3 -68.704679 359.042361 -63.144672
597 3 -25.294498 387.296665 -57.046502
598 2 235.240486 32.865856 -65.547224
599 3 322.338723 81.851491 -73.657605
600 3 260.369107 -14.963536 10.329633
601 2 147.710572 567.751020 -132.477989
602 3 141.488995 557.286154 -62.790897
603 3 164.217766 463.223727 -69.266058
604 2 105.544345 183.112360 22.046089
605 3 90.035881 305.909714 175.809542
606 3 97.982718 269.200217 39.076781
607 2 325.478871 493.230719 476.721606
608 3 350.443099 422.089631 335.744354
609 3 352.012853 363.941577 372.657284
610 2 -363.974714 134.811110 -485.613246
611 3 -369.506109 106.713494 -452.019411
612 3 -265.450909 49.733192 -472.053813
613 2 63.014182 356.934713 221.309019
614 3 30.576725 281.271141 175.325443
615 3 37.579105 307.827795 201.576359
616 2 191.282197 449.394336 -106.396128
617 3 159.556464 376.675074 -106.223356
618 3 135.617710 409.526909 -51.063549
619 2 -107.361233 179.918670 -144.416402
620 3 -206.980422 140.369195 -87.701950
621 3 -144.232276 100.528977 -174.501456
622 2 128.174133 312.772928 264.447985
623 3 123.012591 346.798260 267.788097
624 3 22.481506 296.653042 312.996350
625 2 32.272405 488.764643 -46.876678
626 3 39.613700 419.031350 -98.500046
627 3 38.110925 437.930093 -42.759517
628 2 25.079140 426.602506 177.167515
629 3 113.629969 408.681247 185.978785
630 3 52.993836 399.968554 148.557104
631 2 -143.455078 527.903815 116.231281
632 3 -161.244024 578.543507 26.722061
633 3 -202.090377 532.473675 -22.350712
634 2 201.088144 314.753833 53.709479
635 3 225.580074 260.507745 78.636855
636 3 258.023438 195.523055 76.645836
637 2 -38.978285 503.183535 17.571162
638 3 -60.746645 489.072773 3.692346
639 3 -37.393969 473.528886 18.496232
640 2 -133.217173 529.414665 -175.744770
641 3 -127.491953 531.414484 -189.800075
642 3 -158.821877 472.155727 -198.320066
643 2 279.440495 75.274285 -27.606007
644 3 259.776564 125.087050 -1.484150
645 3 303.031753 160.326095 58.578174
646 2 97.215701 -26.987228 226.866124
647 3 105.057540 32.269437 251.821987
648 3 140.429379 -28.710535 169.986649
649 2 -455.420173 513.737163 54.002010
650 3 -408.812549 471.093342 100.722709
651 3 -461.107875 496.618051 11.303000
652 2 19.416292 490.094379 -396.201178
653 3 23.033936 524.432829 -267.675314
654 3 10.546466 467.507595 -292.128220
655 2 -122.755763 318.616025 -158.933184
656 3 -73.101015 288.926164 -95.015032
657 3 -128.908825 310.865398 -154.073332
658 2 -190.714702 591.491475 84.835388
659 3 -133.555855 652.948468 34.064221
660 3 -126.862743 579.478875 44.013311
661 2 -445.324906 232.100548 85.263944
662 3 -516.929076 284.573846 120.637101
663 3 -423.260361 280.886139 146.763292
664 2 -52.860411 222.245329 -285.868565
665 3 -40.010810 268.426760 -250.616105
666 3 -99.932717 363.213413 -186.709301
667 2 214.367238 30.292465 24.304625
668 3 208.147620 47.726792 -105.321011
669 3 236.077707 139.527334 2.576566
670 2 93.518334 572.958852 198.752820
671 3 131.134629 625.743261 201.835531
672 3 139.594006 570.911017 268.919151
673 2 -295.191742 223.096723 -155.547145
674 3 -289.024370 253.590344 -185.760753
675 3 -284.447236 291.450045 -134.276257
676 2 75.545732 385.399839 31.878174
677 3 140.149192 347.682298 -34.603542
678 3 134.335022 300.959047 75.730644
679 2 -287.482620 160.814183 257.386547
680 3 -215.516609 148.878014 169.397790
681 3 -298.895788 156.555448 299.413907
682 2 -63.628155 365.317261 -234.452581
683 3 -49.036884 454.963209 -306.781397
684 3 -94.638556 399.665593 -314.204858
685 2 13.051579 286.588657 105.757004
686 3 12.023764 210.033552 80.523747
687 3 -48.086802 218.301748 143.825731
688 2 -219.440511 -282.644104 -133.564658
689 3 -174.276061 -299.421727 -150.730526
690 3 -262.488268 -296.759153 -193.481249
691 2 -378.746012 43.324143 497.822111
692 3 -300.853364 -38.782624 467.292924
693 3 -336.991531 41.272557 503.701199
694 2 168.242303 -107.586791 88.916831
695 3 183.505792 -148.342398 6.622629
696 3 91.457764 -29.681560 -1.306303
697 2 -347.947930 172.515172 246.114666
698 3 -379.759162 304.293012 217.135460
699 3 -329.018503 302.696136 246.387512
700 2 -390.643139 -71.705205 81.111439
701 3 -357.775643 9.256870 124.135298
702 3 -388.495608 -19.975088 102.292905
703 2 3.328644 61.608256 367.407658
704 3 42.897651 19.448591 347.516848
705 3 26.984740 20.611307 310.097990
706 2 -172.711250 -270.753928 320.394384
707 3 -211.388553 -257.692354 298.359816
708 3 -165.288281 -184.527241 199.336725
709 2 -190.673980 26.265634 130.989034
710 3 -188.736494 50.447284 183.615507
711 3 -186.685679 -31.679430 175.499073
712 2 203.190133 195.357662 -305.434532
713 3 225.987567 199.742760 -195.227982
714 3 257.271531 244.247494 -422.708813
715 2 -78.188293 -32.806979 -187.438144
716 3 -65.882464 39.746246 -15.367687
717 3 6.292406 -60.238613 -179.847843
718 2 73.781026 -219.258235 217.887995
719 3 119.312593 -297.763852 230.998922
720 3 120.763970 -281.427731 255.682881
721 2 277.021318 86.606049 110.662228
722 3 307.761374 154.423321 8.372444
723 3 191.080373 143.308556 94.968318
724 2 -62.120915 253.771305 -101.833829
725 3 -108.145703 241.996210 -131.563504
726 3 -188.851808 242.666887 -126.997403
727 2 -513.382939 -94.944299 -23.698029
728 3 -523.696065 -42.006609 -67.240567
729 3 -477.745617 -93.049496 3.194121
730 2 6.321083 74.423400 -104.626691
731 3 -25.363451 5.747376 -49.102514
732 3 -5.160612 25.778699 -170.206873
733 2 -149.927854 -176.975501 290.159353
734 3 -110.442429 -197.252983 221.884528
735 3 -153.578446 -175.699634 295.870974
736 2 46.603882 70.916091 217.362804
737 3 -67.366823 151.744417 313.409964
738 3 -13.489930 146.498445 239.633886
739 2 -206.538738 79.909641 418.821354
740 3 -156.530906 164.435935 487.366738
741 3 -244.801313 86.209643 489.927468
742 2 42.558548 -479.321552 519.905244
743 3 -19.946473 -394.110511 491.078966
744 3 44.441130 -440.331595 403.187911
745 2 640.240537 248.448757 144.979379
746 3 636.894265 164.717913 35.163742
747 3 673.624235 269.607312 76.441160
748 2 -212.256686 -231.326894 205.752352
749 3 -243.368345 -266.204442 276.327610
750 3 -231.569252 -266.402614 239.690127
751 2 174.890786 84.529189 211.042185
752 3 267.117953 184.297336 258.645969
753 3 212.503568 53.002628 138.401949
754 2 102.973711 -92.281961 120.996715
755 3 70.383669 -130.002976 161.758915
756 3 60.814075 -193.274463 164.144003
757 2 -245.509589 -31.650728 148.180892
758 3 -187.781839 -137.408755 58.100198
759 3 -251.830877 -51.519002 138.943221
760 2 146.776488 195.045397 226.062090
761 3 178.866798 233.621600 208.431893
762 3 155.594995 228.041187 228.075782
763 2 345.313257 -66.827526 93.718786
764 3 258.762995 -107.792375 110.822758
765 3 301.972532 -12.994725 120.099648
766 2 -183.135709 -116.155918 344.684656
767 3 -184.697981 -187.942868 304.092046
768 3 -124.142365 -184.171370 408.960385
769 2 167.408200 -58.398682 135.824529
770 3 116.502895 -101.559387 127.026609
771 3 125.205811 -30.935142 78.612988
772 2 -407.155312 352.712879 58.479473
773 3 -402.499470 389.661843 40.379239
774 3 -425.950296 282.569192 -0.050123
775 2 127.870540 90.027013 218.809530
776 3 133.809071 -27.460286 266.231547
777 3 55.816337 86.849515 333.889845
778 2 -27.887200 202.352348 149.050438
779 3 -78.312961 133.752162 194.708277
780 3 -35.898863 103.766889 211.649209
781 2 -160.438712 8.395882 95.407617
782 3 -101.589202 -10.638105 75.036084
783 3 -132.287279 44.943040 47.750594
784 2 -76.738777 18.076741 117.751915
785 3 -132.329702 24.667969 64.641412
786 3 -57.064993 -13.437820 154.080941
787 2 -357.950635 70.906885 146.617127
788 3 -404.444326 87.856328 147.375179
789 3 -420.230401 156.043793 32.283875
790 2 240.324799 -110.023452 34.107178
791 3 195.949871 -148.789465 41.760157
792 3 168.889076 -150.872817 -10.753647
793 2 -35.244892 -128.294182 212.254500
794 3 30.588440 -85.529335 206.657760
795 3 27.414620 -111.870195 123.111716
796 2 314.094296 -0.658384 307.862103
797 3 305.729749 60.690085 299.942236
798 3 296.159138 33.912982 305.949877
799 2 210.713380 89.347815 -146.675981
800 3 288.868504 134.455345 -123.433674
801 3 244.461531 110.294825 -86.730033
802 2 293.484659 224.637099 -53.614315
803 3 299.220158 243.229932 -72.920136
804 3 207.902609 328.974582 -104.505759
805 2 -173.683579 -333.601931 122.625172
806 3 -193.862515 -345.739267 195.515632
807 3 -172.421560 -344.196641 137.334729
808 2 -96.579321 562.267382 -31.255371
809 3 -104.736140 500.180324 -116.142328
810 3 -73.700855 548.409407 -66.935744
811 2 -151.485048 109.413638 -62.788295
812 3 -199.579354 56.613603 -0.783305
813 3 -262.594265 184.193005 46.485892
814 2 46.036815 -4.670091 243.277751
815 3 24.798994 -90.715243 89.706975
816 3 24.418847 -122.456345 177.776293
817 2 -549.080803 226.107262 344.692443
818 3 -467.286068 306.638334 359.031535
819 3 -523.640060 266.003912 459.301372
820 2 -381.448272 495.267485 307.093016
821 3 -300.299423 429.367679 265.593228
822 3 -328.058006 470.878628 282.699802
823 2 227.129688 -12.552783 9.365300
824 3 188.249624 -75.218588 44.507167
825 3 267.022237 -147.963644 244.048811
826 2 184.732870 -73.392668 -166.949517
827 3 241.758532 92.807671 -158.813691
828 3 259.431411 20.907116 -57.683746
829 2 152.946743 -103.928594 622.228130
830 3 117.191469 -134.770401 665.480297
831 3 80.165493 -164.613035 611.484245
832 2 -93.695364 87.896566 45.285472
833 3 -64.386015 141.915463 122.440692
834 3 -108.249801 121.985764 -23.331527
835 2 -33.025087 128.337513 179.035623
836 3 -57.587868 85.247493 139.845132
837 3 -5.549804 167.072130 213.353909
838 2 -0.714402 388.562695 -54.878064
839 3 7.085959 385.070271 -74.672367
840 3 -11.281115 407.900659 -87.317167
841 2 145.607585 179.532831 -111.975588
842 3 155.273025 202.957402 -220.937247
843 3 190.400827 190.340446 -127.061071
844 2 32.467652 -231.568596 241.003484
845 3 -42.101368 -371.208663 241.438538
846 3 35.064084 -173.435351 98.865045
847 2 -128.785290 482.654467 295.945500
848 3 -104.318319 448.543838 332.054230
849 3 -67.496551 525.491199 333.446118
850 2 -298.703566 233.424431 409.507183
851 3 -212.547436 226.762871 434.741649
852 3 -289.899972 269.928882 421.645132
853 2 245.255540 381.477073 32.746881
854 3 230.443718 313.240247 1.608802
855 3 189.006830 250.545899 -38.724185
856 2 -68.054072 165.289184 -130.529035
857 3 -51.694534 13.766609 -186.385123
858 3 -136.050288 61.266312 -148.224155
859 2 -107.915445 -131.397041 -363.822168
860 3 -103.425277 -233.250707 -434.637556
861 3 -90.050613 -142.546875 -291.364134
862 2 -19.397392 -12.163287 10.221913
863 3 64.408009 -25.090748 43.091924
864 3 66.825204 45.915388 -25.101984
865 2 202.955376 -88.802073 302.346255
866 3 182.230486 -68.136501 272.642136
867 3 176.066332 2.498991 364.572624
868 2 124.144913 59.740570 -93.915927
869 3 127.880746 -17.226595 -152.302041
870 3 97.178362 -19.061292 -183.825297
871 2 149.196206 276.364202 28.242862
872 3 164.036808 249.096246 102.816546
873 3 172.516904 244.819175 121.393538
874 2 -139.954138 214.671117 102.456424
875 3 -107.080479 217.142072 122.555655
876 3 -115.686648 205.075328 76.113711
877 2 343.424653 463.841933 188.006020
878 3 337.515419 494.797429 57.255787
879 3 334.070989 541.203549 137.414422
880 2 -17.960766 469.733867 -312.275988
881 3 51.805478 412.675291 -258.452884
882 3 4.455634 407.924438 -164.859693
883 2 -107.420233 -21.128660 -161.347297
884 3 -96.629422 122.927875 -180.070020
885 3 -136.074951 -56.885848 -98.113648
886 2 -285.899704 13.597578 204.594654
887 3 -283.360283 73.417484 283.813271
888 3 -212.172851 58.789633 227.891874
889 2 14.380790 216.211782 60.231183
890 3 -17.666016 317.590527 -14.204860
891 3 -68.794276 293.222986 -53.869964
892 2 -201.017943 -334.499500 63.376159
893 3 -184.740268 -359.748890 108.251843
894 3 -201.718134 -343.836269 81.375414
895 2 -73.925979 493.821193 530.381874
896 3 -88.667339 452.658787 333.016931
897 3 -101.397312 406.438007 340.756284
898 2 159.430784 503.769599 77.012084
899 3 153.371307 520.618287 38.339525
900 3 166.889657 529.060344 74.274992
901 2 43.420557 252.426775 -76.739357
902 3 59.824420 200.251602 -11.543741
903 3 124.158409 336.423191 -69.855886
904 2 372.579648 352.079073 27.994550
905 3 402.742690 373.782215 42.467195
906 3 425.791496 356.087530 21.525983
907 2 354.800895 75.257165 -364.716449
908 3 403.481286 9.839903 -331.408912
909 3 394.162552 89.434988 -387.835831
910 2 43.694748 -46.622987 410.819912
911 3 98.464298 -91.854622 440.337281
912 3 32.040335 -106.777877 439.401299
913 2 439.601138 106.802333 372.323344
914 3 373.034716 237.409382 366.133825
915 3 390.130460 162.632205 335.115703
916 2 216.968309 373.114899 -450.100063
917 3 244.840627 371.761323 -466.332228
918 3 335.854583 396.500882 -380.588474
919 2 141.374667 -28.930168 246.396258
920 3 166.567157 102.178634 147.740800
921 3 159.669189 70.207526 70.666144
922 2 65.707105 -201.494538 468.392425
923 3 112.572775 -178.256447 357.836712
924 3 200.253733 -178.182128 430.358147
925 2 -160.542946 119.465304 -96.645306
926 3 -210.099887 153.892859 -54.136181
927 3 -237.021297 208.112247 -22.930041
928 2 211.322870 -172.614274 -166.606167
929 3 252.805865 -91.716521 -86.149366
930 3 234.783248 -168.704051 -1.796713
931 2 -370.007668 297.576155 -148.615774
932 3 -314.120256 201.395755 -77.312366
933 3 -351.455538 233.621554 -161.149550
934 2 -127.596704 -12.947744 -154.661518
935 3 -135.979407 -4.176034 -198.777392
936 3 -132.500306 0.776102 -192.672104
937 2 133.265385 213.391388 -137.777232
938 3 71.622779 214.073041 82.340383
939 3 43.639091 209.370174 25.978427
940 2 -150.867288 130.416038 480.997904
941 3 -190.413846 210.934527 390.115197
942 3 -188.000487 137.563374 531.880671
943 2 -87.501468 323.948411 92.025029
944 3 -106.301469 350.508653 84.843014
945 3 -42.597300 335.017981 189.262417
946 2 324.081225 83.585809 83.213085
947 3 360.144357 -16.290197 164.919206
948 3 281.258821 62.723814 163.231279
949 2 -172.712593 18.305783 273.620484
950 3 -218.484845 43.035649 272.528234
951 3 -163.986390 -0.431237 318.818071
952 2 321.948756 75.994732 64.356850
953 3 283.096522 1.831757 45.297742
954 3 383.582883 38.341580 132.513174
955 2 261.658414 -0.127769 -92.586905
956 3 192.198829 -1.951974 -143.029995
957 3 189.210404 69.355063 -158.561197
958 2 -30.342088 124.660676 -94.537889
959 3 -95.908575 202.224769 -9.061124
960 3 -73.229862 256.899343 -96.390193
961 2 -151.344307 24.738934 145.460084
962 3 -151.500282 28.916426 209.917995
963 3 -211.282015 27.408306 260.591519
964 2 -160.906241 47.496341 656.129702
965 3 -177.568744 86.146994 640.441530
966 3 -171.828956 126.083265 502.035304
967 2 -36.603189 377.607096 -125.170295
968 3 -38.179031 465.056938 -59.023239
969 3 -89.837647 429.586347 -134.513879
970 2 -322.500334 56.567930 15.056608
971 3 -325.448332 104.470170 -0.418724
972 3 -299.295320 31.889065 21.236255
973 2 129.292996 349.376055 -166.002427
974 3 46.671375 352.746997 -209.696421
975 3 123.593832 401.761990 -171.658599
976 2 -408.545093 447.621638 -100.594621
977 3 -315.616675 390.538309 -117.188744
978 3 -300.044219 426.347044 -159.225939
979 2 -146.298979 340.336957 117.425071
980 3 -207.395384 331.832592 106.314024
981 3 -164.903441 263.473295 90.793644
982 2 -257.237961 185.763774 203.628596
983 3 -247.553983 239.058834 182.050653
984 3 -234.207396 271.299473 228.433912
985 2 -348.915970 258.334141 242.670431
986 3 -360.052981 247.448649 238.673880
987 3 -349.330686 240.821649 271.774666
988 2 -79.782283 6.068399 168.077671
989 3 -101.142798 -10.785642 263.509788
990 3 -22.392799 -61.134419 56.693243
991 2 172.106157 123.165464 164.450089
992 3 193.809157 219.377481 127.701020
993 3 252.277191 268.548805 215.015468
994 2 80.857617 243.111384 -139.232040
995 3 89.118676 221.297129 -97.963460
996 3 62.414157 230.144760 -79.325403
997 2 149.159810 125.807999 71.056864
998 3 172.348050 72.301057 2.810845
999 3 213.848325 43.050789 49.683571
1000 2 -222.849667 237.871881 310.924609
1001 3 -203.078236 225.611694 380.883800
1002 3 -144.450973 227.492966 392.851957
1003 2 -312.084293 337.401313 -108.747856
1004 3 -301.288096 304.976536 -102.251235
1005 3 -328.465967 368.366814 -75.546545
1006 2 -115.365603 6.862573 -151.295573
1007 3 -183.992564 -14.922750 -163.882213
1008 3 -136.633649 18.813638 -109.847542
1009 2 -218.510210 331.190880 -174.789838
1010 3 -160.725641 384.639655 -23.453083
1011 3 -156.376251 440.061125 -148.128021
1012 2 -449.979812 421.971220 204.674772
1013 3 -432.703185 376.144687 309.126636
1014 3 -424.965469 402.573960 228.482181
1015 2 -58.517879 395.336629 -226.829860
1016 3 -42.668053 393.972866 -195.474128
1017 3 -67.479974 388.319579 -271.438986
1018 2 97.844671 367.411103 83.965071
1019 3 71.541754 348.804982 30.449378
1020 3 139.883265 319.947100 61.160698
1021 2 -120.963554 78.413217 507.748917
1022 3 -8.001642 51.466033 533.356550
1023 3 -38.837754 2.293382 484.606065
1024 2 -173.014411 479.390077 -193.270678
1025 3 -231.698740 431.390882 -182.649165
1026 3 -182.946962 465.262925 -186.480684
1027 2 198.574680 -159.085578 -61.920750
1028 3 232.673629 -150.061699 24.017692
1029 3 239.804506 -216.097538 82.018142
1030 2 233.138632 -2.688656 68.031118
1031 3 293.027224 20.350539 122.676948
1032 3 225.341928 25.240921 73.977403
1033 2 336.262964 557.400004 263.550548
1034 3 340.679305 527.738453 413.316430
1035 3 304.587653 558.698572 381.562676
1036 2 587.003472 283.873932 141.318871
1037 3 607.184343 292.240394 191.363643
1038 3 610.575184 344.375062 211.164815
1039 2 -214.520566 425.277453 -90.704903
1040 3 -248.557002 384.200586 -15.922206
1041 3 -305.397097 570.300535 -191.968983
1042 2 -79.262686 259.061377 26.022021
1043 3 -46.112193 181.564883 10.496389
1044 3 -74.167983 228.543308 22.227917
1045 2 113.370839 269.723761 34.149373
1046 3 135.100856 236.012169 27.414882
1047 3 175.337399 209.835379 -74.565292
1048 2 -85.626212 459.652180 302.703665
1049 3 -40.725396 506.314188 324.776908
1050 3 -107.564893 502.649043 363.097298
1051 2 -235.828915 194.515573 155.454192
1052 3 -283.035738 229.171412 21.403644
1053 3 -221.196029 145.833334 149.803628
1054 2 153.841917 229.610162 144.764574
1055 3 201.829032 229.394246 163.237673
1056 3 190.049376 152.596100 202.809727
1057 2 -156.209923 282.603827 441.441801
1058 3 -110.518832 272.919671 485.671799
1059 3 -115.030002 166.341761 453.977828
1060 2 74.186881 289.669562 331.647591
1061 3 92.363938 190.384463 169.597936
1062 3 109.888405 245.969941 249.330174
1063 2 169.589957 185.068802 105.380007
1064 3 115.346668 178.860072 159.707296
1065 3 80.451245 166.982044 155.478705
1066 2 361.795456 503.155589 163.127996
1067 3 335.966643 506.921112 90.494647
1068 3 312.538914 502.144200 83.056223
1069 2 410.555590 341.532682 -21.535732
1070 3 430.597310 261.149914 -76.576373
1071 3 423.051324 272.924461 36.323041
1072 2 230.351674 253.655707 54.131184
1073 3 270.607345 261.811346 42.649032
1074 3 278.949018 170.203117 1.004297
1075 2 693.521776 -6.524799 -144.917754
1076 3 741.330509 37.215611 -139.255806
1077 3 759.475219 29.930897 -133.407615
1078 2 299.616189 83.197708 103.490339
1079 3 254.661709 -19.002204 48.977359
1080 3 293.556539 -9.900530 127.063245
1081 2 -396.512957 227.469034 -23.426517
1082 3 -305.367985 278.066322 -50.028020
1083 3 -307.078762 256.833326 94.264090
1084 2 88.457649 195.787275 94.488693
1085 3 99.899898 124.999884 97.728124
1086 3 59.632591 160.192449 19.281884
1087 2 -192.830902 360.506260 322.115616
1088 3 -185.343472 385.398106 280.935559
1089 3 -133.502228 374.279730 295.187060
1090 2 75.626295 144.610704 -192.810548
1091 3 119.758615 143.091180 -180.293009
1092 3 79.201581 206.987586 -176.206137
1093 2 58.690190 478.315469 -400.382892
1094 3 77.565809 409.083309 -452.787963
1095 3 -42.645399 372.735096 -326.642721
1096 2 310.739396 5.930277 -24.454651
1097 3 257.616536 -34.981610 -88.579468
1098 3 288.701720 7.730819 -40.266712
1099 2 38.482779 276.894619 -274.268041
1100 3 -65.476240 326.412782 -120.458150
1101 3 -18.440768 341.621688 -170.985296
1102 2 357.110896 194.746800 -334.235163
1103 3 384.920430 183.183927 -418.232978
1104 3 426.422789 221.389130 -488.891194
1105 2 -190.411282 426.063940 7.435779
1106 3 -277.843432 521.102391 18.229118
1107 3 -136.496359 474.734343 40.574329
1108 2 -71.872909 -70.670964 144.510512
1109 3 0.646732 -110.424602 201.722533
1110 3 19.780858 -137.143440 151.669024
1111 2 467.780722 229.909246 274.794345
1112 3 432.183185 293.617385 286.732352
1113 3 452.778771 249.661222 291.597739
1114 2 182.125994 475.804907 147.566329
1115 3 169.610774 463.054777 12.002156
1116 3 237.247238 457.363540 53.382459
1117 2 -323.379436 496.248405 171.818831
1118 3 -340.075253 512.082724 223.379671
1119 3 -367.706640 465.512397 110.546997
1120 2 -269.109969 374.377737 -50.488750
1121 3 -305.811591 431.584524 55.419774
1122 3 -253.831886 438.402125 -72.628377
1123 2 -20.371425 278.905993 117.945705
1124 3 -3.289178 262.519987 196.837476
1125 3 20.250579 230.328139 187.598274
1126 2 -270.415520 532.329478 -13.551583
1127 3 -211.921048 578.115841 -95.836576
1128 3 -244.238006 538.190729 -40.418427
1129 2 382.084048 467.230481 281.215157
1130 3 396.775528 449.222527 197.245093
1131 3 267.969521 458.740075 310.576425
1132 2 47.060732 48.103355 -10.644545
1133 3 79.785435 54.769947 -44.170562
1134 3 99.482434 18.034262 -93.376666
1135 2 161.177600 44.413827 69.601937
1136 3 157.034298 -70.927498 54.913452
1137 3 164.753773 4.602087 60.517604
1138 2 -263.345826 321.684463 -62.897437
1139 3 -204.679443 224.076411 136.638213
1140 3 -205.744951 237.347714 89.752602
1141 2 104.862340 431.061101 -337.881038
1142 3 65.417801 422.884268 -409.872945
1143 3 106.507209 433.907161 -281.828118
1144 2 141.665577 163.188773 128.416209
1145 3 149.028794 194.612257 62.412181
1146 3 76.099913 171.877352 119.933832
1147 2 142.262187 346.584214 18.140103
1148 3 114.091915 169.817491 -6.376250
1149 3 183.442946 303.983210 99.792577
1150 2 -167.468017 -37.862807 -86.262974
1151 3 -135.335677 -33.935472 -22.557943
1152 3 -152.824814 -71.521971 -66.658498
1153 2 280.683829 119.331689 -115.409638
1154 3 369.505613 104.650394 -128.893761
1155 3 335.057788 147.110539 -167.042514
1156 2 -276.306612 211.571207 -39.450754
1157 3 -310.222853 231.237933 -12.852902
1158 3 -311.156581 197.097306 -70.981626
1159 2 -166.129914 446.155641 361.289067
1160 3 -78.296791 401.016798 284.182730
1161 3 -98.602515 431.376225 320.265628
1162 2 -168.943630 74.650335 -287.285990
1163 3 -153.836251 107.708873 -364.882810
1164 3 -98.715105 97.469487 -343.703590
1165 2 -47.113794 362.486922 353.725668
1166 3 -22.559185 372.682216 373.979719
1167 3 -43.089572 385.815220 373.633786
1168 2 -144.489958 -80.249245 317.407862
1169 3 -95.734803 -53.226968 324.631896
1170 3 -134.280116 -0.801711 293.979506
1171 2 -168.958495 398.120959 381.071417
1172 3 -173.535296 471.393718 181.053780
1173 3 -210.749865 476.313855 265.365275
1174 2 71.993556 302.386030 -7.833837
1175 3 86.386022 211.364033 47.799014
1176 3 90.974268 284.794156 116.808147
1177 2 -232.848797 541.419876 141.099840
1178 3 -212.515070 629.918053 144.622495
1179 3 -165.321830 582.115176 180.338721
1180 2 400.909599 44.573221 79.444450
1181 3 507.353162 160.665227 18.556515
1182 3 419.437571 62.047706 68.786822
1183 2 -171.706222 200.341840 -215.788552
1184 3 -202.377010 209.376985 -255.128013
1185 3 -186.192353 152.856778 -206.059438
1186 2 164.735656 288.830803 45.586888
1187 3 114.227473 373.447265 161.115669
1188 3 98.202278 366.005163 123.864796
1189 2 326.845136 800.379180 284.365734
1190 3 297.061535 913.763242 165.637255
1191 3 380.983932 835.996492 214.520039
1192 2 110.003737 566.925610 464.565132
1193 3 148.673646 622.963553 517.140364
1194 3 161.228355 650.699025 536.738529
1195 2 -273.077354 -159.867428 25.144768
1196 3 -330.074126 -123.300456 -1.927743
1197 3 -322.151212 -79.751654 -59.551835
1198 2 127.867693 24.705799 32.824435
1199 3 123.007390 -46.939844 112.720721
1200 3 164.832087 7.407571 109.724576
1201 2 -512.909408 227.486002 -157.195788
1202 3 -529.321451 207.340752 -76.594603
1203 3 -502.467262 258.058153 -142.027550
1204 2 144.890681 -35.712085 -18.609967
1205 3 144.266907 10.227840 -52.550283
1206 3 178.373929 -49.049127 28.575734
1207 2 -248.369734 -122.779983 -189.520052
1208 3 -178.022099 -97.388570 -225.683842
1209 3 -210.472007 -169.890183 -261.082956
1210 2 229.530007 388.308114 281.945052
1211 3 220.818063 345.683391 311.791212
1212 3 225.495536 337.038813 255.478012
1213 2 -257.811523 141.204275 128.323387
1214 3 -271.611083 125.269160 93.262899
1215 3 -233.257844 160.995722 121.067127
1216 2 331.882071 -80.163500 215.113428
1217 3 381.192399 -52.957236 289.503063
1218 3 329.308584 -37.117668 269.196093
1219 2 384.066176 58.393656 -130.233125
1220 3 323.771963 33.176648 -230.906731
1221 3 394.087023 70.095367 -190.516519
1222 2 157.538754 164.447520 -18.872876
1223 3 206.273400 170.005492 -40.652598
1224 3 197.052958 84.662082 -49.299873
1225 2 89.456841 348.316530 261.175793
1226 3 146.584351 254.933657 265.436960
1227 3 153.107500 283.297933 252.419306
1228 2 67.984475 242.675629 42.431671
1229 3 -23.160796 264.754287 43.928504
1230 3 86.850889 170.282073 0.462710
1231 2 174.634324 -176.182750 103.817552
1232 3 203.932808 -126.598129 43.567997
1233 3 201.684088 -126.901302 -10.045214
1234 2 -199.359696 29.093775 191.585138
1235 3 -202.826853 67.166106 195.051276
1236 3 -147.132083 -28.676055 206.767216
1237 2 -48.168826 0.835103 276.672325
1238 3 -42.424767 42.473948 384.390033
1239 3 -59.564012 -44.002566 288.200980
1240 2 326.886450 -19.959884 108.452201
1241 3 290.989486 21.698250 185.997181
1242 3 276.391381 -60.738826 198.130536
1243 2 -33.153305 149.604977 92.466754
1244 3 57.136130 32.299792 26.925574
1245 3 69.003661 118.498631 54.179200
1246 2 36.067576 220.335807 333.382385
1247 3 46.491859 253.165110 372.454684
1248 3 42.845550 195.581287 257.307537
1249 2 -312.716005 256.333455 -105.299607
1250 3 -270.268284 306.939500 16.256659
1251 3 -308.061075 266.228677 -34.648536
1252 2 234.958166 126.514816 -401.120776
1253 3 164.360479 39.731240 -326.574302
1254 3 260.723874 156.257642 -380.348122
1255 2 12.622620 -69.440983 394.540326
1256 3 -2.642255 -72.810397 368.045534
1257 3 -44.345231 -70.360797 345.371983
1258 2 -38.034309 -17.708548 482.056922
1259 3 -14.349158 -15.968984 535.218550
1260 3 -18.059656 -5.046773 551.041936
1261 2 140.382211 358.814358 314.979984
1262 3 166.284665 406.655094 307.159664
1263 3 119.875309 317.728582 338.472515
1264 2 433.856198 166.489045 -263.182744
1265 3 380.314382 218.479121 -246.951999
1266 3 401.885576 185.847535 -167.740764
1267 2 131.834080 202.946774 283.137310
1268 3 156.469413 108.451792 371.772155
1269 3 78.343229 115.290360 296.845225
1270 2 92.303761 222.457565 36.414213
1271 3 144.153109 248.279320 -27.715896
1272 3 119.958183 261.767725 14.177182
1273 2 -466.854689 -332.250665 481.494145
1274 3 -450.547803 -386.917030 453.170049
1275 3 -497.523012 -350.135677 482.058472
1276 2 -10.290178 351.088483 273.548042
1277 3 -11.982825 390.042072 247.913654
1278 3 0.503398 291.109894 177.621797
1279 2 -228.895044 -82.574048 316.029684
1280 3 -151.972334 -108.714865 240.348374
1281 3 -221.763034 6.737801 328.845476
1282 2 255.024364 -47.966156 -317.003467
1283 3 272.794341 -127.372620 -341.428308
1284 3 279.499113 -104.000952 -347.385816
1285 2 -160.376741 276.457495 179.252394
1286 3 -43.498292 263.147559 152.566682
1287 3 -110.967492 244.037234 174.974768
1288 2 385.707833 46.300005 121.323283
1289 3 367.824120 126.466284 168.044457
1290 3 410.997372 27.598700 83.424224
1291 2 -203.451318 -136.077848 56.715756
1292 3 -252.156901 -121.731435 96.616385
1293 3 -273.034216 -183.227092 56.099189
1294 2 -29.744252 213.565477 -214.374892
1295 3 -33.397207 283.285162 -185.036302
1296 3 -16.159738 224.483156 -284.209995
1297 2 -261.915175 -26.031578 -188.146450
1298 3 -248.497003 63.606916 -132.779638
1299 3 -226.154502 7.510583 -212.912353
1300 2 135.205139 108.871088 338.891406
1301 3 167.607904 71.757435 303.568276
1302 3 89.179698 71.726498 332.067073
1303 2 -119.381266 236.698445 66.100404
1304 3 -55.896565 158.994838 103.657373
1305 3 -106.752877 250.243790 53.892629
1306 2 132.000593 171.320465 -99.545502
1307 3 200.091201 212.678109 -101.271522
1308 3 165.174652 174.671991 -92.880426
1309 2 384.717460 178.463742 301.734230
1310 3 367.392839 223.042809 237.472101
1311 3 408.683329 206.036026 297.836303
1312 2 -737.101489 234.451693 105.224173
1313 3 -698.419465 253.513760 199.122685
1314 3 -729.272961 265.328385 211.214690
1315 2 142.471912 89.878589 325.392402
1316 3 140.041519 47.766976 283.790040
1317 3 141.562391 43.823113 459.437619
1318 2 218.875438 0.126743 350.140425
1319 3 231.088051 28.580932 139.462443
1320 3 248.966538 36.781430 214.266199
1321 2 56.423975 -19.785715 -4.751343
1322 3 12.690705 -45.651585 -110.635891
1323 3 -7.134625 -50.947769 81.642345
1324 2 148.216112 -135.061213 -71.123769
1325 3 33.723238 -182.872969 -15.734844
1326 3 38.137600 -190.797351 -59.659326
1327 2 -108.518649 58.935259 164.075861
1328 3 -97.164160 -34.471677 238.107430
1329 3 -194.067014 89.748554 208.677043
1330 2 -1.688577 -166.569157 -7.435926
1331 3 17.974637 -183.171657 21.089721
1332 3 24.801759 -186.874737 6.945819
1333 2 -32.632159 286.285210 220.346208
1334 3 -5.496388 242.584464 197.873799
1335 3 -41.045844 257.516272 232.709213
1336 2 86.457601 320.937902 192.940417
1337 3 15.422527 285.742265 213.819427
1338 3 79.006672 345.586023 171.923037
1339 2 52.433332 151.982668 152.851650
1340 3 26.103401 240.005149 111.449213
1341 3 81.347836 209.189881 176.628024
1342 2 169.978383 -69.621739 197.321170
1343 3 198.426495 -140.316300 159.899747
1344 3 187.330157 -142.856221 62.905377
1345 2 277.679036 264.220510 -365.014371
1346 3 296.381902 282.281071 -197.357421
1347 3 266.154473 218.514669 -308.660189
1348 2 425.849424 90.506100 328.104731
1349 3 410.788609 124.607150 371.507188
1350 3 459.853100 119.644373 368.048339
1351 2 -147.549326 -8.269827 342.993297
1352 3 -119.395390 18.702574 293.589233
1353 3 -136.191128 0.347859 332.401381
1354 2 38.426610 97.357804 20.156463
1355 3 -25.491423 86.996617 18.726729
1356 3 -18.598172 103.514247 -31.978129
1357 2 -227.656985 -8.143400 201.810880
1358 3 -197.848733 5.740116 167.350913
1359 3 -245.584428 -47.585418 248.212166
1360 2 31.252218 127.651017 60.655992
1361 3 -71.224471 67.548559 81.838058
1362 3 -47.498918 143.898246 57.820311
1363 2 204.542878 -176.987847 -50.296903
1364 3 193.007715 -85.958172 7.061411
1365 3 225.675125 -156.186593 55.058069
1366 2 -100.037974 418.127547 546.356785
1367 3 -113.500799 343.201596 549.000991
1368 3 -160.096591 378.874981 508.672352
1369 2 58.337997 291.049777 100.171123
1370 3 -6.809079 244.465645 136.823487
1371 3 38.127946 287.973311 59.620509
1372 2 -130.632038 -20.881226 -111.380695
1373 3 -64.396072 -22.087849 -84.574779
1374 3 -98.640156 18.562598 -167.973956
1375 2 -137.671203 198.770872 123.232243
1376 3 -145.702775 286.335688 121.273934
1377 3 -204.242789 319.966683 91.333859
1378 2 527.346445 186.688621 129.598014
1379 3 502.626426 159.531352 160.593541
1380 3 512.263592 152.520261 101.222391
1381 2 0.218907 197.313876 129.339533
1382 3 9.824481 147.745995 160.674793
1383 3 39.112787 170.845985 172.391213
1384 2 145.944394 132.336506 -339.443051
1385 3 150.878784 187.203590 -295.698296
1386 3 158.285262 6.651124 -336.983510
1387 2 354.344742 -86.710556 -149.993140
1388 3 374.632546 -109.267754 -164.343008
1389 3 448.853316 -86.873440 -124.701345
1390 2 -55.033892 74.535026 109.899526
1391 3 -62.732765 90.800797 146.615983
1392 3 -117.590757 42.131791 67.090602
1393 2 14.142417 226.421064 552.075454
1394 3 -53.327767 198.117605 591.022465
1395 3 -19.326476 290.197576 599.201745
1396 2 -189.008189 2.448914 168.358478
1397 3 -232.345316 14.902068 161.882016
1398 3 -270.668777 14.725531 172.946720
1399 2 -43.094705 55.047573 106.742353
1400 3 -109.021896 61.727078 169.219334
1401 3 -79.419684 73.907382 132.533111
1402 2 131.192077 141.002492 50.362858
1403 3 58.784441 177.927456 49.057069
1404 3 78.791808 67.443592 116.131771
1405 2 200.763414 250.339607 233.338416
1406 3 159.797408 226.241805 241.668078
1407 3 193.492043 239.021355 289.245938
1408 2 -144.850936 -107.404256 -395.052448
1409 3 -141.398581 -24.184721 -250.418395
1410 3 -161.304762 -31.740441 -428.344781
1411 2 -93.689448 479.886770 50.023639
1412 3 -83.074405 466.681242 -19.888902
1413 3 -60.621434 522.871045 39.180560
1414 2 -115.135727 471.146223 -253.318674
1415 3 -29.250387 324.576044 -302.377931
1416 3 -89.937814 421.232110 -230.843774
1417 2 71.853820 206.687971 -109.767415
1418 3 67.164549 246.858799 -136.912141
1419 3 37.766410 322.305649 -108.396793
1420 2 -125.245809 220.628186 408.028130
1421 3 -149.412651 239.903660 286.326100
1422 3 -155.688718 352.724921 276.032917
1423 2 428.601921 111.786335 -96.055709
1424 3 411.159102 127.382829 -99.368218
1425 3 481.856956 124.621982 70.083873
1426 2 -172.838581 47.769957 -371.357815
1427 3 -193.989242 153.281783 -396.398242
1428 3 -201.782865 227.571344 -331.726835
1429 2 -510.552695 -125.340658 141.502171
1430 3 -503.149138 -96.210109 267.155203
1431 3 -454.215022 -83.618704 132.715515
1432 2 -348.725892 -163.452188 -57.326917
1433 3 -296.498797 -234.583667 -23.496296
1434 3 -358.325294 -210.772207 -78.944513
1435 2 -261.451996 207.812966 44.099416
1436 3 -345.645817 251.872229 145.563238
1437 3 -274.459174 123.200373 156.945036
1438 2 2.833522 283.457153 -287.360387
1439 3 74.485691 275.201348 -249.595781
1440 3 68.108996 292.608672 -263.656307
1441 2 -196.393801 159.694083 51.634248
1442 3 -208.320311 202.418197 46.892036
1443 3 -222.962022 54.823132 -44.802805
1444 2 -342.038227 145.041000 -307.120466
1445 3 -375.281813 238.001011 -316.244031
1446 3 -314.739520 168.347404 -294.907751
1447 2 -141.376371 78.592380 46.724381
1448 3 -132.924229 159.408410 111.069854
1449 3 -95.392460 61.582888 100.208866
1450 2 -115.854258 337.319028 29.349469
1451 3 -66.359311 291.324366 78.396890
1452 3 -33.281838 248.320296 118.990893
1453 2 124.408449 279.136703 143.041515
1454 3 103.584329 273.144847 257.174537
1455 3 86.441393 256.887910 139.106288
1456 2 -173.495683 169.649742 124.723096
1457 3 -180.765500 159.593218 1.172587
1458 3 -157.760412 196.164098 91.043351
1459 2 227.004538 139.109551 24.186758
1460 3 292.234250 92.567565 191.039853
1461 3 178.113449 133.618851 125.256351
1462 2 -23.677299 258.371452 282.665666
1463 3 -47.612802 232.117592 314.311533
1464 3 -80.166316 255.653261 241.638112
1465 2 532.455260 638.711603 141.283859
1466 3 519.537785 590.504596 190.859100
1467 3 616.118928 649.896543 255.460187
1468 2 -599.801570 90.474095 218.399182
1469 3 -503.820118 128.997189 295.094193
1470 3 -509.510285 66.147058 219.372603
1471 2 -36.554807 -92.522819 238.139278
1472 3 -36.514454 -138.129514 264.547144
1473 3 -20.352448 -136.271109 200.708297
1474 2 -279.527267 155.922828 348.469068
1475 3 -318.844947 210.662857 457.735005
1476 3 -352.102632 247.687615 390.991026
1477 2 -449.973008 371.595353 -48.871835
1478 3 -440.265687 516.878854 -59.196824
1479 3 -488.708228 535.414792 2.062730
1480 2 -326.571496 495.227771 208.958948
1481 3 -337.083254 577.116555 288.904636
1482 3 -298.300805 516.267125 269.641480
1483 2 -294.870401 525.155884 252.682502
1484 3 -288.957149 545.789040 216.238485
1485 3 -295.278634 476.442635 214.468135
1486 2 -68.941611 277.015949 -104.697287
1487 3 -95.442820 304.006290 -118.367329
1488 3 -102.806383 283.187033 -83.428134
1489 2 -178.851531 -197.973773 24.049208
1490 3 -207.561576 -133.404630 -77.843185
1491 3 -227.500036 -108.312149 -92.933428
1492 2 201.925143 -3.548521 -350.103128
1493 3 175.255301 -28.428119 -377.494120
1494 3 108.106672 7.702759 -284.558253
1495 2 159.360420 225.946796 342.202494
1496 3 172.866876 246.756033 263.879155
1497 3 98.421135 271.065539 224.238894
1498 2 20.555501 -41.152721 255.620053
1499 3 2.437675 -126.569742 163.254279
1500 3 14.552567 -3.791190 147.451329
1501 2 165.417346 446.805654 -296.868947
1502 3 117.740504 360.641609 -355.357514
1503 3 156.686298 437.089326 -278.814582
1504 2 272.792098 361.524217 167.718056
1505 3 225.473782 415.398378 112.016926
1506 3 264.724734 372.404008 180.668951
1507 2 -1.436844 263.647385 212.034887
1508 3 -8.053845 254.212853 112.557635
1509 3 -21.793794 268.628217 158.638249
1510 2 -424.544590 353.153651 -89.511123
1511 3 -363.912891 471.320646 -50.898780
1512 3 -414.679557 423.588074 -125.896961
1513 2 156.865198 -123.519307 267.213806
1514 3 229.640021 -124.399391 376.375232
1515 3 199.645290 -110.064686 252.546771
1516 2 -257.984469 165.007403 317.868140
1517 3 -260.546346 206.445341 339.049426
1518 3 -255.293795 101.546850 222.016495
1519 2 -192.433762 61.353771 250.258665
1520 3 -233.805992 36.242537 293.538823
1521 3 -265.740402 121.866981 271.639913
1522 2 110.643079 307.788355 366.627445
1523 3 102.090869 368.219576 343.110392
1524 3 133.584483 292.966824 341.910698
1525 2 -63.800818 376.169866 8.513100
1526 3 -2.507440 296.817248 -15.526919
1527 3 -58.780645 445.815065 -14.925985
1528 2 338.939588 371.067156 178.511317
1529 3 284.527864 217.002572 97.353143
1530 3 347.967030 289.313508 122.986964
1531 2 131.179899 414.281076 6.859076
1532 3 102.126316 390.125178 -70.650242
1533 3 71.334075 431.781055 -89.982048
1534 2 80.123082 125.221692 225.036912
1535 3 49.779005 74.655649 126.179620
1536 3 -1.915096 72.224830 91.569557
1537 2 421.928677 364.639028 153.348001
1538 3 344.470687 351.052480 114.828655
1539 3 386.469576 345.304622 109.092946
1540 2 274.004472 222.970543 40.551272
1541 3 296.194363 202.529158 26.393094
1542 3 330.263905 283.543756 -6.933769
1543 2 584.119984 92.457182 227.932043
1544 3 607.915618 55.663347 276.835069
1545 3 640.884846 73.149106 280.632304
1546 2 -111.944566 -0.242547 423.040082
1547 3 -48.410571 26.089606 378.067403
1548 3 -107.999958 50.012523 401.066221
1549 2 120.368752 150.626142 -298.277884
1550 3 95.339791 57.385004 -208.904436
1551 3 129.715489 87.403955 -243.996199
1552 2 -16.383768 161.096785 269.749201
1553 3 -45.733928 48.469991 175.192941
1554 3 17.071023 103.388051 169.132888
1555 2 -144.380128 75.293092 28.810574
1556 3 -204.169355 124.254182 -27.691019
1557 3 -263.415833 78.934180 -80.118605
1558 2 -48.345605 209.241029 114.478783
1559 3 53.956737 144.074768 170.846508
1560 3 -17.448404 173.044023 211.197714
1561 2 377.362513 148.817516 78.866593
1562 3 433.327055 105.894774 49.004181
1563 3 503.300019 63.350641 98.357558
1564 2 404.844174 298.288719 280.350048
1565 3 327.788156 332.792196 202.473795
1566 3 304.155140 277.173800 301.232288
1567 2 277.518662 -136.245338 -131.645143
1568 3 342.535543 -138.960367 -58.924264
1569 3 344.318299 -133.074819 -173.971154
1570 2 134.908941 328.648663 441.541256
1571 3 143.545332 392.717995 361.651975
1572 3 62.057721 382.484691 345.433316
1573 2 496.782836 168.684270 -38.724554
1574 3 446.323953 317.228969 11.626088
1575 3 480.067150 282.985789 66.026735
1576 2 -171.119077 38.283665 -209.908597
1577 3 -141.954136 -4.234087 -191.440950
1578 3 -160.269919 53.875597 -166.667132
1579 2 252.247759 221.995097 218.254742
1580 3 192.761521 289.445542 262.758803
1581 3 254.169838 251.207087 219.753059
1582 2 498.233257 41.630291 176.729656
1583 3 520.644680 58.472703 212.289724
1584 3 508.945322 78.053677 149.224641
1585 2 -231.134249 250.408482 399.583846
1586 3 -145.809079 176.224363 251.999511
1587 3 -203.998480 207.444551 360.834785
1588 2 -247.927854 502.792602 13.154366
1589 3 -171.240899 441.680442 65.929462
1590 3 -211.430336 476.898733 40.335846
1591 2 -220.972796 473.469681 -181.379023
1592 3 -139.398558 401.920449 -168.435083
1593 3 -173.244398 428.896498 -171.383429
1594 2 -208.456109 441.225469 386.071945
1595 3 -256.531188 475.227661 360.781902
1596 3 -248.941546 496.904986 453.777701
1597 2 37.676842 251.519216 102.703613
1598 3 -41.741647 150.430250 146.477318
1599 3 6.463309 211.359350 153.871117
1600 2 -245.390159 235.470729 256.185690
1601 3 -212.444669 274.823871 136.683374
1602 3 -214.636398 278.663972 116.378812
1603 2 16.727697 784.694014 304.046784
1604 3 -39.821595 761.825981 397.440457
1605 3 -25.938822 723.472201 290.111637
1606 2 -148.183417 -150.966339 130.781701
1607 3 -138.618463 -87.378093 68.593601
1608 3 -193.107305 -105.922439 64.273476
1609 2 -1.093415 312.037709 129.617545
1610 3 5.590671 333.899584 175.079186
1611 3 34.663457 348.656771 79.908349
1612 2 183.777105 207.933795 274.333643
1613 3 167.753081 238.837855 138.631341
1614 3 180.066958 188.335169 243.175731
1615 2 -62.356837 241.550664 -107.102968
1616 3 -117.331572 299.166675 -135.034162
1617 3 -128.093210 251.894564 -63.808998
1618 2 157.099227 -92.103090 25.719626
1619 3 147.679377 12.763361 30.367477
1620 3 92.592612 -33.245015 45.719101
1621 2 185.435193 5.842801 128.238509
1622 3 174.199210 38.148816 148.440535
1623 3 183.871947 -21.442131 161.639449
1624 2 -54.371773 189.441463 -190.391822
1625 3 -58.411131 154.265409 -195.781995
1626 3 -18.701059 157.857573 -199.091551
1627 2 -296.266000 68.403929 214.173682
1628 3 -233.732534 -49.541305 206.009385
1629 3 -223.279173 34.177357 154.404769
1630 2 -323.872318 657.763847 191.496662
1631 3 -323.108530 549.509832 77.450100
1632 3 -242.739664 509.145621 191.022084
1633 2 -358.376320 41.803375 290.094053
1634 3 -432.741294 3.103534 273.423585
1635 3 -393.771306 86.724992 286.166880
1636 2 145.786854 493.976702 186.213214
1637 3 113.200691 532.746927 178.948955
1638 3 126.876531 503.077105 98.368491
1639 2 -346.212625 214.442308 187.771554
1640 3 -368.452385 233.425890 153.296807
1641 3 -325.604763 183.923129 234.521356
1642 2 257.051404 343.690079 -149.448500
1643 3 226.314208 307.991302 -68.326866
1644 3 247.763039 279.121256 -120.276695
1645 2 347.921058 191.300536 348.831976
1646 3 373.765251 130.304142 342.503478
1647 3 348.388919 191.085350 366.816760
1648 2 -65.639499 574.271833 -175.359462
1649 3 -45.908606 546.010171 -141.574634
1650 3 -50.651569 555.753441 -194.990065
1651 2 41.512189 285.315298 -198.755176
1652 3 74.917514 310.312723 -205.311664
1653 3 134.254255 295.795459 -276.860379
1654 2 339.880340 181.147952 297.263691
1655 3 384.314059 121.398689 285.107345
1656 3 354.312007 188.903383 313.558002
1657 2 138.284375 -122.649956 -134.923562
1658 3 126.813303 -80.631184 -191.759777
1659 3 177.661154 -119.292865 -202.289825
1660 2 391.407072 314.848039 -50.564734
1661 3 382.147498 268.816659 33.307792
1662 3 360.316859 264.361271 -131.340662
1663 2 -184.820998 200.140474 179.994448
1664 3 -175.204981 225.213996 120.523733
1665 3 -158.046244 213.661096 193.964617
1666 2 -309.926335 390.378482 340.803595
1667 3 -257.430923 424.764886 376.112111
1668 3 -298.111442 306.126345 262.528138
1669 2 -37.321972 607.902371 129.810448
1670 3 -37.222810 530.660534 67.158772
1671 3 -108.532293 568.939812 33.181396
1672 2 -15.257390 251.203788 232.795788
1673 3 24.785659 305.280865 128.116193
1674 3 -60.511432 331.177592 347.838978
1675 2 -159.693954 236.556665 59.460847
1676 3 -97.527863 263.044565 4.536164
1677 3 -148.168639 260.123929 -18.443991
1678 2 17.949821 333.358373 95.995037
1679 3 34.585122 324.099146 95.777592
1680 3 -24.999256 309.387177 -27.852928
1681 2 -313.763740 287.528039 70.326849
1682 3 -323.645141 243.183604 57.492880
1683 3 -328.829312 179.665488 103.357523
1684 2 -266.705435 382.827153 566.016063
1685 3 -317.367262 318.959156 567.017327
1686 3 -291.143627 234.987735 527.636221
1687 2 -9.311495 463.651089 -207.788605
1688 3 -70.980089 557.333713 -188.217305
1689 3 -26.657669 563.087805 -193.839213
1690 2 215.810954 114.464197 -65.413182
1691 3 202.365569 73.726504 -97.260118
1692 3 189.706848 105.314403 -99.154002
1693 2 4.407754 102.812767 168.814162
1694 3 29.538111 157.701456 122.937394
1695 3 -36.651202 105.268601 153.798473
1696 2 -8.155216 331.119147 -101.646812
1697 3 81.202042 311.416280 -54.283582
1698 3 -22.058446 343.895580 -138.531575
1699 2 554.543124 606.922851 82.584933
1700 3 502.165466 604.540887 119.703416
1701 3 530.377884 518.113898 64.756270
1702 2 155.670326 204.984103 98.419215
1703 3 184.475077 221.371402 114.354649
1704 3 126.293861 120.524997 41.843810
1705 2 -174.176733 -234.546142 29.275055
1706 3 -198.235496 -175.315695 -15.419269
1707 3 -235.103557 -190.189620 33.923251
1708 2 -102.425339 -268.681797 235.345521
1709 3 -55.338378 -330.510748 368.263375
1710 3 -102.781621 -257.044742 254.867149
1711 2 -70.675264 -213.914856 -58.458976
1712 3 -68.710533 -231.694092 18.002351
1713 3 -99.259519 -271.392295 -61.339484
1714 2 355.919820 187.611460 421.235061
1715 3 275.736448 209.567419 494.212032
1716 3 284.184634 184.628486 409.698417
1717 2 -97.529452 210.640720 287.854106
1718 3 -71.069187 264.140824 339.206782
1719 3 -38.313504 323.524059 396.070786
1720 2 -412.199987 365.961649 33.877891
1721 3 -313.252395 357.984113 111.603774
1722 3 -321.368936 280.823193 151.691424
1723 2 273.555295 -36.274366 67.322895
1724 3 347.179159 -9.369391 12.517108
1725 3 323.269616 22.568701 49.588234
1726 2 54.149061 -161.921056 -12.215280
1727 3 127.174886 -156.493674 -101.941938
1728 3 140.653499 -53.870208 -112.282966
1729 2 29.181360 38.584400 -44.835894
1730 3 -22.922357 36.204262 -55.399123
1731 3 2.572287 27.671386 -125.423794
1732 2 234.072063 219.908795 247.263766
1733 3 166.385916 252.889913 205.848062
1734 3 140.553530 190.167072 134.776813
1735 2 150.310053 85.964801 141.301038
1736 3 153.942564 32.231475 30.116330
1737 3 70.165444 52.956000 31.235633
1738 2 13.171737 -75.561475 19.984080
1739 3 58.138441 -129.505324 46.452234
1740 3 65.217579 -40.277543 -16.123814
1741 2 72.882993 -315.035037 -378.051583
1742 3 17.728170 -272.729390 -403.534889
1743 3 77.133646 -219.198801 -405.091772
1744 2 76.925832 -156.382074 227.702485
1745 3 31.796630 -216.142968 41.585841
1746 3 38.322583 -93.094151 119.879048
1747 2 -120.660676 -50.194139 466.683906
1748 3 -136.089815 -60.278365 371.606274
1749 3 -109.621612 -47.980159 378.587852
1750 2 -22.058058 224.840746 297.755909
1751 3 -11.483725 207.120046 224.620475
1752 3 -30.971415 224.897549 209.870574
1753 2 -193.276258 0.161616 -131.309553
1754 3 -238.357120 -41.882401 -96.290258
1755 3 -172.682446 31.832164 -143.512673
1756 2 -44.236826 266.043929 4.180108
1757 3 -22.682652 149.638806 29.262205
1758 3 -7.997901 226.648550 -22.411520
1759 2 86.232384 -179.780220 -43.453749
1760 3 18.859417 -217.407615 -46.490571
1761 3 14.372865 -127.365823 -24.695871
1762 2 48.280411 93.896693 196.572842
1763 3 27.999864 90.092627 154.063836
1764 3 79.461765 83.833229 136.740934
1765 2 -12.697359 -150.928358 532.565672
1766 3 -17.384846 -127.692320 455.045186
1767 3 6.940832 -227.102992 458.199841
1768 2 9.754918 130.099006 95.556495
1769 3 -13.230532 132.906712 116.041847
1770 3 10.105251 115.718756 36.554590
1771 2 143.189481 291.862567 110.506523
1772 3 84.979682 192.482821 194.541713
1773 3 93.404382 274.079956 99.004992
1774 2 -78.988440 -182.803288 -203.224958
1775 3 -12.246534 -55.510765 -247.145521
1776 3 -50.212954 -143.048282 -155.674278
1777 2 354.405333 315.770179 -262.351125
1778 3 362.527223 314.468509 -300.463527
1779 3 316.035209 425.508497 -281.815533
1780 2 32.796405 192.638285 103.816602
1781 3 64.455781 152.638171 77.062365
1782 3 58.090918 246.920392 133.322420
1783 2 -484.321024 315.471749 -36.886472
1784 3 -512.944806 390.071112 -62.252568
1785 3 -458.546171 333.005816 -39.449938
1786 2 85.605823 -136.264830 259.201717
1787 3 60.080903 -111.392203 274.147391
1788 3 139.820037 -126.983131 157.662642
1789 2 -272.530981 234.814756 317.222883
1790 3 -247.615116 141.745594 295.144658
1791 3 -219.009132 166.335391 231.402388
1792 2 201.047927 -29.087168 140.147648
1793 3 220.913891 -1.529435 196.313005
1794 3 210.021397 -48.975751 130.126720
1795 2 -20.699881 275.753446 -20.296251
1796 3 -3.730888 187.239244 -49.076506
1797 3 -22.221661 261.045992 -22.910653
1798 2 -69.122236 202.449442 468.538895
1799 3 3.641912 157.561576 386.255835
1800 3 -17.808535 319.286838 307.902918
1801 2 107.107757 404.207842 145.701709
1802 3 39.668926 330.613665 142.986833
1803 3 108.269924 306.662296 104.068348
1804 2 202.327978 -237.263057 192.557562
1805 3 247.261159 -198.781668 140.608351
1806 3 235.187906 -135.892097 175.149044
1807 2 -108.748192 234.229421 59.429981
1808 3 -68.551403 225.302758 196.632127
1809 3 -121.453095 276.274193 50.943056
1810 2 335.917170 -22.784654 253.271573
1811 3 391.986254 -77.986581 253.929875
1812 3 324.741335 -100.439340 346.727631
1813 2 -264.777439 -221.103898 251.209851
1814 3 -367.907072 -196.124476 181.327290
1815 3 -337.517937 -155.347742 279.385079
1816 2 -21.820860 134.059129 20.640375
1817 3 -4.235423 54.965793 99.642416
1818 3 28.456926 92.525328 -23.169277
1819 2 -374.944597 -51.238088 477.064772
1820 3 -380.535054 -50.327480 489.649695
1821 3 -319.621036 -37.307417 384.953106
1822 2 -42.382029 283.914376 332.482237
1823 3 -13.927848 271.641827 214.268358
1824 3 -101.512503 335.205572 266.533269
1825 2 -328.378089 -175.664542 185.716678
1826 3 -265.151532 -158.095095 207.455041
1827 3 -309.143123 -146.816588 234.354147
1828 2 497.405501 -401.179165 215.313482
1829 3 474.385561 -401.153500 214.207578
1830 3 530.184183 -375.980010 134.709215
1831 2 -165.117442 101.518335 190.890209
1832 3 -154.036670 106.467124 239.511477
1833 3 -174.612919 61.190241 190.625759
1834 2 206.949396 143.603291 306.833751
1835 3 197.077103 165.774398 354.807530
1836 3 220.986338 148.265358 268.753380
1837 2 97.299770 108.497185 -124.807700
1838 3 28.389924 75.697488 -80.957780
1839 3 60.478628 9.645667 -87.986918
1840 2 -312.355594 -286.104812 493.829454
1841 3 -243.161307 -273.960329 543.631097
1842 3 -291.385643 -249.114188 591.325037
1843 2 188.746795 4.228672 217.616220
1844 3 223.357348 -26.490116 195.422100
1845 3 186.673449 -59.364131 217.656629
1846 2 429.762850 -30.459803 110.098473
1847 3 427.026055 69.042243 226.790693
1848 3 442.708648 34.630145 98.952350
1849 2 -187.067289 51.168242 376.644295
1850 3 -155.133730 27.625819 441.889182
1851 3 -98.597018 76.903724 446.202826
1852 2 374.714632 255.554251 -9.367828
1853 3 423.483492 125.833793 109.557339
1854 3 445.966377 238.025566 12.070371
1855 2 -306.393288 -210.282355 98.221329
1856 3 -266.449713 -274.030725 130.653415
1857 3 -330.493279 -314.342907 168.372372
1858 2 -36.079661 279.717750 195.985505
1859 3 -0.069685 256.498497 218.178794
1860 3 -53.573235 383.080851 190.880965
1861 2 -561.880598 154.989407 176.682770
1862 3 -498.196950 174.692882 214.802129
1863 3 -501.080537 205.423142 163.506847
1864 2 6.151058 -23.676305 -25.164328
1865 3 25.889471 -57.096412 149.479672
1866 3 33.932959 -16.516384 -6.482878
1867 2 -262.928054 157.090958 137.650853
1868 3 -281.950979 179.564045 107.119497
1869 3 -276.110248 191.736960 181.510608
1870 2 -121.483415 456.928758 286.768148
1871 3 -48.384848 410.423171 233.498116
1872 3 -33.222462 492.582560 239.787220
1873 2 227.623975 62.993914 66.395290
1874 3 199.862237 125.171799 51.400666
1875 3 220.952850 54.320512 151.954739
1876 2 -262.280516 217.309760 231.818917
1877 3 -251.269443 113.855843 358.700991
1878 3 -218.384223 179.561096 351.993347
1879 2 -203.677903 324.269829 595.126092
1880 3 -189.663886 378.262188 566.891671
1881 3 -213.597956 137.139729 542.285892
1882 2 -68.517898 -202.957752 392.540344
1883 3 -99.678930 -142.331886 427.421592
1884 3 -83.158876 -201.790215 512.647628
1885 2 32.972181 21.918340 210.794729
1886 3 8.596194 -22.011622 151.511335
1887 3 -1.942411 47.191395 162.770457
1888 2 268.359193 -4.869307 -89.285993
1889 3 296.409782 -17.833747 -62.763496
1890 3 244.046297 18.971722 -115.557455
1891 2 -72.108041 85.597382 120.428651
1892 3 -81.282547 21.146631 219.495177
1893 3 -135.870083 37.285347 271.323945
1894 2 540.604882 -116.150444 -376.307268
1895 3 554.606081 -209.262254 -382.522584
1896 3 436.980569 -106.343270 -327.494490
1897 2 -457.053351 -16.716559 270.889167
1898 3 -467.941223 23.050066 287.652834
1899 3 -471.565156 -5.521311 224.196400
1900 2 -183.129645 -193.682288 -317.915278
1901 3 -189.168909 -142.131783 -331.121287
1902 3 -150.638558 -20.908354 -340.748510
1903 2 -345.192474 12.779375 -40.252214
1904 3 -246.850120 59.030590 -61.820502
1905 3 -187.481796 57.143313 6.625110
1906 2 294.204446 -23.180368 216.789989
1907 3 320.511548 51.014286 184.143706
1908 3 337.095699 -12.937633 179.995242
1909 2 101.888995 -133.513311 -196.620035
1910 3 115.974886 -150.790273 -190.346025
1911 3 99.802055 -241.138051 -257.049243
1912 2 -19.853754 348.848223 4.942307
1913 3 3.735124 328.992432 -37.369377
1914 3 -2.994477 351.745339 6.029471
1915 2 206.016002 267.234197 76.077200
1916 3 196.795437 299.247592 113.526203
1917 3 196.951991 326.432365 106.667550
1918 2 -49.182019 121.469791 325.572343
1919 3 -113.873794 66.232673 244.004952
1920 3 -38.629933 83.420075 364.092031
1921 2 490.161382 371.547246 405.372927
1922 3 532.444759 393.552863 358.968910
1923 3 528.062387 447.677286 489.302988
1924 2 -32.883299 243.148011 200.567437
1925 3 -50.853085 210.748077 153.609444
1926 3 -64.567546 193.586394 216.517383
1927 2 -464.697545 141.244323 285.487802
1928 3 -390.885550 172.294983 176.748181
1929 3 -426.890605 198.963738 220.314120
1930 2 -286.129814 74.553579 115.858270
1931 3 -241.352594 77.872302 240.675633
1932 3 -277.250692 71.051337 160.141760
1933 2 -315.132988 65.089152 -95.408810
1934 3 -327.651079 65.342375 -59.453644
1935 3 -300.425362 162.127636 -1.956936
1936 2 -154.728406 237.632429 -214.007647
1937 3 -209.255764 270.102318 -205.057418
1938 3 -235.980514 296.891293 -180.079265
1939 2 122.689315 -186.945786 161.681205
1940 3 77.099561 -191.650980 9.421980
1941 3 73.559710 -204.783924 2.106266
1942 2 391.738026 246.057092 -42.869037
1943 3 378.562783 231.955317 -140.044875
1944 3 431.338297 221.247821 -36.260054
1945 2 125.181284 385.039832 586.209333
1946 3 120.428751 423.185921 573.403948
1947 3 51.376034 518.223217 492.956945
1948 2 -298.629097 276.254579 -77.832317
1949 3 -276.950279 185.688118 0.899553
1950 3 -287.571262 273.497404 -50.327782
1951 2 -170.173407 -189.225289 466.140650
1952 3 -207.388433 -167.240077 491.837184
1953 3 -167.070272 -186.068849 502.605831
1954 2 -181.914991 14.213667 234.230908
1955 3 -218.175805 33.408682 313.657291
1956 3 -142.202808 21.284303 253.527535
1957 2 508.660168 374.437125 344.853379
1958 3 456.078406 379.776565 404.689881
1959 3 454.804234 287.648791 400.173674
1960 2 -199.744880 315.742020 294.719051
1961 3 -102.505674 281.029363 373.981379
1962 3 -145.306325 259.942177 305.432712
1963 2 -8.712441 302.621483 -5.861537
1964 3 11.403138 344.065108 41.654646
1965 3 -4.995158 283.157932 64.070419
1966 2 84.599501 29.890756 192.526120
1967 3 48.566157 24.919265 308.811610
1968 3 68.577428 -46.282875 357.129015
1969 2 -153.320679 9.326413 224.658818
1970 3 -297.947197 34.420404 229.211633
1971 3 -251.682606 81.524716 198.423125
1972 2 35.105767 131.408824 229.926619
1973 3 43.527433 276.942847 99.543395
1974 3 4.580021 236.884165 177.568840
1975 2 -44.368427 57.672414 558.558430
1976 3 -79.560486 96.477978 478.887064
1977 3 -8.546930 4.909842 552.792636
1978 2 -163.427556 -218.314414 153.772852
1979 3 -217.070857 -207.793338 120.381710
1980 3 -143.779562 -207.467252 48.684284
1981 2 -118.044951 24.585617 574.630582
1982 3 -99.251150 22.308956 546.039563
1983 3 -101.012497 24.163899 540.039358
1984 2 70.150555 490.834646 212.987199
1985 3 37.571556 480.526354 282.226127
1986 3 99.729737 375.194328 187.163367
1987 2 -192.738611 319.427478 153.070958
1988 3 -183.341600 316.120881 284.742297
1989 3 -156.184965 280.604920 258.658756
1990 2 -96.027574 344.248076 427.768521
1991 3 -77.098110 459.238380 321.534885
1992 3 -133.357876 428.265307 316.064262
1993 2 126.236117 281.845590 177.173512
1994 3 130.335468 199.683692 125.110057
1995 3 174.312836 260.939486 83.022161
1996 2 33.090911 355.850921 164.488026
1997 3 44.449953 361.320298 224.234465
1998 3 127.573875 338.456886 164.993114
1999 2 591.465761 194.378005 76.835381
2000 3 609.870630 207.182064 89.853671
2001 3 574.624852 170.510441 102.918215
2002 2 116.232019 151.939853 431.604487
2003 3 124.134202 179.455152 411.602155
2004 3 101.053154 164.696430 498.264694
2005 2 98.377621 142.929452 172.396084
2006 3 101.273053 191.960235 80.307483
2007 3 104.709410 125.675494 93.210584
2008 2 86.148776 304.234536 116.631840
2009 3 60.141678 319.932108 -8.482157
2010 3 79.448398 339.201227 118.560765
2011 2 251.839403 -44.007477 272.157280
2012 3 335.297044 -18.940657 245.977939
2013 3 300.413575 -23.606194 284.600790
2014 2 8.107777 341.417707 354.608399
2015 3 -9.024791 346.422015 165.220587
2016 3 -80.905626 385.982802 308.423810
2017 2 -19.410093 139.568431 247.467307
2018 3 19.993612 213.959328 253.281168
2019 3 11.478961 136.816311 253.779346
2020 2 -74.720396 -127.255334 240.869616
2021 3 -35.651048 -51.363318 183.145357
2022 3 -96.315168 -15.691418 57.703052
2023 2 -149.034134 473.325210 287.723910
2024 3 -141.362740 408.532519 302.657204
2025 3 -203.892089 387.101411 271.464400
2026 2 -136.662157 493.956541 297.326058
2027 3 -141.545866 519.914481 299.012619
2028 3 -124.795461 497.844672 336.304954
2029 2 37.833434 670.514768 491.946972
2030 3 80.404027 629.625036 542.157505
2031 3 -32.329682 586.496138 445.867410
2032 2 -283.282241 187.770907 42.422641
2033 3 -281.658405 198.047452 135.521847
2034 3 -254.756592 174.090092 26.605477
2035 2 -285.396888 412.530880 255.940652
2036 3 -280.046697 444.791817 289.698079
2037 3 -331.985384 356.859543 296.892885
2038 2 -386.452620 314.823682 7.479457
2039 3 -439.993006 321.629818 25.938172
2040 3 -389.268517 284.998806 26.339990
2041 2 46.241653 310.925729 -0.219655
2042 3 36.457312 397.407240 30.280054
2043 3 63.455628 349.931711 67.156239
2044 2 285.789982 196.936947 297.442747
2045 3 219.802904 170.703353 290.397325
2046 3 276.123359 213.528409 306.971493
2047 2 -17.615671 454.116209 28.129986
2048 3 10.648096 476.829615 30.976059
2049 3 39.945119 382.955629 122.688379
2050 2 253.923262 49.756334 -239.288943
2051 3 206.301082 67.935968 -122.286070
2052 3 248.372886 81.572066 -126.967788
2053 2 -160.806432 496.851984 187.197687
2054 3 -228.164706 458.101829 228.813611
2055 3 -141.232488 488.229209 149.451450
2056 2 -475.108581 109.590304 309.779698
2057 3 -461.988876 27.005576 245.215883
2058 3 -499.777130 20.494142 183.987936
2059 2 -138.602847 437.268676 157.259988
2060 3 -123.284511 387.389198 62.339080
2061 3 -164.514953 377.725963 19.572328
2062 2 -339.396163 -0.251033 -68.462329
2063 3 -297.354876 26.669888 50.556642
2064 3 -270.808692 79.237262 -28.696463
2065 2 -103.804940 334.112140 23.895097
2066 3 -47.755958 314.488914 -28.904377
2067 3 -65.912180 327.655611 98.396538
2068 2 -243.622070 -180.803849 135.457866
2069 3 -312.062921 -117.508551 221.507688
2070 3 -213.865337 -239.244388 167.632440
2071 2 7.646257 392.620141 174.474532
2072 3 -58.751514 495.348858 108.944474
2073 3 8.694731 361.647555 150.403669
2074 2 53.133831 412.702020 261.710985
2075 3 101.335696 414.394439 272.421915
2076 3 123.222118 441.960353 229.583971
2077 2 -151.126547 487.661511 149.632738
2078 3 -192.581096 430.178736 248.676946
2079 3 -238.088358 440.170809 293.072475
2080 2 195.335464 452.550046 190.895874
2081 3 107.505193 460.551270 275.070033
2082 3 242.647864 470.760490 255.474801
2083 2 14.564670 316.912385 -92.797153
2084 3 103.410052 284.891464 -6.874258
2085 3 53.009665 305.552717 -42.173656
2086 2 -172.226909 378.758304 -171.835625
2087 3 -207.425630 337.988016 -73.080426
2088 3 -172.360847 361.540638 -161.897158
2089 2 -127.729101 -187.964200 -9.999756
2090 3 -144.220456 -114.120398 44.164400
2091 3 -146.280454 -98.878826 75.908297
2092 2 184.751049 299.519597 -182.195991
2093 3 132.390202 245.541697 -190.215626
2094 3 182.558359 292.346094 -158.436039
2095 2 197.590371 296.810437 446.184780
2096 3 105.531182 429.976641 390.501908
2097 3 122.869003 289.178281 443.930976
2098 2 -260.257691 -17.989325 -12.885665
2099 3 -194.819414 -45.798755 -13.582213
2100 3 -241.456347 -14.284307 -47.371405
2101 2 2.583116 359.171871 208.682560
2102 3 4.904950 430.910701 128.214144
2103 3 -13.644665 322.696156 217.532320
2104 2 144.849010 352.118969 29.827184
2105 3 196.463509 355.710008 62.147436
2106 3 165.587618 284.789504 -9.559823
2107 2 -15.220766 138.060356 77.779224
2108 3 69.829618 239.443746 13.471274
2109 3 47.661286 118.688654 61.776206
2110 2 -594.627677 434.246673 -83.648134
2111 3 -527.365256 461.494513 -37.624975
2112 3 -598.158778 400.547381 -72.660299
2113 2 17.030470 433.300571 251.907492
2114 3 27.356125 380.867472 262.984560
2115 3 30.452772 325.515577 266.444184
2116 2 -10.403643 360.464844 -6.490582
2117 3 63.475779 389.971098 -6.184214
2118 3 34.231332 353.191601 21.996829
2119 2 33.599501 60.046677 154.436469
2120 3 41.634358 102.327461 160.648398
2121 3 66.132144 151.765886 233.484923
2122 2 321.281745 522.056582 -134.651492
2123 3 357.043083 538.028469 -16.296579
2124 3 410.321733 480.851938 -72.423453
2125 2 -73.191013 699.266677 37.102821
2126 3 -15.837540 637.441254 14.067876
2127 3 -117.494966 674.077375 4.051094
2128 2 231.570530 201.747491 103.445621
2129 3 240.283879 231.727982 7.531738
2130 3 203.520409 229.386446 -62.621187
2131 2 322.448047 535.509849 166.456511
2132 3 374.459304 483.638914 219.162124
2133 3 366.690529 446.301876 267.915414
2134 2 -306.530220 -226.477487 276.200035
2135 3 -306.490114 -184.784376 299.337739
2136 3 -302.805196 -168.049522 226.184370
2137 2 -549.269624 425.169350 -54.015280
2138 3 -502.342187 414.970955 -37.654423
2139 3 -561.255418 405.917534 -41.513587
2140 2 4.945278 761.475309 131.154832
2141 3 55.343970 689.660246 143.390308
2142 3 37.191945 679.868140 20.415155
2143 2 130.648957 538.243762 562.681246
2144 3 140.541772 565.949495 573.781913
2145 3 133.053220 539.090397 628.123751
2146 2 -18.381610 328.000991 10.460611
2147 3 -12.517563 344.016728 17.295864
2148 3 -6.736529 381.693612 -88.428975
2149 2 259.452512 104.285340 154.148271
2150 3 301.541497 93.689466 -17.585213
2151 3 229.689913 195.905762 109.621929
2152 2 16.776802 324.868969 181.503799
2153 3 -4.952940 445.204734 114.821929
2154 3 45.129276 389.336593 248.089462
2155 2 143.539576 575.179590 152.998415
2156 3 192.824095 581.636728 67.433361
2157 3 198.418891 523.112367 155.315693
2158 2 180.819764 732.629438 260.905198
2159 3 121.140003 754.773504 214.693467
2160 3 188.758429 774.703401 305.942644
2161 2 202.917822 529.393044 -40.829527
2162 3 190.403403 627.623179 -58.122518
2163 3 196.883266 527.243402 1.060834
2164 2 54.667025 184.936190 363.740673
2165 3 18.212393 211.964998 300.054330
2166 3 54.896386 264.720837 205.843652
2167 2 318.854015 94.140532 116.757958
2168 3 334.419569 1.551861 121.330636
2169 3 260.428884 37.943047 30.910886
2170 2 -85.152052 299.829399 -30.988512
2171 3 -110.226332 238.229592 -23.385374
2172 3 -51.545849 305.717532 96.871424
2173 2 -43.113791 -212.201942 -189.619175
2174 3 -105.255287 -124.592820 -281.299863
2175 3 -85.011583 -164.702102 -206.201923
2176 2 -129.807167 43.437160 235.631191
2177 3 -128.227751 84.978476 204.892871
2178 3 -180.988831 38.912618 353.404867
2179 2 -317.737879 322.501115 148.335646
2180 3 -332.307341 267.694096 165.720832
2181 3 -345.239187 302.895161 207.987779
2182 2 -179.350612 23.452514 135.059779
2183 3 -174.790684 14.036389 113.225320
2184 3 -200.654500 70.673704 149.439428
2185 2 -301.872110 -222.953241 230.163207
2186 3 -227.458624 -291.532802 92.332836
2187 3 -216.212338 -256.604518 197.200938
2188 2 48.591100 8.614629 236.492628
2189 3 10.379154 -9.562210 180.771192
2190 3 -1.540178 -141.853423 282.010224
2191 2 286.943220 -77.353277 142.872626
2192 3 290.185345 -95.032545 217.096213
2193 3 269.348013 -115.197257 219.573173
2194 2 561.985383 -83.230265 231.327363
2195 3 455.565286 -138.218580 145.322129
2196 3 495.385807 -146.248814 241.367887
2197 2 292.410105 -139.969855 244.543262
2198 3 284.306061 -171.744711 256.889328
2199 3 282.834539 -259.827370 268.775283
2200 2 -295.824391 -214.229372 116.513039
2201 3 -201.375051 -311.893345 -47.653389
2202 3 -250.877602 -188.882615 102.627389
2203 2 88.920266 115.444410 227.696599
2204 3 105.924754 197.420002 169.444630
2205 3 16.903600 106.687989 189.535927
2206 2 275.986574 -258.315030 338.836272
2207 3 317.297967 -142.384280 435.875802
2208 3 236.382088 -151.451158 483.296029
2209 2 561.284921 -23.732789 200.328985
2210 3 628.132577 58.896162 189.249279
2211 3 571.417755 16.676603 238.315123
2212 2 -573.022761 107.827816 302.746104
2213 3 -521.491543 83.060638 209.600902
2214 3 -514.873639 51.750745 342.417567
2215 2 -18.955696 252.461076 67.425048
2216 3 -0.233347 247.242251 6.376268
2217 3 13.538427 260.433898 120.184627
2218 2 -413.989744 -355.715011 27.932981
2219 3 -363.589012 -368.327025 79.583046
2220 3 -438.426778 -322.614616 56.735412
2221 2 91.592515 94.673632 135.093232
2222 3 89.701359 121.629315 89.421306
2223 3 52.780368 85.508687 132.400544
2224 2 -179.900633 -112.178264 204.433239
2225 3 -249.378645 -51.625158 305.034856
2226 3 -214.305271 -122.760294 243.898430
2227 2 278.674981 -164.066441 227.282432
2228 3 372.464556 -151.727465 299.091168
2229 3 295.579512 -138.078290 190.283867
2230 2 52.324859 196.854965 316.478559
2231 3 100.736318 176.742738 231.615247
2232 3 110.388700 246.739871 329.147844
2233 2 -477.924282 2.778735 375.145831
2234 3 -406.899196 -9.511994 467.587598
2235 3 -519.935570 40.907694 451.460533
2236 2 260.545381 -43.536342 123.028398
2237 3 225.898383 -114.234613 85.124153
2238 3 308.988562 16.403275 89.864470
2239 2 55.676573 -7.525020 174.862895
2240 3 83.211759 -80.278840 201.570177
2241 3 42.032636 -136.926429 184.278108
2242 2 272.239562 -59.473229 -117.011469
2243 3 332.143881 -34.228538 6.899387
2244 3 322.515959 -95.787255 -18.153482
2245 2 470.519070 -78.392186 400.933036
2246 3 410.287937 -72.690275 400.597842
2247 3 453.221885 -83.080731 407.795822
2248 2 -52.650107 -324.257378 -111.433172
2249 3 -9.201413 -214.519409 -249.507618
2250 3 -55.332499 -307.099039 -159.330468
2251 2 -236.239317 -127.325091 -70.988139
2252 3 -188.119079 -187.305778 -123.837933
2253 3 -268.919743 -124.978872 -50.038745
2254 2 16.276135 305.064234 234.896369
2255 3 -30.216415 251.263434 144.221844
2256 3 53.882515 316.323827 124.883276
2257 2 -341.548846 107.564516 247.296167
2258 3 -291.605672 117.170666 165.528058
2259 3 -235.796870 205.991204 229.669992
2260 2 -49.857639 27.655353 214.400491
2261 3 -42.748492 97.010774 125.805391
2262 3 -50.078161 29.245628 195.809660
2263 2 110.960241 199.002935 302.931618
2264 3 171.146621 217.041860 312.596187
2265 3 80.794549 188.480263 275.710603
2266 2 -196.491589 142.979733 -217.205239
2267 3 -170.780136 151.254596 -125.537715
2268 3 -164.782667 134.678391 -122.116600
2269 2 47.631755 121.425912 174.590271
2270 3 50.448977 125.826632 91.253756
2271 3 40.812076 16.179748 182.467828
2272 2 90.685601 152.357515 82.621643
2273 3 121.559791 162.967748 120.407681
2274 3 77.311745 161.997198 126.861706
2275 2 2.686436 41.435224 91.144411
2276 3 43.215399 -8.985648 156.583290
2277 3 -20.141330 -82.539200 228.329604
2278 2 -168.327029 -87.911079 19.059954
2279 3 -195.917139 -67.862657 24.031700
2280 3 -180.994858 -133.673853 -9.887048
2281 2 -27.850301 -195.673456 53.671480
2282 3 -52.589621 -146.302881 77.155735
2283 3 -32.193138 -240.933219 -18.070867
2284 2 9.860120 374.722752 -42.217756
2285 3 33.919714 386.244528 -94.683639
2286 3 2.635556 373.542231 -124.067307
2287 2 429.139371 334.451530 -114.707661
2288 3 484.887212 308.926122 -135.151386
2289 3 378.194780 316.335565 -19.484772
2290 2 -466.191350 440.508010 -219.037993
2291 3 -372.309534 495.085429 -199.677541
2292 3 -395.767533 418.327818 -326.786276
2293 2 21.055086 -148.878897 238.074254
2294 3 -42.975189 -197.271609 171.321124
2295 3 -61.465483 -155.929792 253.307259
2296 2 -126.430759 -14.010782 300.932023
2297 3 -107.666921 -48.103017 259.009136
2298 3 -157.481396 -13.243722 192.856314
2299 2 -372.644186 -309.084597 346.457867
2300 3 -382.977673 -325.797876 406.940105
2301 3 -290.963803 -345.495786 374.678633
2302 2 5.990101 -196.518693 -63.664789
2303 3 -16.705051 -164.522797 -43.427894
2304 3 -5.050137 -156.224649 -133.644360
2305 2 -135.389452 216.531620 428.013449
2306 3 -109.226136 301.294788 437.229974
2307 3 -60.655205 285.057069 470.736642
2308 2 39.740119 508.091295 192.644322
2309 3 97.756312 590.356019 240.360478
2310 3 73.320640 445.478564 271.682536
2311 2 81.903244 85.194575 -86.942901
2312 3 70.330388 91.424880 -135.953777
2313 3 77.472618 115.493580 -57.227988
2314 2 259.235146 -402.423119 314.793824
2315 3 203.855517 -376.071266 325.723370
2316 3 247.782438 -361.178245 335.200065
2317 2 87.412946 179.461386 -462.566342
2318 3 186.019552 145.252013 -425.627248
2319 3 117.094643 154.355130 -479.909154
2320 2 -54.153138 42.553417 -279.932683
2321 3 -34.928944 -8.895561 -236.815859
2322 3 -4.190942 125.178101 -256.164723
2323 2 12.939033 231.579573 293.391652
2324 3 49.140243 129.506046 209.764606
2325 3 38.901134 138.856970 237.484020
2326 2 169.077762 339.485577 95.848286
2327 3 207.276172 313.223887 139.622447
2328 3 215.214776 338.009637 105.672080
2329 2 -399.073971 594.313512 -47.713818
2330 3 -449.243361 554.134124 -29.309124
2331 3 -460.963277 632.701957 -70.927876
2332 2 -146.560567 279.312161 306.269830
2333 3 -147.866217 268.140418 352.949773
2334 3 -169.835884 249.625705 284.834112
2335 2 42.018610 -340.996747 117.884187
2336 3 19.079755 -273.718612 129.692025
2337 3 -33.529499 -308.626979 128.991736
2338 2 250.744512 397.641781 184.949308
2339 3 330.367510 328.869247 181.687265
2340 3 302.639297 343.703763 139.698764
2341 2 322.980838 249.422454 376.657580
2342 3 369.617032 218.437370 352.548264
2343 3 251.536352 264.951532 388.435389
2344 2 -223.109505 204.836910 -44.155233
2345 3 -226.964583 252.696621 77.943462
2346 3 -203.648594 135.457527 71.847036
2347 2 -67.619587 359.912472 -115.013757
2348 3 -103.288492 310.042421 -114.843733
2349 3 -114.593138 303.263469 -105.549831
2350 2 20.732011 44.116522 11.155321
2351 3 -16.050817 -61.503556 73.230163
2352 3 -51.564621 -23.961826 124.527905
2353 2 -15.537402 591.385167 305.157633
2354 3 -58.046720 564.327927 355.705058
2355 3 -34.729418 601.239246 299.970559
2356 2 -107.138863 36.799232 434.849997
2357 3 -98.877624 -109.468313 479.331123
2358 3 -108.454238 -40.318987 451.913265
2359 2 -367.318916 2.306860 265.625481
2360 3 -369.476923 -55.512027 362.730220
2361 3 -395.336992 -26.320053 279.640469
2362 2 -187.797861 217.851762 268.458430
2363 3 -143.723914 170.306719 233.809507
2364 3 -186.343114 247.159631 197.164662
2365 2 198.429946 193.679657 -95.979439
2366 3 95.540186 209.486821 -62.943225
2367 3 98.831667 163.206075 -97.002716
2368 2 211.132089 230.767132 358.341072
2369 3 141.505572 302.901546 427.878198
2370 3 193.377543 307.285610 384.968975
2371 2 -390.968572 -13.244235 364.104984
2372 3 -379.701727 -19.378917 461.690501
2373 3 -360.922125 -64.391291 453.424166
2374 2 -259.033387 200.971920 138.128402
2375 3 -162.950512 140.768201 263.616439
2376 3 -226.871134 141.838773 254.424787
2377 2 385.844125 367.159624 579.835924
2378 3 466.317187 300.656725 506.403196
2379 3 380.458117 344.474985 487.140519
2380 2 146.970239 372.429064 -161.972460
2381 3 176.251862 366.420696 -63.823898
2382 3 116.995420 383.516332 -169.609406
2383 2 -30.486483 231.856823 -59.850163
2384 3 -32.539190 217.253945 26.999533
2385 3 -89.843995 194.954886 69.294213
2386 2 -445.785225 -26.402148 775.384000
2387 3 -431.810944 58.311652 672.939812
2388 3 -418.114669 26.865923 745.304591
2389 2 -551.041189 90.457461 377.263166
2390 3 -472.175348 82.932865 306.288244
2391 3 -502.506259 162.129855 372.228909
2392 2 -342.749584 359.343832 479.254954
2393 3 -299.960581 366.646784 433.083392
2394 3 -327.954820 277.987746 377.526620
2395 2 51.088276 345.767015 125.897567
2396 3 13.478938 324.610983 177.178070
2397 3 0.185333 241.183329 102.037505
2398 2 -80.233691 294.319549 127.664052
2399 3 -53.620822 191.886236 207.399316
2400 3 -85.092534 189.845136 131.315722
2401 2 -131.477037 303.266571 -78.991537
2402 3 -136.610909 327.911286 -51.483505
2403 3 -126.992366 365.059457 14.714418
2404 2 -50.845042 448.705430 265.365589
2405 3 -12.621609 561.234525 210.310518
2406 3 35.295443 461.114284 230.479506
2407 2 328.112603 347.334637 182.635960
2408 3 352.692978 388.989966 187.679757
2409 3 298.097511 318.290502 60.770268
2410 2 561.703581 -80.427812 139.755946
2411 3 585.575877 -115.412443 174.688563
2412 3 599.670599 -97.714809 158.818089
2413 2 86.108966 249.189008 17.123346
2414 3 137.407504 233.293187 138.416969
2415 3 61.722141 254.688443 78.441124
2416 2 -236.166377 268.200809 -78.872136
2417 3 -221.047289 186.249779 22.264972
2418 3 -223.970834 241.215121 48.921580
2419 2 -1.646172 442.377711 310.410101
2420 3 6.167176 474.665467 257.132541
2421 3 25.009707 381.259865 181.838163
2422 2 279.597788 364.196674 303.362262
2423 3 378.741227 379.032346 254.190506
2424 3 332.469240 403.331315 243.081554
2425 2 -282.420073 647.729142 10.702668
2426 3 -282.910687 647.430894 -132.591975
2427 3 -269.127323 614.956612 -57.117412
2428 2 -384.997761 78.216914 535.391738
2429 3 -440.802274 101.274488 637.768909
2430 3 -444.928875 98.625073 572.429328
2431 2 -301.795250 118.144881 369.100271
2432 3 -297.688838 64.416902 232.062092
2433 3 -210.036561 117.428265 273.174173
2434 2 95.290922 590.391902 -120.081531
2435 3 132.259568 621.453828 -107.714319
2436 3 86.071799 689.048790 -164.852220
2437 2 212.134442 432.117982 385.957581
2438 3 137.719798 415.785327 475.360386
2439 3 154.533271 439.521404 429.429914
2440 2 316.441543 197.073785 308.041619
2441 3 325.293451 208.941565 248.355462
2442 3 324.560081 205.909648 390.966818
2443 2 455.312917 123.911957 -484.134894
2444 3 410.953420 115.190460 -488.865140
2445 3 450.084745 154.014630 -481.888027
2446 2 306.016678 222.609851 368.040404
2447 3 347.536637 218.958360 395.285038
2448 3 252.981474 142.780382 365.172785
2449 2 60.183500 114.104996 -30.933974
2450 3 76.122154 119.773700 -82.644296
2451 3 52.665224 60.359148 -27.470881
2452 2 158.275796 381.245208 290.611531
2453 3 128.979691 403.044867 272.473967
2454 3 185.823607 421.935034 335.125852
2455 2 592.148277 292.804351 328.116670
2456 3 514.547242 417.818322 331.135261
2457 3 593.445177 258.602329 314.163938
2458 2 146.385732 378.749789 414.070958
2459 3 151.528232 321.131817 452.137970
2460 3 144.723047 297.777855 581.374059
2461 2 531.842603 304.007597 481.996733
2462 3 570.539367 380.363572 450.164521
2463 3 474.232385 354.037810 402.373267
2464 2 -202.376542 608.798633 209.277019
2465 3 -135.749272 630.561620 216.009924
2466 3 -214.718039 533.345246 298.106215
2467 2 -360.414453 171.669358 197.997075
2468 3 -309.976819 185.969869 209.491539
2469 3 -277.469512 202.288414 201.417175
2470 2 -139.403315 278.127777 176.534104
2471 3 -133.348904 293.719102 147.937892
2472 3 -122.731519 336.140148 187.601190
2473 2 -16.384172 426.598249 52.791356
2474 3 -49.947446 392.975313 8.310377
2475 3 -59.615709 477.738709 64.014727
2476 2 23.088623 -171.061521 -122.433268
2477 3 -6.225027 -106.793743 -268.206428
2478 3 10.255420 -104.253875 -165.354218
2479 2 3.738568 362.581584 168.318613
2480 3 8.936614 456.214856 61.162178
2481 3 -66.858146 352.555089 69.957026
2482 2 56.971815 60.383901 -32.195666
2483 3 72.384589 5.136972 -113.225628
2484 3 68.848879 125.897895 -145.895492
2485 2 122.983097 741.688332 -249.312676
2486 3 108.609617 681.354997 -307.514890
2487 3 53.249641 756.187138 -296.233802
2488 2 13.163142 305.939727 167.887590
2489 3 -48.162503 327.299009 94.094486
2490 3 39.450983 399.441512 160.638775
2491 2 111.942856 246.202415 -25.533316
2492 3 132.096938 291.963828 -20.550917
2493 3 113.363056 225.754994 56.555865
2494 2 12.452139 424.980787 305.613668
2495 3 19.695144 434.710008 274.188335
2496 3 -52.593479 518.755154 283.203718
2497 2 16.100808 240.262709 156.195121
2498 3 45.136446 210.521321 197.219722
2499 3 79.557291 186.786734 203.901848
2500 2 -355.703567 92.245356 392.733644
2501 3 -269.827908 181.098173 415.242384
2502 3 -348.905765 102.434697 550.674304
2503 2 -32.768996 302.908966 138.070473
2504 3 -12.504545 297.508556 133.663270
2505 3 1.456135 393.548453 211.964586
2506 2 -61.128385 204.761831 327.791366
2507 3 -16.642038 336.652290 376.407744
2508 3 2.812158 237.383900 311.632011
2509 2 -255.223566 475.825919 169.906052
2510 3 -310.187727 409.230304 111.336048
2511 3 -268.727717 466.744157 99.953697
2512 2 -136.563778 476.248659 254.549927
2513 3 -158.369951 618.350147 349.331280
2514 3 -160.207061 511.212461 308.884918
2515 2 -57.801641 317.252688 -278.342938
2516 3 -82.033493 336.099097 -234.724891
2517 3 -96.937415 295.736832 -275.808649
2518 2 -54.001570 185.419762 354.006393
2519 3 -2.856620 209.516895 461.676994
2520 3 -19.759738 306.327893 452.605684
2521 2 -294.812424 586.093529 450.137545
2522 3 -223.381816 599.548469 381.063151
2523 3 -265.787829 648.792894 417.940764
2524 2 144.031953 426.846535 312.174787
2525 3 181.888341 423.828484 301.431898
2526 3 152.365761 357.413709 311.226922
2527 2 -71.831496 668.452277 123.066104
2528 3 -39.829883 653.598360 71.948484
2529 3 32.399411 733.007051 155.676138
2530 2 456.281820 530.785027 240.958037
2531 3 471.939270 483.931201 209.505765
2532 3 520.439787 525.168230 196.680305
2533 2 272.085843 248.392257 -10.940109
2534 3 240.450885 197.234905 -45.424052
2535 3 188.837051 162.685146 -1.314112
2536 2 250.159882 620.735760 132.688105
2537 3 244.654271 586.141878 205.304179
2538 3 316.234876 620.929523 214.014647
2539 2 98.304151 460.312532 413.746946
2540 3 83.347385 558.189411 378.658707
2541 3 123.644192 441.640181 347.229555
2542 2 -233.709018 -154.754243 180.230501
2543 3 -232.760574 -156.218324 86.038007
2544 3 -167.154835 -126.520283 185.841965
2545 2 -263.754626 60.913911 8.108682
2546 3 -285.579595 71.408854 3.364172
2547 3 -312.950232 96.771428 35.979029
2548 2 -139.120416 -378.346648 479.187716
2549 3 -139.452221 -323.735050 490.093127
2550 3 -109.614020 -371.909580 415.336820
2551 2 -340.193106 196.003556 121.922724
2552 3 -327.082127 194.205467 81.816917
2553 3 -328.548447 230.860517 139.556556
2554 2 119.028252 125.516031 6.570202
2555 3 44.670837 24.079352 -96.741689
2556 3 60.940285 -55.213924 0.484764
2557 2 -314.598077 -233.874447 237.831171
2558 3 -350.797154 -187.964580 340.393560
2559 3 -375.740086 -201.232553 335.777677
2560 2 399.890212 -85.454272 248.940437
2561 3 396.747624 -86.720583 240.760290
2562 3 349.896160 -58.629300 209.576638
2563 2 54.485054 -205.867366 -39.925992
2564 3 43.646686 -144.892592 91.909059
2565 3 -36.546857 -161.243309 -31.372733
2566 2 8.602262 48.806992 145.403695
2567 3 -11.540664 130.038721 168.772996
2568 3 7.067229 64.870149 224.532590
2569 2 93.489494 -108.719624 536.013377
2570 3 86.224687 -162.422508 504.338042
2571 3 88.869974 -144.051886 550.588356
2572 2 123.121644 201.765827 175.862628
2573 3 140.181915 113.468058 132.971930
2574 3 168.361228 76.093393 148.227962
2575 2 236.500188 405.627162 93.595021
2576 3 201.323726 347.221396 73.196171
2577 3 182.259450 462.678440 86.271297
2578 2 293.923088 -167.403310 273.933369
2579 3 332.899782 -210.194079 228.222529
2580 3 326.052309 -229.122044 126.211726
2581 2 -51.080114 176.229883 394.129923
2582 3 -59.874629 156.364877 458.116181
2583 3 -121.774227 182.280078 401.585637
2584 2 -137.302953 -162.422888 65.388269
2585 3 -157.960412 -95.790463 133.368716
2586 3 -121.005274 -223.525804 88.335256
2587 2 -540.879514 -65.120329 545.222742
2588 3 -561.179051 -96.409673 590.334659
2589 3 -552.570934 -17.803529 549.846633
2590 2 -108.332317 -88.177861 143.803119
2591 3 -154.374859 -96.051430 151.006524
2592 3 -72.419485 -67.238012 256.100333
2593 2 -353.942306 78.871022 238.060563
2594 3 -387.799855 55.642411 166.895515
2595 3 -373.437998 57.520315 167.724569
2596 2 -151.979668 46.628916 365.215630
2597 3 -166.835725 30.787694 363.437142
2598 3 -133.904052 -12.662592 365.893989
2599 2 -264.540279 143.282275 356.843862
2600 3 -386.894500 241.180546 313.468825
2601 3 -313.176768 265.076101 310.468630
2602 2 83.917391 -117.316506 60.721164
2603 3 99.470127 -159.336312 88.818414
2604 3 85.950249 -147.261435 77.032039
2605 2 172.257411 -171.548879 487.136460
2606 3 173.464731 -127.614809 568.454827
2607 3 242.316983 -109.454158 500.151457
2608 2 -14.786339 86.508080 533.637939
2609 3 -49.679344 129.560622 571.477367
2610 3 30.769661 100.949231 504.741064
2611 2 -61.192999 137.499113 248.798986
2612 3 -150.693072 7.947300 237.364416
2613 3 -59.454928 47.193206 214.624568
2614 2 209.878919 478.764299 203.342705
2615 3 159.319796 377.554155 216.810452
2616 3 133.946632 333.220531 54.067574
2617 2 62.989766 -9.691908 134.856709
2618 3 77.996751 -81.959757 99.031563
2619 3 51.845778 -66.883212 26.337144
2620 2 -415.927353 189.908614 276.370325
2621 3 -387.151060 125.175881 242.776491
2622 3 -383.521063 66.507932 255.540581
2623 2 -228.362031 -8.167913 161.711632
2624 3 -267.906149 -24.356203 251.877785
2625 3 -261.315951 -125.226383 103.603263
2626 2 -297.354728 -441.374548 274.122887
2627 3 -310.045298 -404.951439 241.750409
2628 3 -254.835891 -420.815224 220.664537
2629 2 -156.699034 207.688686 -154.130330
2630 3 -152.724487 249.854377 -154.625629
2631 3 -149.172730 273.829557 -41.180838
2632 2 288.662501 411.240341 169.967810
2633 3 241.839656 431.714156 61.649996
2634 3 221.842109 408.495633 154.644327
2635 2 176.160520 -71.415579 297.221898
2636 3 201.582579 -23.969911 238.119535
2637 3 221.642996 34.573471 332.917882
2638 2 -197.881962 6.022580 686.194128
2639 3 -169.408510 77.603372 655.314357
2640 3 -191.835697 22.858866 688.523842
2641 2 62.781684 85.356508 264.829049
2642 3 20.006183 -37.764617 373.828747
2643 3 27.787666 24.279679 353.941258
2644 2 10.454503 115.849049 530.854127
2645 3 59.049348 109.613795 495.292638
2646 3 53.119229 151.097125 580.535724
2647 2 315.707878 71.422040 151.099982
2648 3 324.876467 66.007642 71.050563
2649 3 361.380616 114.606426 136.640234
2650 2 -552.717505 267.491332 115.440966
2651 3 -485.771051 154.423625 183.293819
2652 3 -476.856531 188.744361 160.490257
2653 2 314.237243 33.308253 162.975677
2654 3 254.543216 57.199345 259.742924
2655 3 225.214338 64.493170 146.346763
2656 2 -1.609599 -1.104502 367.425962
2657 3 -14.519303 97.353418 342.762577
2658 3 -6.450544 82.996183 297.440440
2659 2 10.136444 -127.720083 -37.661034
2660 3 7.659363 -203.216955 4.361714
2661 3 -22.325830 -98.966380 -49.248305
2662 2 60.593169 47.968657 15.833846
2663 3 41.262485 34.040751 28.327238
2664 3 28.793231 73.903292 36.322716
2665 2 -356.348639 -334.610522 472.252488
2666 3 -396.751572 -286.105511 499.532401
2667 3 -355.206149 -204.987600 409.211549
2668 2 -29.995000 253.169383 353.709357
2669 3 -3.641304 219.491650 312.853829
2670 3 -30.207239 195.086555 240.485488
2671 2 235.593970 -138.360269 255.689856
2672 3 200.514582 -90.399465 157.296762
2673 3 223.450353 -154.677005 236.758277
2674 2 -56.910701 23.945245 -74.585930
2675 3 -42.955937 -41.685320 60.154129
2676 3 -100.051950 67.767671 110.012405
2677 2 518.742765 -36.472018 -89.212694
2678 3 477.071848 31.767900 -48.665729
2679 3 435.186819 48.141159 -23.128646
2680 2 506.545324 175.722272 375.533206
2681 3 443.478623 147.271119 379.451688
2682 3 492.085778 118.483799 400.504735
2683 2 253.433338 -44.547564 -32.585177
2684 3 237.924282 -61.668257 115.055205
2685 3 244.207190 -88.454434 50.666338
2686 2 79.297002 74.587139 483.556457
2687 3 54.556743 6.932192 429.032169
2688 3 82.255292 64.876664 437.421060
2689 2 310.496443 202.098223 52.230267
2690 3 350.421629 218.293112 -2.877006
2691 3 270.036889 208.485877 9.264069
2692 2 272.873666 -111.456182 301.560728
2693 3 257.065578 -83.509271 128.351867
2694 3 205.929775 -97.427714 221.595223
2695 2 -385.225012 -45.525245 460.559742
2696 3 -363.454323 -89.550245 438.876421
2697 3 -402.378683 -58.240246 406.531068
2698 2 393.405000 40.400926 -49.826831
2699 3 343.500773 97.429211 41.161408
2700 3 368.064509 51.304096 168.341595
2701 2 -67.995158 368.789524 430.594587
2702 3 -25.875298 371.600583 415.289067
2703 3 -38.053826 370.461539 310.155965
2704 2 193.555160 271.887225 552.386070
2705 3 118.169863 296.703763 473.584408
2706 3 112.925465 287.271694 478.227119
2707 2 -110.087034 -51.509058 275.414360
2708 3 -215.575745 -90.919406 327.980477
2709 3 -116.769509 39.598892 311.913769
2710 2 -51.528964 26.515334 404.946692
2711 3 -72.371540 93.443438 360.511659
2712 3 -118.712517 4.806386 401.827723
2713 2 -348.452939 109.740059 97.073388
2714 3 -422.176144 123.931661 29.711061
2715 3 -399.288231 73.135441 115.437165
2716 2 78.596510 128.369822 348.583800
2717 3 82.333557 176.838388 293.205493
2718 3 66.802785 147.219090 378.701552
2719 2 -179.581154 78.746905 79.670281
2720 3 -284.374099 67.115233 68.466007
2721 3 -128.144433 23.557134 129.286087
2722 2 -400.590702 545.306152 -71.235863
2723 3 -410.828693 595.685912 5.186341
2724 3 -361.496476 467.258396 30.988696
2725 2 -277.393787 441.330744 -159.854147
2726 3 -305.759727 465.741252 -142.806102
2727 3 -258.612804 487.305184 -179.729475
2728 2 -349.219760 271.263575 177.539926
2729 3 -327.926299 219.567672 211.413618
2730 3 -254.033427 222.133881 90.797855
2731 2 -135.169757 512.511576 61.385223
2732 3 -148.251846 587.828520 86.601394
2733 3 -98.127197 594.172477 -11.140453
2734 2 -293.294042 398.800469 -37.558281
2735 3 -225.478937 306.674794 -89.596351
2736 3 -268.095044 368.012007 -7.562479
2737 2 213.843211 253.849227 449.537163
2738 3 290.373525 284.637613 548.814813
2739 3 234.472605 370.805277 536.747755
2740 2 -315.260010 -243.129903 360.024422
2741 3 -262.444933 -241.452050 413.641624
2742 3 -339.890943 -244.626187 430.446641
2743 2 203.282128 -173.182717 -344.055391
2744 3 206.152256 -110.729767 -353.769780
2745 3 171.336798 -168.737182 -438.302733
2746 2 413.242986 101.487584 365.826604
2747 3 379.917956 146.407736 339.604749
2748 3 349.231983 137.200554 517.790455
2749 2 -486.366059 171.717190 440.630442
2750 3 -421.014378 212.162319 409.662177
2751 3 -474.011941 181.323439 392.343206
2752 2 78.270486 372.221617 307.720024
2753 3 95.306797 288.006365 332.971133
2754 3 44.461978 322.070226 342.775493
2755 2 147.174861 319.796547 122.105913
2756 3 53.032975 345.158691 178.718050
2757 3 136.091722 423.182393 160.275046
2758 2 -234.292859 315.511493 355.279968
2759 3 -188.044549 251.129698 359.762150
2760 3 -207.770019 278.277418 215.670836
2761 2 -23.797056 181.339009 325.428346
2762 3 22.411761 126.962255 294.224434
2763 3 -29.320289 192.990523 300.871280
2764 2 58.288080 455.906239 368.377997
2765 3 49.441309 390.754453 439.651689
2766 3 79.393138 396.846263 548.613874
2767 2 -41.331041 431.384801 -7.777138
2768 3 -82.714062 381.276316 4.556836
2769 3 -1.811783 445.827015 -13.533123
2770 2 -70.140636 126.030734 206.268521
2771 3 -111.003777 96.359506 163.830407
2772 3 -57.697901 124.702526 160.773491
2773 2 -64.288418 390.392227 358.264165
2774 3 -140.481468 316.115133 429.863862
2775 3 -127.544519 305.128457 379.013312
2776 2 41.035795 276.793632 188.813818
2777 3 -55.070134 310.539570 317.515583
2778 3 2.084181 290.922243 280.225223
2779 2 127.723699 302.135585 154.494785
2780 3 158.554172 442.772201 -2.116167
2781 3 127.669567 310.949083 24.875138
2782 2 -281.095146 141.221137 278.059322
2783 3 -313.094929 110.673746 271.084497
2784 3 -245.790775 131.697090 217.157012
2785 2 244.314763 18.440708 224.250943
2786 3 278.152124 4.395433 296.146273
2787 3 268.520381 72.255064 282.617101
2788 2 -119.741825 362.920853 358.463776
2789 3 -154.491147 365.167407 259.593668
2790 3 -110.302699 378.065262 294.071008
2791 2 -145.468992 84.366390 233.821888
2792 3 -61.431410 51.708108 220.756168
2793 3 -167.779362 15.606780 219.918017
2794 2 -452.963874 236.068942 300.021190
2795 3 -455.247424 169.860519 392.483217
2796 3 -372.063820 260.483479 261.237901
2797 2 30.700437 -120.560462 337.710126
2798 3 -13.946949 -172.803659 228.587725
2799 3 -9.535702 -95.035479 248.920860
2800 2 -242.134550 205.924062 -324.282598
2801 3 -237.874369 146.733754 -329.469230
2802 3 -178.066851 177.555301 -388.074006
2803 2 -119.032354 382.077034 70.296192
2804 3 -127.156142 376.116499 144.733529
2805 3 -112.699086 424.064242 54.647523
2806 2 337.630610 289.774685 169.123090
2807 3 353.892287 211.483098 193.756112
2808 3 249.215457 314.147608 260.982640
2809 2 504.070980 147.125888 185.832924
2810 3 523.618931 138.365856 165.025820
2811 3 476.352997 157.645321 200.965071
2812 2 139.287357 106.162346 507.787555
2813 3 85.863425 60.233306 488.554918
2814 3 131.108993 80.544238 410.775407
2815 2 182.080490 443.250345 200.736916
2816 3 150.772775 399.847558 189.462323
2817 3 156.379982 355.408173 207.376510
2818 2 -106.991639 419.853081 465.727848
2819 3 -122.374152 381.487108 444.975897
2820 3 -80.573476 350.452732 408.538689
2821 2 225.027625 88.031709 521.549071
2822 3 205.002026 125.609021 588.715225
2823 3 118.777972 120.051391 558.927243
2824 2 283.259756 119.982668 81.047545
2825 3 274.523261 175.905590 67.438670
2826 3 238.568443 22.361311 -1.428372
2827 2 -79.902484 436.476533 261.605035
2828 3 -48.450258 483.843229 350.402218
2829 3 9.777777 451.820362 234.416735
2830 2 -69.299465 374.795185 811.019960
2831 3 -62.676513 341.458120 656.232810
2832 3 -72.069969 332.731226 720.292174
2833 2 -363.471257 559.343841 347.184643
2834 3 -304.775467 608.657477 287.251343
2835 3 -446.112827 583.698915 379.242630
2836 2 78.523533 273.252037 296.124445
2837 3 74.572867 157.809695 239.221988
2838 3 52.812158 157.972883 366.575116
2839 2 -115.031617 741.362231 239.481456
2840 3 -76.519365 659.228446 303.387135
2841 3 -61.702249 685.138857 331.780370
2842 2 -219.649077 415.851465 414.720791
2843 3 -249.975600 468.028159 454.437903
2844 3 -175.310903 400.241470 394.947113
2845 2 157.004287 411.029032 124.128314
2846 3 122.795718 485.803578 94.871424
2847 3 149.043535 384.310270 31.812643
2848 2 -6.102289 234.484215 -35.176002
2849 3 52.912490 255.688915 -122.594518
2850 3 68.387402 257.160902 -88.256267
2851 2 -53.079724 521.301689 551.949429
2852 3 -81.979385 546.111371 478.312440
2853 3 -16.306188 480.995710 523.228768
2854 2 115.840703 144.910411 114.998872
2855 3 121.948186 161.990508 220.079506
2856 3 199.959556 122.179231 193.835732
2857 2 163.971424 365.572814 112.039354
2858 3 125.096548 403.480074 73.259432
2859 3 89.566978 326.392439 55.413892
2860 2 63.262918 387.878381 8.184860
2861 3 59.959223 430.100221 -71.515775
2862 3 101.651552 441.125820 1.897794
2863 2 472.327758 323.029403 467.374628
2864 3 422.885625 268.299591 410.754888
2865 3 407.016922 241.246563 412.943706
2866 2 -165.738900 -89.185738 369.109497
2867 3 -152.630755 -150.222347 370.309376
2868 3 -209.918856 -144.174676 288.384482
2869 2 287.989180 28.054798 28.694438
2870 3 339.762068 34.971384 99.993636
2871 3 354.750116 33.047008 68.922360
2872 2 431.345717 -109.478348 307.961963
2873 3 448.167497 -189.855491 291.572460
2874 3 476.062469 -105.219537 242.403822
2875 2 30.486779 181.484681 473.520306
2876 3 -30.376192 101.084420 442.782061
2877 3 -3.501870 125.323142 424.245165
2878 2 -14.300760 268.699525 -260.149354
2879 3 -61.106877 257.851511 -365.908726
2880 3 -36.041200 187.364223 -330.230807
2881 2 -31.495104 -67.873209 256.772843
2882 3 -67.196767 -21.096442 241.617077
2883 3 -136.109732 -101.212843 147.796201
2884 2 -60.078382 -131.941005 537.181371
2885 3 -35.501243 -109.628186 420.723542
2886 3 -102.339766 -115.078588 537.561255
2887 2 129.166466 206.620661 364.888998
2888 3 154.316829 116.921042 313.333758
2889 3 235.692226 166.461678 379.662776
2890 2 234.482958 -535.512206 289.519724
2891 3 167.364162 -508.449676 294.690100
2892 3 148.325695 -470.360664 304.699975
2893 2 309.167548 -224.790602 169.440801
2894 3 330.278991 -214.320689 192.154669
2895 3 276.594696 -251.556300 160.567090
2896 2 459.707762 -190.093271 184.828449
2897 3 410.067564 -183.686338 186.737335
2898 3 391.703146 -240.643030 190.584317
2899 2 -37.934457 -154.471139 -13.998646
2900 3 -23.029463 -135.427469 121.053879
2901 3 -35.181412 -232.536607 83.161517
2902 2 273.748503 -136.891064 236.632566
2903 3 289.860972 -155.707855 208.345687
2904 3 289.083824 -142.857012 281.818529
2905 2 -226.612331 -35.854826 632.481863
2906 3 -174.489051 -24.128195 478.260222
2907 3 -234.541629 -58.992941 509.201510
2908 2 -114.142802 210.478840 41.432125
2909 3 -90.719806 159.288676 86.880679
2910 3 -102.246760 91.047494 70.276555
2911 2 260.750570 -23.791086 199.495207
2912 3 306.817565 -33.499101 161.568115
2913 3 334.169221 1.180732 121.255141
2914 2 -311.416937 -294.155632 260.250753
2915 3 -260.241521 -300.927894 201.651586
2916 3 -201.802561 -346.458460 187.273764
2917 2 109.226447 428.076105 28.153688
2918 3 37.969252 367.864860 5.356968
2919 3 119.781084 432.689176 44.823120
2920 2 238.343707 157.589750 231.132587
2921 3 207.863428 222.017295 278.893119
2922 3 248.063451 119.574767 359.747351
2923 2 -98.566698 -169.449365 61.864599
2924 3 -101.499759 -204.082976 153.220528
2925 3 -35.896781 -111.333210 149.716638
2926 2 -107.324824 143.391837 385.644603
2927 3 -107.800722 157.857452 291.873482
2928 3 -81.938854 136.170365 269.006667
2929 2 -3.116337 -103.325851 323.355350
2930 3 -14.348236 -42.899861 349.628205
2931 3 -119.160769 -131.804319 347.484853
2932 2 164.286392 115.361303 384.883174
2933 3 152.479855 92.394335 430.641270
2934 3 203.223904 167.202035 398.692813
2935 2 621.468725 -91.852706 150.851935
2936 3 637.440169 -44.745265 133.485035
2937 3 625.091179 -31.324505 134.097254
2938 2 232.126763 -15.306582 187.851247
2939 3 188.427623 -71.562422 96.816088
2940 3 171.670796 -32.668590 205.158945
2941 2 455.163240 -265.389583 446.587101
2942 3 554.533412 -186.912322 516.586628
2943 3 463.915758 -245.590473 475.162177
2944 2 127.667299 215.741727 259.056243
2945 3 79.090292 305.725316 260.727471
2946 3 149.390278 285.155076 220.376136
2947 2 -239.557587 103.943806 78.256413
2948 3 -217.678338 70.103068 -15.959736
2949 3 -231.318559 68.915591 25.843752
2950 2 -198.746890 297.701195 5.861093
2951 3 -214.056969 233.545882 31.247708
2952 3 -207.695427 225.422629 -15.934720
2953 2 -197.108757 -159.937778 519.149572
2954 3 -199.508411 -77.761740 449.513508
2955 3 -238.838465 -143.842691 584.858151
2956 2 180.546516 406.406199 155.975185
2957 3 168.328073 448.458056 175.772879
2958 3 211.705466 382.037381 243.683209
2959 2 307.146498 110.919212 175.365022
2960 3 247.235967 144.129009 176.927495
2961 3 252.342021 165.221038 175.356331
2962 2 -176.908906 450.376715 299.310744
2963 3 -198.777407 410.343531 331.261249
2964 3 -207.589012 362.452561 250.368102
2965 2 -182.969739 86.953429 362.630728
2966 3 -171.310980 97.690808 468.349285
2967 3 -166.230044 104.989176 355.525413
2968 2 -173.965985 76.565668 376.953804
2969 3 -179.149072 65.530927 330.666107
2970 3 -228.910623 176.115379 370.514854
2971 2 -234.707279 162.824676 386.718087
2972 3 -236.037333 -58.057855 333.882353
2973 3 -252.420117 28.324651 421.706207
2974 2 -22.499960 -42.277640 -199.095795
2975 3 3.175876 50.891066 -130.244482
2976 3 -8.279657 -57.130531 -143.353675
2977 2 177.635395 113.208475 152.662843
2978 3 223.308935 107.672367 136.912637
2979 3 141.356623 16.494149 139.675302
2980 2 387.549380 67.936827 22.714953
2981 3 351.435889 3.418480 4.883232
2982 3 383.040503 26.911186 13.427910
2983 2 111.128584 -343.305031 286.631236
2984 3 103.209695 -269.515874 251.291777
2985 3 115.978689 -255.153421 295.086628
2986 2 -366.681436 -20.445611 518.940551
2987 3 -342.745690 59.987708 420.632612
2988 3 -250.586359 -10.968701 481.311768
2989 2 -151.766233 116.404978 427.581753
2990 3 -139.588291 93.333557 444.113168
2991 3 -160.054476 67.248426 386.038289
2992 2 127.847394 239.618413 213.684416
2993 3 86.180384 320.157588 243.739966
2994 3 142.956560 264.720898 272.772332
2995 2 23.833664 372.337170 210.872429
2996 3 81.916129 497.574492 104.685152
2997 3 57.896831 436.466346 161.525824
2998 2 106.083329 -41.201823 -154.447128
2999 3 114.576373 -36.695179 -88.785905
3000 3 126.403209 -31.718657 -77.547847
3001 2 6.606315 140.296633 15.418351
3002 3 20.467262 155.615960 58.242039
3003 3 0.483470 95.945326 91.293155
3004 2 -163.219286 -71.470360 320.367647
3005 3 -193.401482 -135.368674 283.360502
3006 3 -174.037631 -164.957701 293.409551
3007 2 242.493282 -128.872887 427.858676
3008 3 240.496192 -143.994262 275.792215
3009 3 263.866215 -184.170381 333.307213
3010 2 -77.787103 111.767847 194.931690
3011 3 -112.047580 70.754545 142.886363
3012 3 -110.222610 117.986239 214.534192
3013 2 32.935113 -38.203136 589.860671
3014 3 -2.507770 18.178096 510.288464
3015 3 50.304003 33.417008 622.403827
3016 2 -406.012132 158.923044 -87.315349
3017 3 -343.584957 175.452944 83.835596
3018 3 -393.065101 131.101652 1.176826
3019 2 387.735810 -44.977131 289.637594
3020 3 476.017803 -53.253263 348.046486
3021 3 388.297097 -91.356795 306.608382
3022 2 -274.584224 142.962377 220.806080
3023 3 -250.328320 160.940804 292.838894
3024 3 -266.143852 168.318592 297.817206
3025 2 128.447381 30.138702 -56.520425
3026 3 110.060679 55.492428 5.933464
3027 3 92.287079 11.039463 -59.363886
3028 2 -227.796776 33.928927 395.040146
3029 3 -229.919016 56.401629 357.039450
3030 3 -122.174966 63.575839 238.164299
3031 2 299.208350 -140.350419 462.011450
3032 3 272.411917 -133.783552 409.162246
3033 3 229.541075 -205.388020 509.638447
3034 2 -286.814992 156.604497 288.420869
3035 3 -301.001537 222.732869 380.263047
3036 3 -305.701602 142.649199 312.307565
3037 2 -493.075613 274.658129 469.130309
3038 3 -381.145444 240.565883 378.449095
3039 3 -334.339261 230.423683 376.422579
3040 2 -179.614407 250.259784 280.549567
3041 3 -197.295409 287.777541 278.109991
3042 3 -185.553874 277.584772 307.491407
3043 2 24.556873 310.974413 146.082257
3044 3 40.460002 198.429642 208.850175
3045 3 -53.419053 288.251611 280.252568
3046 2 263.574824 375.368144 425.936007
3047 3 303.663490 326.909749 467.220519
3048 3 229.022852 300.164806 377.965918
3049 2 432.325466 169.775664 178.328996
3050 3 503.257916 105.853981 172.851906
3051 3 514.795568 79.727038 246.112028
3052 2 -505.749888 231.501864 276.728307
3053 3 -495.963095 209.043844 300.838657
3054 3 -495.131198 232.446461 309.428026
3055 2 -257.104997 85.639399 331.789374
3056 3 -258.818535 59.983739 296.485287
3057 3 -226.220565 70.340818 351.532533
3058 2 3.312656 382.559588 169.365453
3059 3 34.016486 343.543935 173.894419
3060 3 -35.262634 346.895598 132.983453
3061 2 -68.052716 338.385791 316.986535
3062 3 -11.693428 361.851566 334.841621
3063 3 -52.346742 408.371323 358.679956
3064 2 60.595486 80.365979 196.647756
3065 3 171.533309 83.607019 128.377691
3066 3 146.591327 89.679922 125.459754
3067 2 267.831899 144.845207 445.230494
3068 3 264.824839 104.011776 458.416575
3069 3 250.577236 230.738396 476.607575
3070 2 530.189753 63.141848 -37.219922
3071 3 448.908040 84.523366 6.143793
3072 3 436.769464 60.295245 8.524583
3073 2 -9.290635 351.171286 283.325481
3074 3 -9.671266 279.130926 369.711134
3075 3 -24.599894 346.059423 248.711340
3076 2 88.641299 202.654259 183.893242
3077 3 187.453038 274.333427 225.932559
3078 3 187.008175 273.566234 203.903859
3079 2 325.149420 219.367948 412.178439
3080 3 339.766160 205.174202 451.777054
3081 3 224.379471 200.140140 495.678390
3082 2 -84.618350 263.677337 176.188301
3083 3 -82.149349 214.864880 132.512076
3084 3 -26.103427 263.603551 158.363272
3085 2 121.314336 -217.397109 415.760988
3086 3 100.275346 -196.325112 357.966206
3087 3 124.209164 -229.122288 430.970006
3088 2 92.006072 308.816986 272.417081
3089 3 123.510378 311.345489 347.009094
3090 3 125.117144 290.957274 344.794038
3091 2 5.963755 420.972846 -21.952699
3092 3 -26.568534 466.306517 86.561524
3093 3 -34.821647 356.072235 -9.590439
3094 2 75.644709 703.554772 412.815355
3095 3 174.282762 622.198047 420.663537
3096 3 110.550079 572.940850 388.141970
3097 2 -177.443015 187.612114 457.149753
3098 3 -243.302060 222.629617 534.931294
3099 3 -241.811163 302.018755 536.204204
3100 2 71.105124 449.619998 -286.268432
3101 3 67.575124 508.431050 -438.934483
3102 3 82.829656 491.437283 -217.052606
3103 2 -310.656501 52.678552 189.940684
3104 3 -201.747418 173.499041 209.329127
3105 3 -276.252209 156.789503 226.830383
3106 2 -6.053970 59.683268 151.665721
3107 3 -72.462666 70.144713 174.244725
3108 3 -5.115967 37.728552 99.396501
3109 2 -116.584090 272.579871 117.598332
3110 3 -84.408366 217.514394 72.988123
3111 3 -137.065571 243.057926 59.780956
3112 2 126.030941 455.949207 249.101539
3113 3 146.010456 503.605697 156.979633
3114 3 133.971258 423.994515 148.979418
3115 2 -1.149101 109.591498 418.828071
3116 3 -9.651037 84.969764 427.168766
3117 3 -44.116150 30.378790 465.194298
3118 2 -111.614130 120.026418 -50.277791
3119 3 1.832366 149.711468 -67.150015
3120 3 -96.246591 96.872901 -14.031035
3121 2 213.605976 358.777138 81.437951
3122 3 218.102603 376.355632 -67.222281
3123 3 281.530023 360.799064 -44.884085
3124 2 486.042471 246.929164 148.488676
3125 3 506.150476 233.238497 53.532931
3126 3 428.471718 250.990426 173.644020
3127 2 76.626609 287.515054 284.844279
3128 3 43.134301 312.144413 103.561959
3129 3 58.244548 284.981260 117.423899
3130 2 -58.918680 138.221605 431.867571
3131 3 -96.940361 137.317673 399.522660
3132 3 -75.334945 73.743757 533.487188
3133 2 148.984806 522.431763 336.755471
3134 3 121.408494 455.382634 385.071455
3135 3 97.716526 546.888675 390.462163
3136 2 279.711894 151.316538 -52.717082
3137 3 313.287937 152.755715 66.337864
3138 3 255.385909 115.021959 56.584643
3139 2 -42.264257 163.205163 458.079646
3140 3 -108.632755 252.556255 581.200613
3141 3 -32.987514 215.436759 486.960357
3142 2 216.830711 199.448147 -290.809512
3143 3 202.382874 255.279570 -246.427897
3144 3 191.185999 170.469892 -296.037144
3145 2 239.799280 337.548430 77.309798
3146 3 168.445975 322.912543 149.084666
3147 3 271.444394 378.076057 128.026711
3148 2 91.412167 80.608176 378.202765
3149 3 128.626083 30.141764 276.281204
3150 3 154.582300 3.183074 294.969736
3151 2 176.724826 413.420909 69.918070
3152 3 151.396710 474.795373 -9.496345
3153 3 176.115263 497.563028 56.695374
3154 2 -248.337787 184.115721 247.415347
3155 3 -147.511747 279.483118 293.106241
3156 3 -218.281382 153.568612 426.770024
3157 2 -67.145593 30.719182 406.343783
3158 3 -78.794720 169.455325 420.594602
3159 3 -139.581660 145.119006 274.385584
3160 2 237.003078 384.937264 290.668363
3161 3 279.388655 461.710688 432.654648
3162 3 258.441703 452.444771 358.431337
3163 2 -20.597850 486.963270 175.370133
3164 3 19.487509 540.854885 116.017712
3165 3 6.935815 456.510944 150.245713
3166 2 157.084018 360.513163 177.317546
3167 3 152.464831 404.427240 89.907620
3168 3 143.308073 408.868624 95.870617
3169 2 48.602559 -154.710667 142.265002
3170 3 -25.828376 -99.903458 63.011890
3171 3 18.243072 -175.378215 69.636363
3172 2 -408.995552 70.991519 227.396224
3173 3 -481.738515 80.375326 151.640368
3174 3 -485.536725 61.629820 157.838219
3175 2 232.014062 174.638009 196.368452
3176 3 203.811849 277.699625 161.486475
3177 3 262.383378 221.223221 164.153884
3178 2 39.791809 38.155855 241.308749
3179 3 75.903882 17.385691 383.835596
3180 3 52.515316 104.463108 248.260011
3181 2 43.872583 -311.112636 478.065335
3182 3 17.939876 -294.926672 453.493101
3183 3 42.780778 -206.478107 550.926908
3184 2 46.105454 -100.457776 167.644784
3185 3 83.199705 -105.440037 94.320483
3186 3 59.302241 -63.181425 201.823243
3187 2 17.217496 62.996765 344.792931
3188 3 -20.301992 77.264206 370.970944
3189 3 -6.308177 80.313403 384.396012
3190 2 118.630921 64.677279 -60.802410
3191 3 64.085618 32.251174 -111.191215
3192 3 79.928024 113.301609 -27.058093
3193 2 6.231269 -60.766521 344.630334
3194 3 33.936877 -17.839377 314.615101
3195 3 55.600324 -110.308046 263.271023
3196 2 117.509914 -276.349926 408.495696
3197 3 102.387035 -262.636817 401.354105
3198 3 95.682393 -347.339397 433.081805
3199 2 602.026375 70.808425 468.522805
3200 3 563.118111 49.936855 402.270712
3201 3 536.089053 -36.428583 505.328715
3202 2 -46.940750 172.551313 396.295823
3203 3 -55.853063 111.526843 467.427215
3204 3 -80.537832 100.775377 520.511014
3205 2 -234.068024 158.942627 602.718496
3206 3 -221.491536 108.910384 593.765166
3207 3 -215.059396 122.183366 632.265904
3208 2 -50.995489 153.939612 370.005291
3209 3 -14.833859 -9.011798 328.251773
3210 3 -40.048882 69.360601 318.872688
3211 2 -88.709282 70.017502 445.551554
3212 3 -125.369923 -1.648213 458.453552
3213 3 -155.797783 58.164212 399.757182
3214 2 357.727152 -123.702792 651.937323
3215 3 338.789591 -113.436890 700.069897
3216 3 296.556426 -14.617904 766.654342
3217 2 18.622057 248.526831 197.421049
3218 3 -3.062023 227.563422 189.744818
3219 3 57.926214 240.967975 168.402550
3220 2 -77.583073 -55.548958 526.378219
3221 3 -103.481504 -6.771380 461.612524
3222 3 -121.048646 -24.530535 421.689195
3223 2 130.778914 -99.174732 198.396997
3224 3 121.875900 -73.156872 228.846308
3225 3 129.555460 -92.295979 121.863974
3226 2 173.634941 36.664387 130.704333
3227 3 152.735589 49.052682 148.276564
3228 3 113.763906 7.985819 158.082741
3229 2 179.600600 7.863641 -108.141246
3230 3 129.629152 10.324608 38.039579
3231 3 181.587990 -21.493753 -48.181071
3232 2 54.255815 -71.666411 705.959392
3233 3 5.342195 -37.969286 701.629880
3234 3 9.696275 -61.451352 778.622425
3235 2 -138.437986 -99.265874 126.498742
3236 3 -203.081490 -104.989937 215.568872
3237 3 -154.525645 -127.671004 132.485376
3238 2 17.495675 129.336967 334.546505
3239 3 45.993304 171.924850 293.944983
3240 3 -25.540095 220.420389 277.919108
3241 2 361.883383 200.982092 38.431886
3242 3 369.005089 177.729466 -0.884206
3243 3 346.502953 215.497014 -39.345870
3244 2 149.702178 105.734019 228.176695
3245 3 213.911245 139.811639 292.292668
3246 3 173.452566 125.860781 331.167404
3247 2 -132.928826 -74.343665 138.246263
3248 3 -180.502802 -30.766842 98.456266
3249 3 -147.642948 -148.153379 85.883151
3250 2 -150.097768 -164.228899 364.459884
3251 3 -190.931033 -77.788492 359.263768
3252 3 -182.759423 -126.140616 421.867512
3253 2 419.879107 18.794220 646.481296
3254 3 432.774347 149.945021 690.943675
3255 3 424.598226 57.848647 575.308314
3256 2 -358.884042 70.503420 28.424053
3257 3 -260.229319 57.084875 -32.751501
3258 3 -339.289576 127.329424 -51.581272
3259 2 0.724727 -149.349196 475.558299
3260 3 11.533838 -245.398322 525.266946
3261 3 2.625334 -200.219157 477.601200
3262 2 112.050405 88.777342 258.868331
3263 3 152.810193 132.294542 192.040065
3264 3 162.425606 146.533590 233.378420
3265 2 -86.551706 95.111417 292.965750
3266 3 -123.749181 148.853049 253.854241
3267 3 -94.743308 143.842485 310.648460
3268 2 -193.739856 232.775162 251.371027
3269 3 -155.868751 143.149580 334.293347
3270 3 -124.619421 115.820161 330.354273
3271 2 -146.448076 56.713514 442.157986
3272 3 -126.413627 16.610404 499.600783
3273 3 -104.429775 65.564563 447.473817
3274 2 350.128587 77.576654 -23.476318
3275 3 347.981870 112.855067 91.300309
3276 3 339.030868 81.758612 66.421630
3277 2 83.623449 -142.119939 491.145318
3278 3 87.831637 -198.496876 479.082873
3279 3 100.058369 -176.143188 391.437263
3280 2 436.670567 144.194935 172.511841
3281 3 438.077012 102.972693 70.431863
3282 3 462.434869 103.428783 34.115562
3283 2 180.210336 126.988582 151.269655
3284 3 282.863750 186.290801 222.834035
3285 3 189.706392 185.178638 100.122835
3286 2 -146.677730 -39.977601 191.512678
3287 3 -169.230461 39.831989 157.102180
3288 3 -31.566044 3.760099 181.124598
3289 2 -258.982657 18.909605 156.215722
3290 3 -244.819086 6.603244 197.264505
3291 3 -252.260013 -21.921875 239.118105
3292 2 353.498450 -128.603954 296.032611
3293 3 371.101766 -185.371155 218.761629
3294 3 359.666561 -94.684306 220.139013
3295 2 -247.772335 108.270284 476.970705
3296 3 -265.654076 104.370590 493.968801
3297 3 -270.338981 78.562382 445.224368
3298 2 248.431554 209.282734 230.573020
3299 3 250.096950 182.485199 212.093988
3300 3 216.430095 106.084820 248.400872
3301 2 -22.632174 -95.536438 137.574933
3302 3 -11.668041 -88.918431 189.016289
3303 3 -32.789135 -32.664382 206.757731
3304 2 -107.596618 289.965194 153.203903
3305 3 -176.471524 242.720193 129.376123
3306 3 -124.978760 227.974348 112.157491
3307 2 16.075230 280.321664 298.208309
3308 3 21.075985 270.849973 343.550134
3309 3 63.482487 243.407867 373.910783
3310 2 249.214840 152.821671 294.209230
3311 3 239.875301 156.279445 266.647707
3312 3 309.664398 175.124638 264.746423
3313 2 -289.879734 -61.827879 304.138489
3314 3 -289.180653 -104.764245 262.271456
3315 3 -346.704768 -122.404848 238.647697
3316 2 395.287516 106.744306 229.164102
3317 3 343.681164 103.971037 313.525896
3318 3 328.992765 76.998466 313.032792
3319 2 7.776828 -55.547392 424.860714
3320 3 -0.841166 -24.248796 361.599757
3321 3 21.316249 -126.711552 367.335770
3322 2 454.816411 250.439423 287.430085
3323 3 454.766125 314.317561 373.640502
3324 3 394.038660 254.610901 287.185692
3325 2 -196.998965 209.944090 216.440790
3326 3 -222.144299 132.961394 297.119915
3327 3 -201.231932 203.043033 267.292170
3328 2 576.433343 321.222192 183.743894
3329 3 535.204109 284.635089 270.279725
3330 3 544.263326 313.561422 203.326209
3331 2 -348.525313 78.993747 230.230685
3332 3 -429.171099 12.827454 165.815554
3333 3 -370.102744 -38.127259 265.908900
3334 2 -12.618885 218.994531 -73.378440
3335 3 -29.313347 174.307696 -239.497023
3336 3 -68.675419 226.643852 -100.104469
3337 2 49.276642 285.515934 -248.205314
3338 3 65.970376 326.058705 -321.146986
3339 3 14.951193 418.890619 -335.642918
3340 2 -155.267285 270.630271 143.981196
3341 3 -92.730602 350.336236 56.320384
3342 3 -90.742250 310.698668 172.452906
3343 2 115.018198 316.890704 260.560354
3344 3 139.561505 237.780640 322.070372
3345 3 114.499390 293.003649 195.918654
3346 2 -222.106856 290.988564 156.610764
3347 3 -267.266869 277.502060 170.611378
3348 3 -154.399115 273.829389 281.341570
3349 2 -91.360282 19.770284 459.174719
3350 3 -102.940443 -65.388791 506.446963
3351 3 -103.068094 64.219261 450.547431
3352 2 -85.874687 135.862387 35.582571
3353 3 -137.581969 194.049319 -84.378942
3354 3 -91.375220 247.497394 93.308886
3355 2 81.055909 118.852176 322.130193
3356 3 51.840974 111.935193 306.313634
3357 3 97.332685 103.587258 318.219165
3358 2 -146.814933 439.438175 -30.820053
3359 3 -100.539422 393.078611 -78.047722
3360 3 -172.807472 413.828201 -75.092845
3361 2 105.828600 125.778921 167.994850
3362 3 108.275415 -95.653526 81.090833
3363 3 171.315327 -74.824136 199.723916
3364 2 -84.153908 234.147546 459.631990
3365 3 -40.704210 349.353371 531.333282
3366 3 -59.785771 292.879643 581.123596
3367 2 167.705999 209.790633 294.130699
3368 3 196.565943 335.328574 287.331073
3369 3 139.976886 215.711196 243.888816
3370 2 58.960142 108.862270 -153.856488
3371 3 -27.653244 71.450575 -223.649041
3372 3 11.322096 113.747604 -204.477683
3373 2 -392.986047 349.787787 145.776586
3374 3 -384.633455 366.814426 159.049261
3375 3 -335.717285 265.707367 115.387650
3376 2 74.996790 347.799675 665.439408
3377 3 177.574016 430.595364 525.156161
3378 3 89.190649 452.728848 547.808050
3379 2 -183.830587 369.901808 62.508107
3380 3 -243.624190 302.959627 192.404339
3381 3 -213.699712 282.686113 117.456817
3382 2 -5.444322 296.001721 -72.151566
3383 3 96.127342 326.597240 -120.457162
3384 3 48.601185 311.638445 -87.156277
3385 2 159.003053 176.755008 152.702892
3386 3 198.193858 221.728854 90.765500
3387 3 222.581468 200.779008 167.425421
3388 2 21.649754 489.353840 328.195200
3389 3 53.894236 489.653790 307.552224
3390 3 10.274835 590.808681 326.621859
3391 2 92.983559 497.495369 156.338131
3392 3 124.674141 384.498164 138.824337
3393 3 77.754950 452.878610 146.221872
3394 2 95.321710 582.198191 70.349554
3395 3 68.970005 643.552951 -36.150816
3396 3 11.619544 619.814867 -13.247603
3397 2 -341.804198 531.629594 466.809378
3398 3 -355.416736 433.557584 518.549633
3399 3 -319.198259 489.859412 507.451733
3400 2 -90.973531 371.893691 103.431755
3401 3 -51.725328 340.178923 6.928055
3402 3 -14.284589 335.016278 38.268487
3403 2 191.540273 482.634185 595.548156
3404 3 235.605433 531.415640 656.274954
3405 3 165.388826 569.199076 509.449391
3406 2 239.509072 422.225679 239.104506
3407 3 245.489743 379.536763 244.346770
3408 3 271.116866 427.779682 150.701397
3409 2 190.993160 370.886924 -5.679608
3410 3 172.709410 311.515260 19.154209
3411 3 181.273268 358.567623 65.114072
3412 2 -305.403703 11.031932 397.253431
3413 3 -350.015717 40.813178 480.600638
3414 3 -347.620402 93.145518 470.566813
3415 2 64.805149 216.164619 33.002698
3416 3 152.010379 203.387014 129.793113
3417 3 132.445900 187.453411 52.401109
3418 2 -236.663893 350.873404 466.595559
3419 3 -203.385921 462.440341 392.080047
3420 3 -184.478975 361.070613 438.594996
3421 2 26.160500 567.245386 612.985477
3422 3 -16.764036 441.548621 572.395857
3423 3 7.933499 444.368195 498.213583
3424 2 -115.906615 298.991339 -138.259486
3425 3 -118.292328 337.515710 -30.323868
3426 3 -126.763538 360.206949 -62.726159
3427 2 -153.705950 310.025970 199.586599
3428 3 -240.291302 324.672074 245.999509
3429 3 -229.174011 281.111101 130.661257
3430 2 158.674551 336.548931 278.648818
3431 3 183.724243 351.599074 353.091187
3432 3 177.847757 349.387884 274.877267
3433 2 73.546381 412.753775 -146.302205
3434 3 37.306019 252.825872 -114.839379
3435 3 63.007840 319.603087 -57.984878
3436 2 234.803880 148.521094 611.619127
3437 3 261.746909 171.960170 573.157876
3438 3 275.710886 87.282929 536.820160
3439 2 153.603968 209.944546 280.869852
3440 3 125.070518 235.969673 111.759930
3441 3 146.042280 231.758725 91.587958
3442 2 8.121992 -88.099414 380.140638
3443 3 -32.150656 -38.076552 485.832772
3444 3 13.070732 -62.919691 393.792773
3445 2 6.955608 144.801845 237.673114
3446 3 -38.276523 193.845034 104.694572
3447 3 -79.432397 161.770076 217.592196
3448 2 215.612668 295.493654 243.237877
3449 3 293.069253 251.217943 372.154659
3450 3 187.934606 306.049320 256.453776
3451 2 -327.315984 -45.149555 254.814746
3452 3 -341.566890 20.373767 350.505363
3453 3 -298.015429 -20.931654 240.438270
3454 2 -299.139456 362.508056 120.639047
3455 3 -273.465522 280.423138 90.459358
3456 3 -285.202299 287.597218 50.678274
3457 2 -601.595714 460.460652 139.402494
3458 3 -574.047669 442.040966 248.651926
3459 3 -597.639791 435.377750 213.991194
3460 2 -99.433130 415.326036 -80.472638
3461 3 -152.529344 460.255303 -49.317831
3462 3 -117.588822 429.751313 -49.350675
3463 2 -432.960238 -69.907952 483.918738
3464 3 -468.966772 -88.984098 455.161691
3465 3 -460.588544 -138.498643 376.348108
3466 2 88.248806 532.275716 66.709029
3467 3 71.160279 455.241082 -7.367129
3468 3 99.967631 506.278975 -59.207018
3469 2 20.613604 667.764192 104.172988
3470 3 30.433238 524.017357 82.458599
3471 3 30.191135 584.936240 130.075932
3472 2 -312.706046 -11.595654 315.463216
3473 3 -352.431738 47.793615 389.843145
3474 3 -331.180429 10.828516 397.586742
3475 2 182.006342 666.046533 -7.048968
3476 3 97.790421 727.141178 2.806023
3477 3 126.941965 646.279079 75.467744
3478 2 -228.257342 300.794020 206.010953
3479 3 -210.729553 314.511081 124.558202
3480 3 -226.201165 286.413656 262.350669
3481 2 152.598669 496.000179 90.580120
3482 3 170.021817 649.807142 126.523108
3483 3 181.350534 661.829899 77.458606
3484 2 48.496547 441.914984 244.800682
3485 3 46.964947 396.711918 189.344158
3486 3 -5.433738 435.213300 237.865953
3487 2 499.188750 263.108043 61.815817
3488 3 397.032779 289.887804 61.812131
3489 3 452.048532 290.129096 -67.670427
3490 2 129.622385 -282.272450 461.853208
3491 3 86.143655 -239.245908 489.540055
3492 3 62.652763 -277.089006 449.477859
3493 2 125.249799 -340.948671 367.642954
3494 3 94.417773 -270.289407 252.343728
3495 3 149.115736 -242.518782 322.012674
3496 2 -55.045373 127.503862 185.218685
3497 3 -57.198006 2.817194 169.017158
3498 3 -33.107678 161.676220 265.653251
3499 2 189.856993 -277.110748 94.537304
3500 3 189.536355 -193.324090 189.426932
3501 3 70.619045 -224.762262 235.058781
3502 2 156.038933 26.941266 302.916450
3503 3 140.964893 40.488597 304.443792
3504 3 163.854655 34.588671 286.536044
3505 2 -239.387648 -7.600937 386.638228
3506 3 -251.189921 -15.273247 380.272347
3507 3 -311.357308 -36.310704 443.542862
3508 2 -336.711208 351.112354 303.712716
3509 3 -389.326914 372.350793 308.570999
3510 3 -305.898212 387.376122 340.713661
3511 2 -148.648000 122.162369 125.249109
3512 3 -135.316771 134.150810 99.463573
3513 3 -138.281186 128.289247 32.243088
3514 2 88.051049 -277.641591 446.918900
3515 3 168.438975 -168.329646 432.284248
3516 3 116.066382 -259.892018 344.794370
3517 2 280.417729 -151.793391 284.108683
3518 3 275.468105 -151.804110 180.904949
3519 3 357.683078 -176.750676 336.840570
3520 2 176.163404 117.331892 502.939438
3521 3 187.113037 68.887638 548.956153
3522 3 172.037259 75.394117 496.954511
3523 2 286.833551 -102.351507 230.852028
3524 3 365.873545 -64.534424 259.714896
3525 3 332.980733 -127.657426 271.158784
3526 2 650.365483 -55.671239 111.542652
3527 3 602.995574 -88.506958 82.361358
3528 3 665.045057 -131.036046 164.751185
3529 2 83.080762 -312.805055 78.173518
3530 3 71.825281 -294.862540 56.591578
3531 3 28.958942 -290.405800 -56.684871
3532 2 -242.220012 -286.201542 560.895710
3533 3 -293.426956 -216.612477 582.277972
3534 3 -286.064959 -297.133452 579.067225
3535 2 -172.274336 94.721792 435.109724
3536 3 -158.591076 32.487338 479.427183
3537 3 -165.863001 41.201551 500.914731
3538 2 -67.638697 -325.625216 163.371891
3539 3 -89.580853 -336.544203 216.024464
3540 3 -124.630957 -341.645362 173.898285
3541 2 268.225292 -82.867050 485.028830
3542 3 278.838264 55.268378 416.684866
3543 3 298.478851 -57.620701 452.209932
3544 2 -77.100162 17.838810 519.805014
3545 3 -73.103825 106.385644 632.239961
3546 3 -41.452635 86.518548 596.933733
3547 2 290.003500 -328.614713 189.085668
3548 3 298.716454 -272.999114 145.665820
3549 3 310.209761 -300.555632 187.623904
3550 2 300.265994 -148.021725 273.011540
3551 3 264.548386 -53.616957 341.726033
3552 3 287.463759 -126.590116 249.871363
3553 2 154.987279 -3.737143 87.924438
3554 3 111.422914 -24.213864 169.092239
3555 3 79.505482 -69.513561 24.185418
3556 2 73.909522 36.096030 154.845608
3557 3 95.939008 100.360072 169.635070
3558 3 13.186524 70.206571 137.523868
3559 2 84.893529 -58.157131 180.690761
3560 3 95.434707 -58.106372 279.356681
3561 3 0.624158 -37.191184 224.245869
3562 2 80.244620 -62.403475 332.632175
3563 3 67.073975 -99.015703 306.614545
3564 3 51.189320 -3.592717 267.084035
3565 2 254.030515 -234.424843 134.181265
3566 3 237.207527 -225.310148 124.191262
3567 3 282.040086 -252.586755 159.045829
3568 2 143.664368 -49.690679 384.530783
3569 3 116.721105 -112.034660 385.788969
3570 3 176.028752 -72.326764 384.164221
3571 2 -5.360824 -54.282350 326.765376
3572 3 -9.748963 31.457401 404.739368
3573 3 -18.619377 0.316218 293.059890
3574 2 13.388514 -40.156810 350.242241
3575 3 13.996173 -42.011797 351.446954
3576 3 -5.334176 -36.955259 398.955159
3577 2 76.639396 99.613785 454.722650
3578 3 8.742018 117.014868 384.364385
3579 3 19.252943 123.786742 453.060113
3580 2 350.013569 225.372698 372.585617
3581 3 281.934509 150.219640 335.294021
3582 3 286.444422 205.773889 308.757528
3583 2 149.760389 368.046338 160.342376
3584 3 132.177705 356.242280 155.739649
3585 3 170.541100 383.543609 258.818696
3586 2 76.811492 321.434839 78.231466
3587 3 -14.026473 329.998165 112.317302
3588 3 17.347856 354.164736 61.804206
3589 2 331.420125 -215.766829 211.503385
3590 3 319.327546 -269.778969 214.389032
3591 3 291.461021 -210.107461 323.956618
3592 2 290.275195 -83.358947 262.725664
3593 3 239.250121 -59.830682 385.440416
3594 3 156.155110 -32.113618 327.519646
3595 2 -88.571980 43.795546 315.150404
3596 3 -96.557875 -4.412456 350.657184
3597 3 -100.735058 45.630249 354.058574
3598 2 200.124134 -52.091268 324.513528
3599 3 219.112203 -57.939376 326.298806
3600 3 184.035169 -100.398707 271.825020
3601 2 -13.243597 361.071768 196.408289
3602 3 -17.621116 283.440610 195.673302
3603 3 -10.104768 295.503659 240.252849
3604 2 185.584561 -46.644934 681.791325
3605 3 202.270555 -36.840577 643.376388
3606 3 125.950852 -21.894120 671.752702
3607 2 -392.242201 92.626596 525.141732
3608 3 -320.414503 142.362013 391.017006
3609 3 -350.997462 56.910003 524.026030
3610 2 -280.370503 322.107872 28.355018
3611 3 -249.911657 236.985624 -6.868868
3612 3 -277.151992 238.858502 34.037350
3613 2 -192.428487 128.994399 404.722983
3614 3 -219.656299 145.599917 520.455806
3615 3 -214.492218 118.132778 475.715213
3616 2 41.653515 -103.063448 1.632172
3617 3 81.840872 9.994370 106.614179
3618 3 95.432378 21.154858 81.821341
3619 2 -196.516658 99.044339 492.558868
3620 3 -130.204849 96.823024 429.608453
3621 3 -189.602211 104.329584 441.657207
3622 2 -208.705989 306.974196 217.972560
3623 3 -208.929246 338.760607 172.826258
3624 3 -182.425831 308.879688 214.171560
3625 2 -6.439379 108.974014 323.008292
3626 3 17.562880 95.929605 356.707688
3627 3 -25.226186 117.473604 305.176270
3628 2 106.246391 360.286437 78.307626
3629 3 109.127630 269.405946 62.061691
3630 3 184.052843 463.966851 92.970250
3631 2 -107.656555 77.198052 448.298978
3632 3 -100.639563 134.545035 471.712739
3633 3 -58.787652 77.952383 414.390800
3634 2 260.150139 335.933340 230.576286
3635 3 224.744553 255.597659 195.524895
3636 3 296.524627 343.488865 140.431269
3637 2 220.406736 -55.549429 172.120323
3638 3 162.682215 -10.407855 257.326376
3639 3 175.846045 1.108956 250.839304
3640 2 704.127648 -209.268944 568.124209
3641 3 596.336997 -163.479799 521.008325
3642 3 604.489528 -162.275315 580.906160
3643 2 -159.004153 -66.081391 572.619565
3644 3 -46.786297 -23.137663 471.250486
3645 3 -85.249187 -66.506229 443.517657
3646 2 -88.660598 302.087509 424.973934
3647 3 -149.741560 259.801111 457.946831
3648 3 -64.683291 217.295574 458.311547
3649 2 359.501724 221.753668 243.819770
3650 3 398.926239 245.362637 202.763782
3651 3 368.940259 203.595982 209.368226
3652 2 223.432186 -220.024318 513.043749
3653 3 183.615141 -252.909785 673.983294
3654 3 180.725625 -196.132291 543.056399
3655 2 -153.408421 -104.077954 429.141440
3656 3 -86.685902 -89.275428 534.871842
3657 3 -155.193199 -81.098397 493.146555
3658 2 265.673596 59.382387 248.921044
3659 3 276.117221 53.764955 151.131710
3660 3 348.783989 101.079235 260.128086
3661 2 -137.100242 163.804060 368.331683
3662 3 -164.997420 183.096107 335.541311
3663 3 -149.281820 160.818912 348.371052
3664 2 -80.429389 124.928067 350.793542
3665 3 -159.688321 98.354909 334.625515
3666 3 -124.674305 111.129502 314.650418
3667 2 529.929743 536.341828 300.563302
3668 3 480.528159 521.994244 183.888961
3669 3 477.615583 574.817120 186.081358
3670 2 212.718469 535.127492 46.216179
3671 3 214.178848 446.967580 55.709291
3672 3 199.496255 505.470502 108.671140
3673 2 715.629705 -16.391264 462.969316
3674 3 792.699626 -35.293967 583.724071
3675 3 681.947789 -13.281862 480.417117
3676 2 -244.685137 181.086253 -52.441556
3677 3 -258.105773 202.360984 -4.981480
3678 3 -208.300739 190.090184 -20.333422
3679 2 -311.542505 436.966415 346.968832
3680 3 -301.973768 464.060935 319.604502
3681 3 -389.792730 473.740530 336.178486
3682 2 69.848589 -191.210147 207.902679
3683 3 100.748539 -219.072043 169.755965
3684 3 41.392324 -244.180367 295.775560
3685 2 245.327544 197.629213 243.425660
3686 3 286.819402 176.219012 372.026456
3687 3 348.515597 102.420823 263.639338
3688 2 31.886915 -67.553903 320.933119
3689 3 103.665786 -157.226991 409.349937
3690 3 63.219152 -116.027031 377.190097
3691 2 -483.181886 309.157744 58.140005
3692 3 -430.947150 251.219996 88.211080
3693 3 -464.426441 283.831360 101.515903
3694 2 183.667449 202.409729 215.213418
3695 3 146.382872 244.516108 235.002762
3696 3 170.234093 232.523273 177.533653
3697 2 -180.092388 33.009113 130.013805
3698 3 -207.850526 2.314113 32.676780
3699 3 -208.240863 4.354031 93.125817
3700 2 73.085951 554.031404 102.835367
3701 3 91.513812 537.009965 40.840459
3702 3 112.480786 494.711920 32.914390
3703 2 156.880777 30.306290 170.612162
3704 3 152.647095 40.560573 245.590471
3705 3 130.388737 43.033498 240.212384
3706 2 195.636727 29.171640 277.649067
3707 3 212.920145 18.888796 299.940483
3708 3 183.486565 54.248113 315.064880
3709 2 117.522602 274.741297 7.781205
3710 3 114.487576 347.566229 3.452919
3711 3 125.079330 296.163373 69.689333
3712 2 200.303674 622.253817 489.496657
3713 3 287.842486 605.497662 386.538736
3714 3 223.063443 617.174309 463.998110
3715 2 80.844509 230.883734 297.724117
3716 3 58.996113 233.204820 332.472088
3717 3 65.517474 241.204630 365.572228
3718 2 202.290004 64.993042 262.617980
3719 3 282.565556 94.455937 262.958358
3720 3 277.386388 51.524062 293.912729
3721 2 -94.992867 294.556158 548.251777
3722 3 -4.184736 351.695195 435.755534
3723 3 -52.422912 374.755989 563.171840
3724 2 -75.650863 137.401311 217.751139
3725 3 -40.312696 115.284293 122.807558
3726 3 10.446783 117.682534 253.337907
3727 2 -126.175395 313.430695 515.412951
3728 3 -127.539688 309.020754 476.616099
3729 3 -65.676216 358.165135 451.752292
3730 2 21.776622 602.833810 437.655803
3731 3 64.233559 561.065027 470.316349
3732 3 -25.562489 582.798943 487.881135
3733 2 -131.422116 250.894731 575.918807
3734 3 -83.821807 245.535220 493.279076
3735 3 -113.476715 252.854137 528.176303
3736 2 -84.469493 231.680347 678.799267
3737 3 -137.664622 221.727228 656.457109
3738 3 -158.119221 155.931282 601.142645
3739 2 171.997794 561.362301 211.930930
3740 3 151.268615 520.874844 325.554020
3741 3 53.762095 527.311699 266.268690
3742 2 -385.073019 121.739455 266.306147
3743 3 -482.438434 143.309894 259.862731
3744 3 -412.702902 209.547638 366.293395
3745 2 -301.319279 374.899031 254.823215
3746 3 -311.542678 362.476705 247.446844
3747 3 -298.471336 362.432278 214.541517
3748 2 106.219990 -31.111687 445.965795
3749 3 112.839780 4.749099 367.032793
3750 3 57.675121 4.470098 369.398193
3751 2 77.571263 271.055991 295.744524
3752 3 138.081664 275.754510 367.080583
3753 3 75.792796 292.805598 305.115951
3754 2 364.766576 166.926016 -121.782171
3755 3 372.165129 131.704745 -312.510399
3756 3 333.383296 144.938835 -182.755761
3757 2 114.612769 21.246768 805.567623
3758 3 110.159441 -8.851207 842.048673
3759 3 146.804071 64.322578 883.512499
3760 2 -27.840417 101.975642 -55.796347
3761 3 -15.515786 133.034869 -45.468567
3762 3 -9.719519 20.131554 -87.337833
3763 2 260.581124 180.714675 546.288551
3764 3 199.768431 283.236812 510.656834
3765 3 216.550955 278.771618 429.952024
3766 2 -39.918020 -38.903160 482.527589
3767 3 -106.842086 -24.356465 413.307721
3768 3 -84.422491 -69.034155 413.798832
3769 2 -130.931194 231.196015 -189.948704
3770 3 -87.188003 147.286027 -79.093917
3771 3 -149.565409 157.349674 -102.938257
3772 2 -259.859787 460.737005 334.397525
3773 3 -290.226465 441.255270 390.093977
3774 3 -334.892684 466.271942 400.080936
3775 2 -248.149040 209.592612 180.625885
3776 3 -255.351747 217.607277 218.514265
3777 3 -270.045791 200.482479 247.106705
3778 2 -299.084018 407.461407 1.671662
3779 3 -313.167450 499.771967 -94.499537
3780 3 -281.250073 463.284605 7.102168
3781 2 178.701691 448.002384 435.846243
3782 3 79.712045 372.914020 564.743632
3783 3 127.257871 376.286270 522.752197
3784 2 -328.486575 -41.779833 530.450588
3785 3 -200.812237 -112.965299 446.096433
3786 3 -309.944724 -24.610365 450.823580
3787 2 74.158736 381.199929 291.344489
3788 3 74.074328 262.633563 358.658810
3789 3 46.730273 359.418090 271.154761
3790 2 69.892473 385.693312 446.198692
3791 3 63.743558 381.677617 473.198102
3792 3 109.246007 398.207685 430.204333
3793 2 31.588535 304.800470 7.845844
3794 3 4.338878 301.751190 -49.753075
3795 3 36.510593 293.677381 29.835745
3796 2 309.975879 49.445890 184.659210
3797 3 269.095151 51.794336 250.999981
3798 3 293.610770 -27.577675 129.399916
3799 2 350.046428 252.185103 547.451969
3800 3 383.864438 273.348295 449.337330
3801 3 365.260148 212.168887 485.519019
3802 2 -142.409414 188.580627 262.957713
3803 3 -108.525871 214.833103 298.195245
3804 3 -94.681608 160.369503 293.014075
3805 2 20.726467 62.572683 597.873184
3806 3 71.758966 -2.225645 696.672566
3807 3 27.007671 19.304417 690.850826
3808 2 3.451420 -75.531287 396.165369
3809 3 19.437616 -97.788557 427.671391
3810 3 -1.140118 -112.364957 386.626936
3811 2 -322.483966 -37.349073 458.292321
3812 3 -370.198116 12.584219 266.663169
3813 3 -340.427579 -44.485325 441.068671
3814 2 287.500340 135.072867 107.106304
3815 3 302.720716 150.132201 47.596197
3816 3 321.506481 78.330578 32.699436
3817 2 154.769568 143.507808 294.710471
3818 3 124.399045 89.682134 158.602748
3819 3 92.528429 91.094589 183.428941
3820 2 -5.948808 403.741223 423.473108
3821 3 24.170671 408.945953 477.818155
3822 3 26.678143 472.808173 488.181270
3823 2 -266.209200 195.003403 337.554578
3824 3 -328.898037 124.677082 313.377728
3825 3 -316.557403 207.005178 248.195707
3826 2 271.325284 122.906140 110.931162
3827 3 359.257514 137.014134 126.088431
3828 3 304.123858 201.526056 148.216328
3829 2 -237.334898 148.728967 210.814324
3830 3 -216.035103 203.605652 203.381767
3831 3 -187.716516 183.076387 299.377281
3832 2 161.058971 152.203784 293.771666
3833 3 118.969400 136.567083 320.653354
3834 3 101.197223 175.591151 333.508484
3835 2 345.873632 351.689539 301.793681
3836 3 302.959183 360.235898 318.380913
3837 3 313.336128 316.006119 305.120601
3838 2 167.888473 204.060731 -40.362767
3839 3 75.928902 265.072102 158.258771
3840 3 105.417378 302.873145 165.348116
3841 2 -342.263186 -103.878724 846.690314
3842 3 -277.616034 -118.863466 748.203726
3843 3 -393.670955 -71.450891 849.295107
3844 2 64.610995 35.533478 317.579795
3845 3 104.818044 106.928946 360.152846
3846 3 -4.160637 188.962269 417.066042
3847 2 -16.229581 288.724585 120.684586
3848 3 -44.056805 232.873184 136.302429
3849 3 -20.697650 269.310950 179.982067
3850 2 -162.178207 -59.018971 487.993284
3851 3 -169.755154 -83.992737 515.787410
3852 3 -178.328452 -66.629833 501.361779
3853 2 -102.717555 183.806192 93.081680
3854 3 -114.012649 86.154938 187.302825
3855 3 -79.354798 124.655781 217.489955
3856 2 -93.959565 -20.722409 297.117332
3857 3 -58.344206 -50.493663 338.146989
3858 3 -144.944952 -29.904075 370.966036
3859 2 136.681640 -76.819812 468.100851
3860 3 155.611917 -41.154888 472.139306
3861 3 204.788653 -55.980121 496.413396
3862 2 96.825789 -22.813458 481.785682
3863 3 93.359858 -146.901017 502.865336
3864 3 44.100058 -25.777480 546.710800
3865 2 5.928922 -181.616852 424.822150
3866 3 -50.377267 -144.261736 452.702814
3867 3 -46.276875 -223.972141 460.267356
3868 2 215.829615 -275.875278 327.461375
3869 3 145.437375 -307.159066 329.339318
3870 3 203.079182 -245.563197 235.128178
3871 2 352.021406 186.073547 477.422477
3872 3 354.965411 175.311696 550.063183
3873 3 308.809528 186.096763 503.423501
3874 2 9.929819 -479.924827 562.473074
3875 3 40.051762 -454.425206 447.682949
3876 3 120.497802 -423.672230 544.354294
3877 2 498.341176 288.685541 511.792870
3878 3 525.753792 241.082342 572.466047
3879 3 513.513706 235.672293 504.240395
3880 2 -21.708874 116.027806 684.565505
3881 3 -22.314165 254.183265 633.221261
3882 3 -70.986689 223.404214 656.151106
3883 2 -17.950003 186.443345 389.792513
3884 3 -60.795680 174.781310 354.318744
3885 3 -25.742720 108.537765 337.288800
3886 2 -74.363922 -15.816188 202.167626
3887 3 10.201067 77.949596 126.397498
3888 3 -5.664429 16.407971 176.385919
3889 2 -206.807081 351.946765 445.554727
3890 3 -237.258778 363.495088 455.498841
3891 3 -184.944434 377.254478 592.385789
3892 2 102.151527 395.217580 -26.399163
3893 3 54.266467 345.345156 -0.639854
3894 3 83.317897 393.121700 -9.025547
3895 2 151.012376 -132.368656 277.698111
3896 3 110.748773 -92.183065 275.940363
3897 3 129.968844 -184.489534 286.518939
3898 2 126.616878 145.570011 209.952186
3899 3 106.781585 84.920282 222.149698
3900 3 141.256851 142.444656 256.139377
3901 2 526.548614 200.877319 49.890676
3902 3 514.233542 268.311937 -2.107207
3903 3 465.047402 239.868112 -31.518598
3904 2 -293.692242 -136.580091 -86.172855
3905 3 -304.325945 -211.971749 -155.356078
3906 3 -370.177385 -180.117238 -28.699802
3907 2 392.821775 480.008009 88.215467
3908 3 330.999074 450.437562 82.513880
3909 3 255.771883 433.022332 33.477556
3910 2 265.615791 254.503483 311.511281
3911 3 221.678160 316.693018 233.745609
3912 3 259.986757 210.114104 225.437942
3913 2 117.212625 -222.838433 221.092045
3914 3 74.192439 -226.571556 139.846977
3915 3 52.515174 -100.222322 114.738297
3916 2 384.100489 -150.598410 -184.764766
3917 3 377.820145 -236.997772 -172.388144
3918 3 345.944624 -161.989384 -216.546512
3919 2 -138.980292 41.022851 410.787991
3920 3 -212.529663 25.351298 362.643165
3921 3 -154.803108 140.608131 458.180835
3922 2 -168.032828 141.406492 204.092952
3923 3 -171.415645 174.462111 211.655686
3924 3 -207.085974 154.304727 83.905555
3925 2 39.680760 284.349066 146.697161
3926 3 41.246848 327.862967 121.666762
3927 3 25.354836 358.434829 179.237226
3928 2 -53.695561 288.661792 627.473290
3929 3 -85.600502 226.861729 676.409327
3930 3 -116.950455 269.023224 609.296720
3931 2 315.894431 225.745446 297.423889
3932 3 363.059620 250.875984 386.907845
3933 3 345.246948 286.001772 356.619747
3934 2 108.846703 10.039414 697.824322
3935 3 103.010046 21.890557 727.482884
3936 3 123.635971 -63.404305 749.254146
3937 2 -68.194948 293.166456 460.291159
3938 3 -165.056248 380.223510 433.330129
3939 3 -106.343436 398.090642 416.888167
3940 2 153.825956 -78.527679 568.801535
3941 3 110.267433 -117.643611 594.729675
3942 3 121.228405 -124.478651 520.693908
3943 2 -57.412358 -119.851897 -9.229457
3944 3 -67.530587 -128.937201 -29.481814
3945 3 -19.599863 -83.381631 80.022104
3946 2 397.787126 18.489456 249.867433
3947 3 501.501881 66.317433 318.071773
3948 3 539.026082 38.673082 254.464421
3949 2 136.362998 446.593250 563.847100
3950 3 129.869701 334.569911 546.885353
3951 3 103.247748 451.259567 522.119709
3952 2 234.132752 -343.672306 -254.934805
3953 3 314.998542 -454.446826 -216.414859
3954 3 338.371252 -378.376297 -262.904953
3955 2 240.600216 -177.615997 112.499577
3956 3 319.694811 -224.781754 128.659042
3957 3 270.751081 -124.263100 91.514751
3958 2 80.979654 -126.438590 -53.043363
3959 3 167.153415 -162.381973 101.694442
3960 3 175.505711 -175.930009 117.608702
3961 2 -329.214744 -30.598329 366.356426
3962 3 -347.557765 44.685903 374.616340
3963 3 -378.990814 80.278201 393.034592
3964 2 -222.254313 -1.972720 466.151168
3965 3 -221.813370 -32.645749 447.795947
3966 3 -176.453307 38.173663 374.432081
3967 2 -17.272906 129.516081 527.150276
3968 3 56.203516 182.145170 521.274694
3969 3 7.240144 191.250453 513.897769
3970 2 251.808467 269.869494 533.879619
3971 3 220.727917 247.368127 545.898371
3972 3 304.795258 221.776672 512.359154
3973 2 266.956815 71.855373 138.850741
3974 3 267.349469 -9.074126 134.307982
3975 3 242.379077 46.612450 4.745962
3976 2 -142.877609 -31.633680 308.281049
3977 3 -166.407920 -3.156518 374.119546
3978 3 -190.530318 29.659282 364.193921
3979 2 135.041597 -223.457764 129.857749
3980 3 124.255186 -210.259990 48.484009
3981 3 169.563655 -205.662640 -3.467904
3982 2 125.617125 -223.731533 448.330272
3983 3 152.928909 -288.184545 346.757449
3984 3 100.509117 -208.317779 358.496693
3985 2 266.196132 603.287202 80.398718
3986 3 289.843372 533.762755 53.961966
3987 3 249.812880 506.346269 74.753109
3988 2 112.329680 200.140109 309.370549
3989 3 12.755653 70.580422 331.625818
3990 3 97.521524 125.568684 297.988659
3991 2 318.135435 -47.848946 516.934886
3992 3 248.611328 -12.331678 509.262917
3993 3 290.425981 -45.456142 503.399883
3994 2 69.417693 79.679182 449.510850
3995 3 30.331204 88.069446 455.002858
3996 3 39.072942 96.810997 515.076317
3997 2 -298.881393 425.548971 32.920792
3998 3 -324.192549 454.015952 130.999228
3999 3 -279.260428 472.048171 122.098117
4000 2 -213.718767 203.666408 201.516354
4001 3 -201.381263 128.046785 114.176848
4002 3 -206.611974 147.814627 165.249095
4003 2 110.114670 -430.123499 451.167299
4004 3 52.320699 -350.887499 479.743888
4005 3 94.082942 -368.563330 461.648800
4006 2 372.071729 -169.725734 521.829537
4007 3 331.225635 -138.621266 597.595670
4008 3 394.684965 -173.275295 652.594647
4009 2 505.094508 238.874300 129.456526
4010 3 555.056540 218.408148 152.613466
4011 3 521.574636 252.372009 106.849392
4012 2 -144.232264 39.691365 601.356427
4013 3 -93.163621 68.424413 436.290302
4014 3 -185.364265 132.968883 455.435809
4015 2 -196.005683 297.218854 723.446606
4016 3 -246.730048 283.116881 753.215657
4017 3 -238.530682 212.424319 748.544050
4018 2 250.580021 284.946078 324.387724
4019 3 246.178348 292.865959 353.501148
4020 3 286.523796 296.568749 384.109752
4021 2 139.367002 -378.108276 602.403783
4022 3 55.771477 -363.639180 475.942796
4023 3 136.074085 -404.504980 554.911816
4024 2 -20.657387 188.993073 239.212449
4025 3 -69.220436 164.653234 160.478338
4026 3 -5.826138 211.276304 196.754665
4027 2 399.641220 255.684050 130.729086
4028 3 376.252117 251.008550 126.429936
4029 3 360.048221 254.613744 262.136537
4030 2 43.297370 516.929150 17.345220
4031 3 102.980916 481.193883 96.037088
4032 3 82.593802 418.500538 83.335572
4033 2 -203.343794 508.075939 521.563131
4034 3 -196.071376 450.565126 500.103076
4035 3 -164.047880 577.010550 399.281017
4036 2 -115.085169 -108.281725 406.731343
4037 3 -172.869862 -151.541258 317.551121
4038 3 -148.103907 -89.270099 421.354554
4039 2 208.433773 62.237292 382.518512
4040 3 350.996670 47.056903 384.913767
4041 3 195.005692 18.488869 360.664734
4042 2 386.870833 -21.325084 489.579616
4043 3 361.824863 26.047852 580.528860
4044 3 338.765902 2.056512 572.143142
4045 2 -363.637425 279.633792 474.259003
4046 3 -405.137442 196.050202 426.133034
4047 3 -323.234468 172.737763 475.007515
4048 2 82.682426 318.490620 204.999301
4049 3 178.685656 305.782849 210.707969
4050 3 142.940365 350.737873 82.610406
4051 2 -276.716398 -43.588352 388.974364
4052 3 -237.626831 24.125806 326.405383
4053 3 -240.287333 49.733513 365.856569
4054 2 68.686326 -188.551982 511.745191
4055 3 116.848664 -170.031066 642.821655
4056 3 136.576778 -269.330229 715.906790
4057 2 189.289630 -105.881060 350.789077
4058 3 278.655088 -21.189291 402.385445
4059 3 195.038428 -134.197975 314.381133
4060 2 382.859940 46.552267 -130.269281
4061 3 371.301532 130.350758 -165.920538
4062 3 426.589819 49.209290 -153.863149
4063 2 18.599487 99.645912 112.741119
4064 3 20.388764 75.206557 121.764390
4065 3 -23.975333 104.739674 109.090935
4066 2 158.311194 320.424058 272.986003
4067 3 173.544462 293.628089 272.797408
4068 3 112.852672 317.690115 189.590470
4069 2 -69.354614 316.272346 511.646216
4070 3 -9.768773 353.853504 521.252736
4071 3 52.561437 326.342690 560.316030
4072 2 -130.519682 202.762270 164.040092
4073 3 -113.871489 189.682937 16.752403
4074 3 -158.158415 260.359549 134.460532
4075 2 344.500218 47.732245 119.795656
4076 3 345.317177 81.868261 135.487573
4077 3 320.474843 39.898236 115.711441
4078 2 297.643330 78.842810 303.634702
4079 3 300.545676 120.376292 364.681010
4080 3 316.138296 132.368024 381.007463
4081 2 -15.850654 196.357876 389.728154
4082 3 38.500942 190.673101 430.249503
4083 3 -13.760472 179.295857 526.672413
4084 2 -368.655601 431.014820 219.988484
4085 3 -356.066616 381.354891 283.386999
4086 3 -284.538763 354.485577 135.479150
4087 2 179.886654 349.779425 120.923711
4088 3 131.856155 302.837810 96.550184
4089 3 90.240836 299.807292 -25.755636
4090 2 -387.153451 -86.336029 626.613329
4091 3 -375.603203 -70.082307 674.124118
4092 3 -359.882007 -87.947866 615.240942
4093 2 -13.163141 -52.755528 118.899760
4094 3 -22.115027 -24.673566 120.913083
4095 3 -77.515618 110.084938 87.098520
4096 2 -44.179076 276.761064 28.525334
4097 3 -37.352532 259.663300 113.508305
4098 3 -21.805996 348.909314 162.020773
4099 2 -8.948526 355.632375 243.366928
4100 3 -12.935903 421.652903 203.827985
4101 3 -25.283442 405.540741 223.667296
4102 2 14.813073 154.929289 29.787002
4103 3 0.971752 204.412361 -1.539194
4104 3 87.600559 178.134797 25.488698
4105 2 56.746998 105.709160 364.451839
4106 3 82.482272 161.130006 327.264643
4107 3 51.380474 184.019934 344.244472
4108 2 101.062947 171.068287 647.087472
4109 3 103.969958 198.299494 661.140895
4110 3 143.895600 125.153729 615.821913
4111 2 -263.224917 95.778923 199.646770
4112 3 -239.455732 55.880168 115.543724
4113 3 -148.932945 44.203310 123.769733
4114 2 -151.326325 425.212804 520.875472
4115 3 -178.529734 305.691289 409.397100
4116 3 -172.555300 305.628465 422.356778
4117 2 -414.555270 -31.672865 498.447440
4118 3 -447.011230 -56.766905 468.601557
4119 3 -476.607071 26.903537 529.648270
4120 2 17.878862 149.586944 502.442127
4121 3 6.221447 219.480384 577.340439
4122 3 -13.683145 194.982269 523.497425
4123 2 -311.961683 512.076064 360.616021
4124 3 -310.228252 519.815714 282.895058
4125 3 -293.666828 488.878097 355.015481
4126 2 160.970439 377.151454 279.555997
4127 3 132.923979 268.920139 175.311844
4128 3 146.743382 338.550301 245.121779
4129 2 101.976411 28.104800 166.288010
4130 3 60.457075 42.053546 307.087462
4131 3 141.145075 20.007562 185.091866
4132 2 216.734563 209.963703 143.989112
4133 3 147.157963 241.435522 135.121094
4134 3 181.479294 319.830361 138.238347
4135 2 -95.441686 192.518825 260.884772
4136 3 -35.377628 153.847945 234.668324
4137 3 -61.568047 163.516440 254.771034
4138 2 -192.641563 63.046817 -24.988275
4139 3 -164.101827 36.914836 63.541035
4140 3 -166.507433 37.098380 157.130605
4141 2 78.642969 49.838257 293.462120
4142 3 45.856295 64.428366 400.200208
4143 3 45.057648 36.026993 378.918839
4144 2 -103.794895 377.491240 524.767937
4145 3 -187.110045 394.329741 480.558495
4146 3 -157.471573 394.920032 377.564483
4147 2 -153.026453 401.620438 -44.432618
4148 3 -208.054877 521.184160 -80.023311
4149 3 -205.702700 561.520487 71.910930
4150 2 -144.181386 180.598742 160.498099
4151 3 -79.221822 155.868093 236.042037
4152 3 -74.816421 130.499562 347.280186
4153 2 326.984853 525.959430 300.648992
4154 3 380.390797 553.415813 229.216615
4155 3 352.111478 608.137369 249.532922
4156 2 -150.553096 174.320589 518.677282
4157 3 -126.298905 189.603829 364.066752
4158 3 -123.493348 187.340459 442.277960
4159 2 175.070991 64.947041 176.221735
4160 3 164.185228 91.006990 259.643137
4161 3 135.323978 86.250018 169.253968
4162 2 -234.914785 363.396625 186.320363
4163 3 -247.670628 415.165874 246.678440
4164 3 -226.696068 338.512017 193.754396
4165 2 255.709247 218.541991 174.833889
4166 3 238.230784 247.830657 176.008027
4167 3 279.452622 166.389883 191.486329
4168 2 -76.163637 277.075337 202.993063
4169 3 -96.094093 307.161087 194.039162
4170 3 -57.069461 416.793979 189.672340
4171 2 245.135740 344.602458 366.509982
4172 3 202.615141 224.578548 447.808864
4173 3 227.836682 303.832505 443.334985
4174 2 -26.685802 411.896527 460.862535
4175 3 -54.788172 359.168922 554.211610
4176 3 -18.155774 339.497650 494.900502
4177 2 -2.353467 101.927338 429.928738
4178 3 -4.619428 143.653701 416.033041
4179 3 29.555645 171.546477 496.178801
4180 2 108.773541 -73.291460 507.815823
4181 3 102.213972 -145.749749 580.153330
4182 3 102.582068 -79.284982 567.535415
4183 2 -376.664298 307.759011 239.779378
4184 3 -476.403607 287.701702 245.502493
4185 3 -443.509513 316.309018 134.194892
4186 2 257.249518 68.210542 339.412039
4187 3 249.220091 98.935431 343.049612
4188 3 284.517511 124.531052 271.351365
4189 2 -143.028062 80.759318 301.228782
4190 3 -28.729031 175.287460 304.628087
4191 3 -20.978345 232.994514 217.016484
4192 2 153.294953 124.057264 275.933333
4193 3 212.970776 84.786765 426.403057
4194 3 181.865601 34.637409 355.675462
4195 2 -240.200688 478.080045 347.146374
4196 3 -211.253371 387.767937 208.043318
4197 3 -235.211426 300.969234 258.029534
4198 2 -623.705961 80.739480 274.289137
4199 3 -657.599918 50.453474 199.560692
4200 3 -601.494204 122.376354 244.436334
4201 2 -196.456955 -48.625961 232.561673
4202 3 -269.121308 -11.592567 127.123186
4203 3 -192.550382 0.276552 136.187447
4204 2 -89.841382 524.947068 610.326104
4205 3 -75.632911 470.335226 488.072442
4206 3 -107.012271 615.183034 724.732027
4207 2 263.013439 390.217803 317.566749
4208 3 320.072748 505.463265 364.479886
4209 3 294.537669 575.887380 325.042576
4210 2 -328.044300 344.009643 408.788267
4211 3 -266.255444 337.786833 422.716919
4212 3 -213.214275 332.915472 430.333237
4213 2 276.667907 383.729071 225.112103
4214 3 248.260999 435.640753 286.477238
4215 3 182.613108 465.399429 269.221261
4216 2 -141.551487 -97.372842 486.226938
4217 3 -93.638421 -51.146900 587.244069
4218 3 -107.504451 -136.407704 454.359853
4219 2 59.218513 341.819587 116.540504
4220 3 40.608887 385.200328 174.994733
4221 3 -7.385737 273.660683 175.219345
4222 2 -228.455850 464.984778 492.137431
4223 3 -263.907433 534.937621 568.974243
4224 3 -204.458035 404.604218 556.150665
4225 2 -229.647567 349.257644 236.642585
4226 3 -275.273125 373.782519 252.768247
4227 3 -268.348991 395.393584 246.123154
4228 2 350.805458 475.403757 369.556176
4229 3 352.502752 478.356976 226.043417
4230 3 357.798071 462.000390 217.238070
4231 2 309.812596 122.157983 55.267886
4232 3 415.193216 164.604474 17.382240
4233 3 337.591243 157.329878 65.995441
4234 2 -129.066611 -13.293615 202.870655
4235 3 -217.992900 9.199871 202.566109
4236 3 -197.053023 -131.975048 142.525909
4237 2 -158.134159 -221.656543 646.535323
4238 3 -123.768790 -193.158667 749.831537
4239 3 -135.757443 -287.582912 742.512108
4240 2 -103.317000 62.572276 457.395493
4241 3 -167.686566 24.437673 498.108002
4242 3 -70.031645 130.568461 532.064671
4243 2 144.422351 82.426946 25.853064
4244 3 187.213561 88.096092 190.755364
4245 3 146.972630 -61.458111 89.828116
4246 2 -314.482541 -254.438485 334.906387
4247 3 -277.929905 -269.039219 361.425499
4248 3 -261.702221 -205.145056 392.150643
4249 2 101.855040 -95.669164 658.700396
4250 3 58.956265 -71.225936 739.940675
4251 3 96.012577 -172.380523 830.852684
4252 2 -80.300167 -381.647164 175.398733
4253 3 -128.574666 -342.882778 156.960240
4254 3 -83.532130 -385.862947 181.599748
4255 2 -362.121927 29.951202 -61.288631
4256 3 -357.699621 32.255473 -6.862523
4257 3 -298.482330 51.614657 -89.245879
4258 2 271.182263 -229.189095 671.073236
4259 3 294.984800 -313.807382 604.938386
4260 3 301.753761 -283.599906 683.264806
4261 2 -132.426257 103.166259 441.604029
4262 3 -175.317189 62.514508 378.683432
4263 3 -183.394019 54.475353 454.964516
4264 2 47.413692 150.011250 590.190440
4265 3 73.414600 65.303114 602.218270
4266 3 84.817188 78.037610 492.005611
4267 2 49.829110 -168.837195 287.401633
4268 3 -33.183391 -148.212371 310.439790
4269 3 31.289711 -191.083055 318.197595
4270 2 301.682817 162.261357 456.741490
4271 3 309.776606 213.426342 421.525417
4272 3 351.737337 237.108200 430.469779
4273 2 215.320907 30.435004 130.918207
4274 3 214.075663 21.207990 168.324767
4275 3 208.429225 18.754049 150.895897
4276 2 -191.422238 163.012008 707.261198
4277 3 -119.181217 160.825830 595.953061
4278 3 -154.135702 266.753148 616.341809
4279 2 -562.551528 -120.786337 186.502150
4280 3 -397.652095 -159.618047 227.915547
4281 3 -454.850309 -115.752928 202.475732
4282 2 -85.384492 40.379738 600.590200
4283 3 -59.883115 41.600384 743.813840
4284 3 -81.936371 -26.428197 679.267646
4285 2 9.737892 249.187396 443.724021
4286 3 30.990578 255.546724 375.259161
4287 3 48.761874 319.643713 362.272211
4288 2 123.944210 250.875771 440.683657
4289 3 103.664011 215.962356 406.745329
4290 3 126.155807 190.250209 477.545808
4291 2 212.441202 128.645324 298.443439
4292 3 231.203217 110.643421 353.055059
4293 3 170.658891 103.162731 421.620112
4294 2 140.158929 -11.634026 619.457567
4295 3 74.303704 29.185898 525.448215
4296 3 152.102028 83.834126 580.307328
4297 2 48.570498 183.498944 192.314535
4298 3 -20.136792 113.241081 156.362856
4299 3 -35.095752 138.088940 136.756950
4300 2 111.991737 -298.671487 212.427282
4301 3 -0.160097 -237.963761 268.060777
4302 3 133.362556 -319.699438 279.902151
4303 2 138.434113 136.345701 206.063762
4304 3 230.099156 102.619642 244.900672
4305 3 248.963334 147.927321 336.723144
4306 2 456.306519 375.593258 386.842895
4307 3 463.242560 369.056906 325.484402
4308 3 415.656764 398.442500 375.467776
4309 2 488.603584 138.653635 133.393708
4310 3 439.721677 63.344635 78.372253
4311 3 411.640620 200.674038 87.344878
4312 2 -74.095752 97.335401 341.411321
4313 3 -85.959570 149.632694 339.854955
4314 3 -132.635636 70.303810 362.248962
4315 2 -124.309678 39.617472 285.767068
4316 3 -223.845389 -25.406773 312.128325
4317 3 -165.692409 -2.460931 225.207665
4318 2 -305.707567 206.139780 270.985006
4319 3 -336.007813 207.662413 303.332795
4320 3 -380.454349 281.161062 268.121981
4321 2 -135.795454 148.023670 317.915616
4322 3 -161.575434 99.226487 475.664064
4323 3 -115.467446 70.113229 395.652965
4324 2 207.821313 359.096124 574.598697
4325 3 157.569936 366.912798 569.543331
4326 3 210.637420 397.512119 508.917760
4327 2 74.248999 23.633910 385.785279
4328 3 12.394667 -44.747622 345.397483
4329 3 30.100673 3.358506 327.540035
4330 2 189.567969 7.513961 472.908558
4331 3 157.402216 -123.435364 535.393805
4332 3 123.257319 -28.352976 375.006373
4333 2 83.389734 -143.546298 327.058279
4334 3 59.213395 -134.365131 366.019941
4335 3 67.361988 -198.328656 340.066965
4336 2 431.731715 68.425067 229.600024
4337 3 461.130082 84.882241 173.145298
4338 3 423.881668 40.578996 182.984993
4339 2 221.684766 -3.108189 437.900510
4340 3 176.628185 -11.602076 434.285522
4341 3 233.175435 75.650766 567.401381
4342 2 426.702693 288.273109 286.582099
4343 3 497.519780 372.634474 397.765134
4344 3 450.610633 314.825719 264.113196
4345 2 218.993475 37.142853 700.664338
4346 3 230.381525 32.494560 652.231591
4347 3 188.480288 95.974990 617.498547
4348 2 174.799025 60.805839 139.131844
4349 3 333.850222 -0.620016 171.141791
4350 3 248.344366 -28.052064 277.287026
4351 2 -237.670536 225.279404 -105.716450
4352 3 -203.861917 179.611619 -99.933846
4353 3 -257.975398 252.046759 -114.757684
4354 2 -261.599183 -552.930417 585.584152
4355 3 -272.227807 -490.091202 486.709044
4356 3 -206.286196 -559.495383 633.247019
4357 2 -241.453907 479.207048 523.093443
4358 3 -237.856744 456.254417 610.706173
4359 3 -220.956329 474.981412 585.666225
4360 2 30.254113 -96.420187 524.429791
4361 3 26.983219 -145.639320 514.882833
4362 3 35.311489 -209.672648 449.713008
4363 2 -24.293623 -269.495683 553.988307
4364 3 -10.232281 -169.909143 569.569828
4365 3 -72.841935 -291.932036 570.516733
4366 2 81.131142 191.120365 314.398035
4367 3 102.198837 152.752917 294.743241
4368 3 134.066925 225.568879 276.872987
4369 2 -137.940729 257.772480 18.438391
4370 3 -159.570431 228.044805 -17.329770
4371 3 -150.379360 292.045110 155.589591
4372 2 261.537727 93.101144 368.408701
4373 3 309.882553 160.437710 326.863244
4374 3 297.472085 155.308940 349.678910
4375 2 192.206101 -119.324688 603.297363
4376 3 218.399133 -22.833748 747.813804
4377 3 227.540805 -28.895035 666.871409
4378 2 120.835455 89.387931 398.692480
4379 3 83.296106 122.092126 475.305363
4380 3 58.795660 91.035133 382.063640
4381 2 -60.860868 277.721975 389.705421
4382 3 -24.271309 231.049613 470.432595
4383 3 -24.856056 241.796016 456.130517
4384 2 117.687630 -43.074573 382.698121
4385 3 154.841116 43.525647 419.062592
4386 3 136.589041 -3.206253 431.955881
4387 2 -232.912247 -85.661635 216.541407
4388 3 -283.763389 -78.717216 212.943007
4389 3 -234.317608 -41.566566 225.530736
4390 2 126.014056 171.990274 66.715704
4391 3 99.859971 67.962267 44.586721
4392 3 83.215820 86.842301 93.376728
4393 2 -4.652658 292.356372 466.667263
4394 3 20.087769 105.017464 441.684036
4395 3 -2.125236 366.175847 484.754158
4396 2 433.098547 -38.383877 289.238409
4397 3 467.409292 -13.731829 272.840917
4398 3 413.744545 -128.892166 344.574979
4399 2 315.074933 272.537633 198.664658
4400 3 386.915967 191.997941 57.816948
4401 3 335.456901 256.215607 63.397503
4402 2 286.925570 0.343742 504.467425
4403 3 280.478640 9.849963 414.790797
4404 3 321.517722 60.764198 548.095380
4405 2 642.240216 -351.961134 483.177754
4406 3 609.829563 -349.683198 570.771367
4407 3 578.881508 -328.051424 570.926103
4408 2 -13.946443 385.441590 479.357214
4409 3 26.678107 364.776931 439.993858
4410 3 26.011937 342.940538 449.460625
4411 2 -360.542856 -93.122621 408.091456
4412 3 -407.507959 -56.093773 392.744937
4413 3 -375.147740 -66.255230 342.827675
4414 2 -355.052455 439.237266 753.638349
4415 3 -357.813012 414.731792 820.638474
4416 3 -326.160971 370.661901 665.154587
4417 2 -94.849082 219.486451 507.529821
4418 3 -178.698576 267.960034 493.994486
4419 3 -157.499280 196.523116 576.173035
4420 2 483.516066 461.739576 377.990791
4421 3 521.252901 411.554583 381.822993
4422 3 478.502450 384.680281 333.352678
4423 2 500.768881 223.566748 269.451649
4424 3 467.582484 296.441611 284.593779
4425 3 453.089463 241.805108 206.558840
4426 2 -35.066868 162.944030 294.691945
4427 3 -82.453866 138.847224 268.311535
4428 3 -44.470498 96.725336 258.100500
4429 2 -96.235770 260.739307 85.061510
4430 3 -98.648069 290.770291 101.890805
4431 3 -19.131745 237.147047 39.443666
4432 2 -86.502911 325.600569 384.542887
4433 3 -73.835938 440.535651 466.881081
4434 3 -25.303437 386.170666 477.919898
4435 2 113.461700 61.357355 400.705563
4436 3 98.562166 34.484563 414.450363
4437 3 50.631432 82.555894 436.972905
4438 2 458.237473 -255.756575 260.415914
4439 3 443.501795 -112.963641 305.527406
4440 3 454.099927 -227.917713 177.313542
4441 2 747.108283 5.546000 390.068071
4442 3 711.659189 -37.965333 364.814711
4443 3 747.636932 44.493938 446.161604
4444 2 15.179841 471.701331 647.887982
4445 3 -70.631059 551.526893 715.070262
4446 3 -16.698604 547.905719 656.346399
4447 2 21.556876 373.322924 54.938611
4448 3 -42.691538 449.453146 100.375171
4449 3 16.139591 384.345665 103.967842
4450 2 -238.340875 -98.247126 321.064513
4451 3 -216.708967 -104.479833 358.079463
4452 3 -231.679167 -40.840756 293.167390
4453 2 153.833635 -88.056257 237.708707
4454 3 163.793178 -73.764656 253.357853
4455 3 224.533929 -72.197581 302.236117
4456 2 138.286815 -137.557209 161.531580
4457 3 190.851089 -164.542411 240.765586
4458 3 164.036587 -168.072557 256.527509
4459 2 194.503715 295.778765 330.461219
4460 3 196.074885 302.289544 344.612510
4461 3 221.347316 383.064704 409.947441
4462 2 -233.011637 336.699119 186.332910
4463 3 -197.792383 200.294083 162.623886
4464 3 -212.497174 211.005623 113.681004
4465 2 119.363970 302.145072 360.391759
4466 3 168.484886 329.699827 392.495137
4467 3 87.648393 246.479346 382.344106
4468 2 -115.472992 238.034035 179.346184
4469 3 3.641482 282.273955 192.489955
4470 3 -85.849470 286.028379 247.669851
4471 2 -196.127702 -222.384053 490.090950
4472 3 -151.744319 -135.734033 359.903268
4473 3 -182.349834 -166.214076 465.638505
4474 2 316.687380 213.089674 163.076110
4475 3 335.625163 205.065385 151.668433
4476 3 312.130460 177.522201 167.314203
4477 2 -318.598568 242.689267 455.756869
4478 3 -277.857655 218.649850 471.308388
4479 3 -293.800506 229.440558 455.998218
4480 2 -50.151021 105.975797 658.743352
4481 3 -6.426450 78.435084 670.395689
4482 3 -0.654104 33.795395 686.549951
4483 2 309.854994 416.405206 227.741603
4484 3 262.759763 329.386284 265.411164
4485 3 265.101735 411.544609 315.496780
4486 2 -264.813133 159.282367 -46.239378
4487 3 -208.313089 112.461314 59.181847
4488 3 -252.911101 197.078833 120.819210
4489 2 -78.836237 235.903124 333.470363
4490 3 -135.054369 92.283937 294.979552
4491 3 -99.193628 231.341672 286.517445
4492 2 -63.321568 -269.248795 118.119095
4493 3 -92.299099 -286.107914 54.484198
4494 3 -39.261473 -280.993588 79.321377
4495 2 -387.353192 -71.256945 290.742871
4496 3 -276.574338 -60.571146 262.575983
4497 3 -361.821465 4.862277 226.509360
4498 2 55.278071 29.729321 321.774480
4499 3 70.825910 55.434773 395.690201
4500 3 87.948079 38.448211 347.448946
4501 2 -66.798185 -2.510199 469.903215
4502 3 -62.868514 37.391165 495.967086
4503 3 -84.168008 5.275371 409.099953
4504 2 161.258700 275.330828 390.764292
4505 3 136.347999 308.359002 359.884042
4506 3 208.541778 364.310919 224.900259
4507 2 -75.207485 605.850097 540.747904
4508 3 -117.609072 646.945756 569.782318
4509 3 -58.760746 540.408365 602.483495
4510 2 30.437525 410.928592 401.795986
4511 3 29.546862 336.152129 324.319342
4512 3 84.683657 411.217443 423.644709
4513 2 -49.041790 -206.781508 509.704762
4514 3 -21.291604 -227.337320 484.818444
4515 3 -79.938405 -192.431264 534.224224
4516 2 39.148174 292.915190 767.233726
4517 3 -18.832325 349.732565 758.816493
4518 3 -23.125728 376.758849 756.311635
4519 2 106.843118 -139.761709 278.830770
4520 3 168.563372 -191.316973 282.073532
4521 3 107.320889 -117.581547 201.566468
4522 2 187.226736 526.817682 534.548236
4523 3 240.627849 566.277481 545.561664
4524 3 205.170535 455.100990 544.294289
4525 2 34.616791 570.858471 337.567310
4526 3 47.515606 636.664437 256.794782
4527 3 102.056032 576.705248 329.017575
4528 2 416.895636 -314.460285 262.358659
4529 3 398.749595 -332.459694 130.583917
4530 3 393.160395 -303.809775 87.060699
4531 2 86.881912 132.087665 293.399291
4532 3 81.511884 131.152320 153.456719
4533 3 130.097691 159.799236 213.694380
4534 2 31.245924 250.742171 456.938333
4535 3 -15.178731 196.263275 483.305255
4536 3 -38.732121 276.707180 525.888510
4537 2 -75.505420 61.248078 484.475500
4538 3 -135.371765 11.736546 558.372584
4539 3 -163.756970 40.682817 656.663326
4540 2 -147.861620 78.277705 297.062789
4541 3 -170.575071 57.507931 193.607742
4542 3 -165.979104 71.677943 155.009791
4543 2 374.649752 25.975576 450.248218
4544 3 350.361088 162.579917 390.860757
4545 3 367.381919 59.193489 486.664465
4546 2 486.707289 -254.360000 618.086567
4547 3 514.695045 -287.836245 566.289075
4548 3 572.750644 -320.531355 568.635137
4549 2 -72.553995 346.167465 483.059884
4550 3 -40.895378 357.667316 554.705452
4551 3 -49.778025 386.397483 530.153110
4552 2 47.054538 319.161220 873.031108
4553 3 88.435667 361.580017 894.180990
4554 3 46.742586 277.767983 883.628007
4555 2 -140.573438 527.074786 503.350210
4556 3 -121.156417 578.804534 441.428959
4557 3 -81.944672 467.499992 509.310855
4558 2 145.252165 161.212398 18.028226
4559 3 129.697310 146.902780 0.786434
4560 3 84.613201 157.659781 -103.144483
4561 2 -207.884988 283.067801 536.411897
4562 3 -196.757368 321.099584 553.761868
4563 3 -231.453642 354.408278 575.319606
4564 2 -97.895521 262.289703 507.394385
4565 3 -71.427793 239.624814 455.898394
4566 3 -133.419785 247.174531 415.540786
4567 2 -426.707996 247.051179 303.284322
4568 3 -422.825333 237.581662 314.614677
4569 3 -484.283703 328.238695 308.509887
4570 2 38.269955 247.518741 614.589190
4571 3 111.212592 254.564208 654.799185
4572 3 -20.502472 185.132569 563.587299
4573 2 1.883865 297.403191 127.923206
4574 3 -19.550528 334.224530 184.775843
4575 3 35.160306 272.323466 214.532144
4576 2 -79.563142 -4.392210 282.370494
4577 3 -109.409324 -103.744972 233.499611
4578 3 -22.673852 -61.892315 240.200760
4579 2 -92.959258 530.002432 427.874028
4580 3 -82.259813 482.428075 368.736625
4581 3 -73.185085 485.555749 419.233344
4582 2 -288.463725 493.404504 351.582095
4583 3 -303.444944 424.632031 322.472620
4584 3 -290.287129 532.392849 389.392812
4585 2 98.426965 66.504659 223.140610
4586 3 169.923993 49.854700 409.432933
4587 3 206.699566 -1.282100 243.780523
4588 2 28.109476 -251.851324 153.164093
4589 3 -80.887447 -212.871432 237.819048
4590 3 -13.812805 -292.248103 199.973365
4591 2 57.158482 412.176651 374.244649
4592 3 35.907184 364.195549 312.377996
4593 3 60.213684 369.524620 246.561124
4594 2 170.287904 464.247614 325.661520
4595 3 152.689801 408.556663 352.840687
4596 3 76.712047 412.249297 329.928592
4597 2 -52.629142 350.909225 708.852991
4598 3 -65.486027 387.053122 750.334679
4599 3 -71.283157 316.853788 820.560460
4600 2 -295.988142 447.483218 82.077626
4601 3 -310.106775 428.979027 109.948553
4602 3 -315.925099 413.074160 118.930907
4603 2 -317.343031 195.094628 423.609318
4604 3 -290.153771 174.311026 433.938039
4605 3 -327.379655 235.416465 500.872107
4606 2 38.811663 312.154904 532.524045
4607 3 40.119077 244.723236 515.637397
4608 3 -5.381910 241.590119 586.202654
4609 2 -82.631175 267.548135 204.550057
4610 3 -71.119868 344.921717 243.011585
4611 3 -58.142024 321.258439 214.024518
4612 2 -41.504782 221.550022 113.914713
4613 3 -106.920991 191.596381 123.252531
4614 3 -70.662032 232.500907 112.605794
4615 2 179.970341 169.232126 256.850875
4616 3 127.093441 266.540927 248.247427
4617 3 73.017750 229.746134 241.673761
4618 2 98.299246 708.647112 433.898073
4619 3 7.741013 610.524198 390.975306
4620 3 120.688028 602.000190 510.525052
4621 2 -62.589067 322.436740 519.694931
4622 3 -17.370481 318.432966 524.967585
4623 3 -78.581021 300.770301 471.276651
4624 2 512.519610 691.369146 310.771238
4625 3 492.750546 760.026827 305.404351
4626 3 535.047925 749.117450 294.950417
4627 2 -85.791098 616.123267 238.964808
4628 3 -106.349463 553.917250 263.138152
4629 3 -63.887309 661.338557 360.282008
4630 2 320.707591 -60.380180 50.439656
4631 3 331.461809 -80.202568 -8.414248
4632 3 319.738072 -84.351954 7.594633
4633 2 -173.950431 21.501396 416.631467
4634 3 -213.658596 8.149279 520.317308
4635 3 -203.643886 51.294647 446.727297
4636 2 69.992232 -251.793882 187.837501
4637 3 27.578014 -188.859839 197.664612
4638 3 43.289271 -126.214950 292.498036
4639 2 -166.734585 44.864088 342.885982
4640 3 -168.599550 33.296022 404.779372
4641 3 -134.863415 73.987862 303.473508
4642 2 76.097781 -127.286244 258.725201
4643 3 18.079147 -71.154749 284.521854
4644 3 54.610030 -15.654635 160.269215
4645 2 408.474196 146.317332 290.237404
4646 3 391.393884 66.773421 294.359685
4647 3 356.057935 68.892066 305.344771
4648 2 -20.873952 6.422782 467.759346
4649 3 -10.951406 12.543255 596.988461
4650 3 15.142490 89.374749 546.181383
4651 2 -362.747181 51.618380 274.023340
4652 3 -391.030444 121.214147 319.225485
4653 3 -387.128209 50.914182 400.373654
4654 2 55.734165 -421.765157 171.262825
4655 3 165.780444 -413.269490 150.437122
4656 3 134.702421 -365.319831 263.549312
4657 2 258.714335 252.178854 335.370226
4658 3 230.110397 261.526433 324.472399
4659 3 200.348956 198.378769 390.365587
4660 2 -18.576014 259.642302 318.570966
4661 3 -18.648631 201.453927 303.052163
4662 3 -15.065975 168.819695 444.167305
4663 2 297.966446 -435.332153 178.546486
4664 3 315.978414 -443.317716 86.833415
4665 3 289.598102 -428.791209 51.673820
4666 2 35.453962 10.119190 219.631222
4667 3 17.917167 -5.227011 189.023301
4668 3 80.497464 29.671465 215.038570
4669 2 -50.734480 -31.534119 324.808331
4670 3 -22.981130 47.083003 318.010827
4671 3 10.311872 30.643747 326.067495
4672 2 -36.303072 132.405488 360.836556
4673 3 -80.132157 76.346449 369.682497
4674 3 -3.156917 125.847386 444.511356
4675 2 -235.653430 278.524305 389.280220
4676 3 -193.576671 268.216682 428.450238
4677 3 -215.723153 296.771544 403.699835
4678 2 78.509729 -135.676804 257.821676
4679 3 38.979511 -127.060445 275.878273
4680 3 64.322171 -116.541878 260.535703
4681 2 60.341246 -107.708463 128.358335
4682 3 105.761576 -41.247311 65.015918
4683 3 95.997830 -65.568156 97.851963
4684 2 -172.876776 235.142621 755.403367
4685 3 -143.258727 128.159243 794.653798
4686 3 -151.641676 117.734661 600.773020
4687 2 -44.001613 90.187745 739.289772
4688 3 -59.603822 46.253229 754.967906
4689 3 -26.888066 41.332304 761.840878
4690 2 239.433470 5.312580 617.903600
4691 3 245.484813 75.266318 501.401118
4692 3 259.436834 -31.326048 531.226889
4693 2 81.965966 -173.819411 218.994545
4694 3 58.087868 -152.763378 200.433145
4695 3 153.274851 -211.826107 187.889738
4696 2 446.196462 -97.855441 202.611334
4697 3 453.059094 -147.349984 197.085412
4698 3 499.770447 -120.082317 233.976108
4699 2 54.189857 98.394493 90.243441
4700 3 -6.259243 125.491948 138.632107
4701 3 -32.132350 126.170279 157.754107
4702 2 374.258405 160.979195 140.904399
4703 3 296.210065 211.312643 263.770050
4704 3 360.220353 231.536986 250.882979
4705 2 186.115478 -462.582122 -1.989003
4706 3 128.027033 -362.850868 64.200610
4707 3 138.238045 -431.461111 0.049820
4708 2 350.537880 -234.920381 375.524977
4709 3 397.418876 -136.892660 436.691368
4710 3 433.182506 -145.624678 381.611757
4711 2 -354.057373 157.018114 605.329156
4712 3 -349.220401 88.964256 655.055738
4713 3 -287.556398 144.199930 626.589010
4714 2 186.271539 -136.282467 511.693858
4715 3 227.358763 -119.606013 515.104438
4716 3 177.761542 -128.030615 478.253505
4717 2 21.614175 97.988607 566.003811
4718 3 -0.886776 87.927978 623.388891
4719 3 37.347300 51.835019 599.364268
4720 2 -79.507309 41.793602 670.890269
4721 3 -43.500800 -72.139386 589.495696
4722 3 -37.605875 -43.205588 568.511142
4723 2 -304.977451 164.324807 399.393461
4724 3 -296.668342 258.427465 393.934556
4725 3 -362.418174 216.836982 401.922897
4726 2 -54.647407 199.342371 450.376974
4727 3 -65.490112 143.648356 399.946829
4728 3 -93.628598 184.930200 440.267681
4729 2 -421.515468 299.306919 520.267636
4730 3 -395.376235 288.499076 501.089395
4731 3 -434.159522 280.822858 548.463234
4732 2 -217.122598 50.635473 175.141202
4733 3 -213.344823 99.388952 177.679458
4734 3 -149.289153 59.797901 220.487788
4735 2 -55.282428 -123.140142 452.879914
4736 3 -40.629408 -129.407835 375.980587
4737 3 11.844441 -163.491886 355.419131
4738 2 86.531958 62.871995 492.391289
4739 3 -5.481078 24.310596 360.183144
4740 3 -24.476960 37.910850 433.762748
4741 2 167.114862 -107.306150 812.448714
4742 3 120.533471 -126.843906 791.444896
4743 3 177.344448 -219.536473 698.025003
4744 2 469.418633 95.833316 287.491548
4745 3 380.204220 52.083833 254.334946
4746 3 354.672369 167.078500 343.493745
4747 2 228.702374 120.417822 101.790271
4748 3 221.007796 113.106508 215.077779
4749 3 264.400731 22.867666 143.301158
4750 2 -299.786452 230.376549 321.040950
4751 3 -306.578461 115.691221 353.886420
4752 3 -338.155639 228.361115 322.724209
4753 2 -120.644863 7.588959 501.138329
4754 3 -71.348098 119.058696 507.020738
4755 3 -53.768082 51.893369 456.235101
4756 2 48.100784 232.989269 457.825271
4757 3 101.375315 190.813497 470.983379
4758 3 -35.897200 219.966024 455.312626
4759 2 73.243682 262.735842 162.337736
4760 3 53.487156 239.077885 146.697032
4761 3 122.681069 204.151653 228.793370
4762 2 -144.030785 -301.751024 510.565757
4763 3 -115.642906 -345.697638 456.360499
4764 3 -147.095268 -270.112946 449.783456
4765 2 114.693899 97.601666 589.785794
4766 3 102.394794 34.825291 462.040567
4767 3 82.417177 43.739802 514.654695
4768 2 176.517961 11.310294 -21.111868
4769 3 162.293456 56.576501 -35.351934
4770 3 158.706843 -2.025777 -44.355799
4771 2 99.162664 346.538662 449.437228
4772 3 93.527652 331.179143 540.571543
4773 3 127.496633 320.769317 421.497039
4774 2 327.412560 -4.785273 224.130767
4775 3 252.898723 -58.311577 269.539627
4776 3 238.521386 -42.960651 151.245363
4777 2 15.922799 -295.242951 197.479043
4778 3 66.308877 -329.016896 190.739182
4779 3 19.990000 -307.557327 66.109584
4780 2 218.737310 -79.271974 108.845702
4781 3 163.736790 -87.910395 141.810360
4782 3 205.325992 -62.658877 211.401218
4783 2 350.771737 -323.636496 -32.534569
4784 3 315.910380 -340.332867 76.652405
4785 3 378.256726 -305.111809 -20.977627
4786 2 217.850480 201.876317 121.285679
4787 3 302.508083 262.865641 118.635079
4788 3 257.737791 221.310204 135.045498
4789 2 -266.349534 308.572014 410.074020
4790 3 -242.400748 275.219076 359.450168
4791 3 -220.870473 269.125184 337.287914
4792 2 -142.147481 273.709732 339.804175
4793 3 -162.137472 235.627714 279.045585
4794 3 -116.338869 235.372631 261.008343
4795 2 -370.401653 1.059598 423.637697
4796 3 -436.181879 -65.553856 441.821169
4797 3 -405.180728 45.704208 384.180717
4798 2 -110.724773 403.513219 193.692860
4799 3 -77.766366 297.127476 194.899898
4800 3 -25.611833 416.612379 98.012308
4801 2 219.530370 61.988185 362.405691
4802 3 207.858411 44.534702 247.016642
4803 3 211.694398 -0.804575 279.236155
4804 2 30.705331 53.734246 386.574496
4805 3 17.520492 72.256497 459.668413
4806 3 43.648059 62.533551 386.434115
4807 2 234.017512 196.576331 596.109495
4808 3 269.413533 218.644574 511.075984
4809 3 261.389505 228.579783 599.508265
4810 2 535.798476 -169.178075 385.424179
4811 3 554.739981 -186.775103 349.914465
4812 3 582.834670 -144.506434 423.715932
4813 2 248.874765 240.328848 94.459701
4814 3 301.168662 264.117501 74.504458
4815 3 229.774488 254.095628 119.477262
4816 2 -214.115069 222.993608 615.392874
4817 3 -141.267084 277.273327 528.260627
4818 3 -181.640276 175.115667 553.788586
4819 2 -54.941946 567.968502 358.925954
4820 3 -94.368402 505.960992 367.863120
4821 3 -42.163986 637.084987 481.451669
4822 2 -296.154828 -142.880852 532.393739
4823 3 -321.367630 -172.302951 628.609474
4824 3 -309.111349 -163.062152 590.301446
4825 2 109.082582 257.322737 845.005672
4826 3 76.297633 306.873757 797.245084
4827 3 67.099028 287.983681 786.716088
4828 2 458.777806 -71.333354 361.508162
4829 3 432.894542 -59.588166 319.822233
4830 3 489.348367 -104.475120 371.519477
4831 2 144.057367 143.853447 653.397814
4832 3 63.149900 255.296112 708.993003
4833 3 106.421056 105.383309 619.625035
4834 2 -113.346205 -153.404361 -81.864258
4835 3 -89.945369 -200.612963 -42.443545
4836 3 -81.583009 -105.820395 -3.192396
4837 2 496.019072 -33.156663 502.155425
4838 3 489.953827 -72.463686 386.579958
4839 3 528.047202 -69.446001 465.644520
4840 2 41.394508 362.610016 5.719703
4841 3 58.554716 338.550575 10.453203
4842 3 -14.860817 345.928484 29.164722
4843 2 -270.832726 122.029887 382.774843
4844 3 -186.917280 25.312514 288.105400
4845 3 -208.644635 141.395675 362.368788
4846 2 -7.725547 427.032696 463.285910
4847 3 -55.113555 422.671286 474.474445
4848 3 -61.363419 460.793413 431.491783
4849 2 16.538125 20.269497 383.120961
4850 3 70.108810 44.241653 380.450111
4851 3 61.612765 -37.839419 384.200903
4852 2 -103.733701 352.885904 114.278941
4853 3 -106.959446 396.372284 228.464043
4854 3 -133.538107 349.509914 187.520389
4855 2 -74.972303 318.533496 579.600517
4856 3 -51.138368 323.409875 402.829283
4857 3 -90.438904 299.269395 361.243380
4858 2 587.354098 -213.908744 510.948962
4859 3 592.174061 -276.924800 481.432774
4860 3 601.643606 -232.171993 503.171339
4861 2 383.985027 420.400709 466.645010
4862 3 412.247510 408.637793 572.398219
4863 3 385.099145 431.838436 501.180731
4864 2 -361.453461 62.094364 322.833240
4865 3 -367.093909 52.326759 261.396088
4866 3 -328.409937 159.027284 362.750960
4867 2 -357.393120 350.705822 563.713472
4868 3 -363.431176 435.303340 564.013682
4869 3 -401.905201 330.035264 598.036334
4870 2 -337.920057 128.983323 156.044988
4871 3 -303.903291 222.711142 63.470115
4872 3 -298.592639 219.005463 146.750163
4873 2 -176.056993 422.750379 418.188608
4874 3 -219.706931 432.387523 345.789287
4875 3 -207.786041 392.277254 454.046173
4876 2 463.200852 96.685942 469.860702
4877 3 398.191341 104.512263 417.204172
4878 3 433.595891 83.267340 516.745903
4879 2 4.047502 396.573832 521.768683
4880 3 -43.752109 380.058148 501.969099
4881 3 22.187421 332.276679 482.432452
4882 2 89.627679 449.096180 556.221999
4883 3 57.752516 387.796673 654.832767
4884 3 76.596838 306.099828 677.291171
4885 2 176.899005 198.969394 342.427236
4886 3 176.659861 274.155917 322.295649
4887 3 217.817732 259.260553 338.554477
4888 2 -215.743243 -3.983412 488.207066
4889 3 -216.970925 30.634726 374.336058
4890 3 -268.588246 53.823883 412.486693
4891 2 -156.649363 382.442423 458.381073
4892 3 -136.922057 311.044718 441.680825
4893 3 -180.714844 364.309004 521.086671
4894 2 -135.252717 81.885636 37.854022
4895 3 -58.293956 146.427464 -17.302332
4896 3 -96.788786 60.687610 36.906465
4897 2 -97.098566 273.054883 -79.970696
4898 3 -77.903459 284.334470 -13.777246
4899 3 -88.590159 345.476035 -26.356516
4900 2 -32.738685 228.192910 289.686676
4901 3 2.774889 212.010687 334.249616
4902 3 25.260548 179.186143 287.601317
4903 2 73.970254 554.185819 221.501821
4904 3 200.623967 549.066475 245.000791
4905 3 157.189225 526.860315 196.571015
4906 2 62.956463 30.758140 530.836893
4907 3 16.776227 -52.924516 517.982021
4908 3 64.282336 -12.816752 556.717981
4909 2 425.263315 158.343624 404.111419
4910 3 482.006731 122.345475 353.878264
4911 3 461.050314 174.851721 426.485905
4912 2 -238.567485 297.345871 506.049402
4913 3 -154.092749 316.125320 556.063536
4914 3 -153.576696 352.606206 444.974937
4915 2 -9.600350 104.801890 181.249608
4916 3 -31.750850 201.016469 175.405007
4917 3 6.463456 108.648832 272.725224
4918 2 -28.363104 -61.557425 249.265538
4919 3 -58.460610 -26.623777 229.303301
4920 3 -15.962230 -17.596446 161.255764
4921 2 188.287462 228.919432 423.793946
4922 3 196.888171 290.536358 415.602857
4923 3 152.062477 233.526451 387.428552
4924 2 -209.731662 -88.499386 519.687329
4925 3 -229.722035 -1.209379 418.523876
4926 3 -228.868348 -0.038192 377.755975
4927 2 283.604490 376.922174 538.511076
4928 3 261.688216 307.867509 577.636220
4929 3 266.382710 314.785975 519.090969
4930 2 251.572588 445.828657 351.601580
4931 3 233.921943 474.533646 348.828064
4932 3 258.201585 446.661883 366.308230
4933 2 429.824401 238.920369 266.951957
4934 3 341.732142 258.213845 229.446782
4935 3 374.694591 246.189795 299.286757
4936 2 36.162780 42.661345 226.061315
4937 3 -9.217399 46.596635 251.195975
4938 3 -21.768395 3.958598 217.932851
4939 2 -73.800091 133.190743 286.726373
4940 3 -111.630152 191.945836 225.393898
4941 3 -158.046713 60.870814 268.720481
4942 2 100.466238 681.809666 168.938526
4943 3 75.396894 798.472076 136.586798
4944 3 140.436601 789.219600 231.531827
4945 2 -89.295354 109.273394 775.668009
4946 3 -45.626096 37.934871 746.791653
4947 3 7.317966 94.362112 724.963117
4948 2 207.763668 -66.762741 175.842146
4949 3 187.249982 8.118772 239.200012
4950 3 132.617071 -4.589925 210.861727
4951 2 133.661650 348.578074 360.298172
4952 3 161.189728 406.315947 266.257840
4953 3 91.858743 386.762508 344.856147
4954 2 31.237623 507.672204 596.408782
4955 3 110.799583 437.663288 688.030812
4956 3 110.352692 474.815868 681.891407
4957 2 -158.170802 323.675038 437.611814
4958 3 -212.340423 330.234379 578.009129
4959 3 -217.880347 280.621827 517.982353
4960 2 179.558633 118.438255 516.012927
4961 3 177.625239 51.093213 487.838327
4962 3 240.559124 39.350933 534.579124
4963 2 -297.477339 298.375566 365.818632
4964 3 -329.803293 346.430682 300.301343
4965 3 -411.710137 341.553026 320.684592
4966 2 -224.645882 295.409118 -71.858719
4967 3 -232.801025 187.238544 -116.540978
4968 3 -142.824155 299.283839 44.249325
4969 2 -99.169225 163.277247 470.195380
4970 3 -126.574409 93.701478 441.982769
4971 3 -94.715687 78.594209 315.743627
4972 2 -113.591401 187.038137 413.962130
4973 3 -92.911214 175.445478 329.994649
4974 3 -60.440809 232.635252 411.688841
4975 2 -30.597933 -181.569065 283.167147
4976 3 -96.392804 -168.562211 248.650044
4977 3 -47.411514 -209.352887 213.905006
4978 2 149.041218 -179.861913 433.566754
4979 3 146.293330 -147.554193 412.977066
4980 3 144.499925 -198.437002 437.516898
4981 2 -6.479735 312.024968 437.215213
4982 3 -21.155122 356.820438 422.016049
4983 3 -36.243123 349.921220 541.067193
4984 2 174.024773 14.282208 712.522670
4985 3 166.254062 -81.441641 728.725866
4986 3 159.116530 -39.027200 685.437533
4987 2 -3.929543 174.277090 416.039646
4988 3 31.161979 131.817759 269.958223
4989 3 60.788981 200.630539 422.987200
4990 2 -163.507694 223.102318 144.716046
4991 3 -92.364755 238.743680 180.765490
4992 3 -80.679386 245.673899 165.355202
4993 2 60.176881 425.385707 105.266050
4994 3 73.330321 373.472778 92.083627
4995 3 -9.120114 368.588797 114.992755
4996 2 214.030688 371.156192 146.767296
4997 3 195.298081 317.562855 255.993848
4998 3 172.460208 344.573600 220.516277
4999 2 -188.143212 194.892305 538.867120
5000 3 -123.151474 208.966439 488.041923
5001 3 -133.440479 112.745201 470.995077
5002 2 143.324330 397.288646 354.419379
5003 3 175.743795 440.529965 258.056843
5004 3 194.519984 290.962808 284.002327
5005 2 237.582063 233.843628 414.063836
5006 3 194.166524 185.997236 390.665206
5007 3 156.902494 219.895628 347.912822
5008 2 299.168688 140.878706 18.817022
5009 3 287.650929 244.313313 24.628897
5010 3 280.481623 207.768524 48.637636
5011 2 -151.963756 444.286426 324.326206
5012 3 -160.087014 342.885803 272.758604
5013 3 -117.480558 410.789625 375.936635
5014 2 -41.460855 103.170090 365.604998
5015 3 -151.970177 114.925427 402.901577
5016 3 -117.430555 170.898744 381.807124
5017 2 306.827795 256.227405 397.322255
5018 3 267.306725 290.765183 312.934315
5019 3 268.313072 209.167242 287.639974
5020 2 530.200550 -106.963286 -68.629086
5021 3 507.331224 -19.331096 -81.639479
5022 3 434.898213 -21.019729 -42.641089
5023 2 150.593395 474.979497 351.799899
5024 3 152.727344 438.089616 426.701089
5025 3 147.780628 491.110877 405.007878
5026 2 226.869356 550.706288 380.448081
5027 3 170.379234 566.683375 459.705169
5028 3 191.757651 589.353206 436.750820
5029 2 -281.572277 308.074713 173.371857
5030 3 -348.899750 377.305991 200.164894
5031 3 -329.348915 408.811091 233.400304
5032 2 -136.327924 398.722471 379.107342
5033 3 -147.953073 408.758637 350.475102
5034 3 -176.980749 367.641783 454.308335
5035 2 -53.324563 573.434381 96.247101
5036 3 -1.732829 524.955218 -14.422422
5037 3 -20.101619 544.405328 5.237735
5038 2 -124.336769 221.163574 139.699050
5039 3 -19.985587 210.390670 113.875577
5040 3 -107.059366 229.085979 135.986286
5041 2 -305.736260 330.740225 606.145497
5042 3 -223.625114 461.090079 554.603488
5043 3 -218.834928 408.381205 559.836212
5044 2 78.536006 3.642439 567.639556
5045 3 67.958056 148.071001 567.046444
5046 3 99.043844 20.097991 668.248720
5047 2 -6.682628 273.927077 400.667516
5048 3 -36.928714 305.779717 378.747017
5049 3 -76.787234 166.997705 425.967485
5050 2 -105.023994 221.059668 -29.019229
5051 3 -106.577071 155.795386 -6.813397
5052 3 -71.720114 190.747982 46.681172
5053 2 -477.584897 493.510964 231.610671
5054 3 -407.163742 504.275202 270.259705
5055 3 -379.311193 595.479498 177.038556
5056 2 209.239504 94.469461 434.345748
5057 3 218.015982 44.617229 450.094774
5058 3 215.637059 50.535267 437.884715
5059 2 546.353865 -243.403884 232.372173
5060 3 542.391681 -238.337513 237.930035
5061 3 531.535263 -185.041100 232.305895
5062 2 183.659832 86.008521 308.015418
5063 3 223.008941 128.243155 246.450174
5064 3 117.403270 66.192804 302.766733
5065 2 346.724016 393.801057 406.610594
5066 3 319.405367 358.079839 394.317577
5067 3 304.419440 456.204973 399.524838
5068 2 -120.439058 32.412717 463.509361
5069 3 -54.013698 48.825006 449.454536
5070 3 -86.475562 142.810821 433.922577
5071 2 -116.598338 -94.608665 264.791869
5072 3 -130.718376 -37.853114 342.501485
5073 3 -93.689312 -41.434996 380.965209
5074 2 -167.926598 -242.831747 401.724172
5075 3 -166.693949 -255.508866 347.617594
5076 3 -215.079313 -218.554565 396.867494
5077 2 236.837748 -415.222328 588.044320
5078 3 187.422176 -438.625400 577.800219
5079 3 251.852936 -437.072891 554.009896
5080 2 75.744629 -130.841127 -20.999354
5081 3 111.473447 -85.402288 139.150563
5082 3 112.298479 -89.305099 42.781345
5083 2 -5.879082 -126.643422 648.677937
5084 3 24.363207 -11.006583 758.695302
5085 3 -9.384534 5.035144 710.119148
5086 2 35.902307 -32.049586 300.969055
5087 3 53.402365 -87.380434 329.056490
5088 3 70.280640 -26.657451 228.319861
5089 2 158.868339 -370.021877 327.041082
5090 3 34.372773 -384.177278 252.723944
5091 3 101.672209 -365.919822 302.295015
5092 2 -64.943696 -30.358945 486.904559
5093 3 -29.893549 36.272930 510.103578
5094 3 -38.613492 18.038306 561.906680
5095 2 358.598539 261.383315 371.800570
5096 3 286.542554 319.388190 328.768938
5097 3 382.319902 293.749601 340.908400
5098 2 -43.605946 -366.603650 328.902381
5099 3 -67.368123 -409.930903 310.907024
5100 3 -94.271231 -346.629083 378.842338
5101 2 409.202537 189.711506 445.519890
5102 3 426.980575 216.328217 360.392940
5103 3 468.475760 142.823790 414.545869
5104 2 195.346778 -72.886981 345.583144
5105 3 299.791847 -145.430124 357.041332
5106 3 237.029084 -44.710128 374.127665
5107 2 -432.358032 116.089535 887.436885
5108 3 -458.592366 140.308158 839.881997
5109 3 -487.731387 187.196124 951.670138
5110 2 -70.620164 -27.546533 588.320764
5111 3 -121.301373 -37.262606 553.845602
5112 3 -84.311577 45.332542 589.419011
5113 2 -16.687034 -217.134820 416.322032
5114 3 -17.966509 -243.342094 317.006241
5115 3 -67.146647 -204.864978 378.503380
5116 2 314.907607 199.122851 110.162233
5117 3 329.047809 230.643004 134.863102
5118 3 310.574733 307.641026 42.902771
5119 2 375.368603 -113.419162 194.345479
5120 3 414.559877 -42.668223 126.542676
5121 3 417.846841 -76.262370 187.245330
5122 2 72.339603 63.965167 374.485517
5123 3 45.897393 120.572153 347.736018
5124 3 41.459860 41.052577 304.101734
5125 2 309.880162 316.482074 484.499451
5126 3 240.456406 296.289355 365.548278
5127 3 228.106947 264.549516 314.664496
5128 2 -83.481399 264.732666 630.252120
5129 3 -115.542370 277.610984 601.746607
5130 3 -67.655539 275.576985 709.016473
5131 2 424.186789 307.503092 448.357396
5132 3 421.413166 209.800440 370.080353
5133 3 333.352262 264.950224 338.148834
5134 2 -133.034711 82.352620 169.925500
5135 3 -246.677765 21.647275 43.249850
5136 3 -154.087647 2.626774 39.511875
5137 2 404.280053 -353.780174 802.345288
5138 3 428.512712 -257.784978 783.077113
5139 3 392.951238 -270.084970 780.495053
5140 2 111.903773 -91.406323 455.531758
5141 3 138.953605 -97.922773 488.417526
5142 3 169.186592 -58.987354 515.758920
5143 2 41.674115 -332.170751 387.271897
5144 3 30.111954 -379.471826 338.494361
5145 3 18.785940 -373.360282 497.727638
5146 2 -81.834263 -123.006481 138.425143
5147 3 -20.258271 -161.021874 138.580709
5148 3 -89.450860 -193.300919 162.812665
5149 2 -50.369206 108.031896 577.741173
5150 3 -130.462260 157.703463 470.072786
5151 3 -110.152406 149.982910 487.051619
5152 2 -682.353609 -14.419804 420.663427
5153 3 -565.612252 85.360757 365.397490
5154 3 -626.301288 70.392056 451.101352
5155 2 196.428357 88.081792 239.449775
5156 3 153.288088 77.133902 299.567592
5157 3 195.304195 107.620414 229.652279
5158 2 -31.746916 -105.869611 545.736549
5159 3 -38.119217 -41.896708 568.639418
5160 3 -24.511048 3.906729 564.402866
5161 2 -286.117365 372.176156 545.014681
5162 3 -319.214799 417.918214 661.606026
5163 3 -381.141574 338.570462 637.753963
5164 2 -426.818380 49.289230 244.926154
5165 3 -424.818159 -28.133684 318.714280
5166 3 -470.734639 -30.422917 276.803350
5167 2 225.038680 224.741766 395.346851
5168 3 223.124834 223.857728 435.694532
5169 3 185.571977 237.747252 251.872859
5170 2 -117.246319 -25.298538 428.125340
5171 3 -218.698662 -8.421927 405.333551
5172 3 -113.203726 -9.823515 464.772271
5173 2 231.332507 -39.082912 363.179741
5174 3 283.882594 -6.826857 294.418602
5175 3 248.128109 -56.311864 413.903343
5176 2 70.071572 417.043056 360.785261
5177 3 51.468558 391.467078 430.904502
5178 3 57.671981 339.065939 463.511575
5179 2 158.972105 -368.651910 413.714176
5180 3 222.655086 -431.416016 430.496350
5181 3 239.000685 -426.502782 448.502538
5182 2 507.762357 -347.962833 483.182920
5183 3 505.681135 -287.145728 451.763252
5184 3 514.506273 -279.860777 547.575817
5185 2 -150.467990 9.105265 583.724661
5186 3 -137.116092 56.962165 550.826494
5187 3 -166.034382 -27.344867 614.356071
5188 2 -226.600573 544.149106 751.217114
5189 3 -261.467797 488.556770 704.896794
5190 3 -284.408437 556.527096 623.959492
5191 2 -340.190493 245.061364 489.817717
5192 3 -331.955088 265.892419 362.431228
5193 3 -349.435376 219.536670 380.085246
5194 2 -50.964695 585.226885 378.043010
5195 3 -22.106529 586.633707 358.181981
5196 3 15.979609 577.439372 509.676753
5197 2 55.167536 206.114389 318.908725
5198 3 48.527480 271.924627 370.467655
5199 3 23.705726 274.057438 276.476995
5200 2 -160.839266 390.640178 347.871859
5201 3 -244.095577 329.205900 427.783873
5202 3 -176.835768 409.254783 403.854830
5203 2 214.538582 -120.588848 352.650265
5204 3 143.360874 -119.597970 492.218950
5205 3 173.407000 -160.396902 316.801206
5206 2 299.108172 -45.676748 334.508420
5207 3 286.817627 -54.627442 256.880176
5208 3 236.444823 -73.214550 227.802272
5209 2 -86.337816 -42.579396 38.019424
5210 3 -166.472085 -1.154678 -8.432736
5211 3 -146.044773 -91.154776 2.406471
5212 2 59.868038 204.117945 364.306477
5213 3 26.715322 212.855695 352.878255
5214 3 93.294060 208.407803 418.376409
5215 2 110.318262 -128.556471 565.128498
5216 3 121.625718 -182.176263 657.987717
5217 3 105.398601 -108.213869 495.601003
5218 2 66.995001 -309.661660 166.070963
5219 3 129.328998 -331.596729 141.837715
5220 3 61.900921 -243.041627 181.693778
5221 2 300.421661 -234.068120 430.222969
5222 3 322.426232 -226.060145 497.426949
5223 3 322.854037 -312.621478 577.470339
5224 2 -209.978509 10.676051 429.177273
5225 3 -278.811571 -61.090045 503.029815
5226 3 -208.056923 -66.836102 342.447606
5227 2 30.817857 414.562629 464.764521
5228 3 27.218854 341.692540 461.766633
5229 3 -17.782199 454.228781 489.731473
5230 2 235.655201 298.232858 591.617607
5231 3 154.409502 319.101224 594.976928
5232 3 182.010495 230.315930 542.176105
5233 2 194.161470 55.241766 255.214466
5234 3 179.471901 84.234629 198.177939
5235 3 149.643325 122.103149 229.987916
5236 2 109.880239 103.382258 151.206577
5237 3 149.482605 27.788446 157.996729
5238 3 128.041305 143.236564 156.410351
5239 2 136.127391 264.559611 451.804953
5240 3 79.335543 301.289162 409.240777
5241 3 143.502773 340.680999 364.872649
5242 2 -186.029723 375.910693 364.165210
5243 3 -189.667066 342.774842 319.556768
5244 3 -170.957002 393.953708 298.774223
5245 2 346.507612 11.164992 222.204647
5246 3 271.385135 3.527002 316.101350
5247 3 363.509388 -30.819943 234.859650
5248 2 470.248163 272.534076 85.816028
5249 3 473.706890 187.005341 50.861516
5250 3 466.560090 253.276451 49.223526
5251 2 -261.588756 204.957146 279.844656
5252 3 -265.750434 251.477222 273.544555
5253 3 -290.533361 200.011998 257.127097
5254 2 -35.971187 19.566155 334.776007
5255 3 -40.803014 56.208470 349.663005
5256 3 -52.203506 64.126371 379.594873
5257 2 375.785316 227.548537 104.517998
5258 3 449.420519 353.633437 130.388135
5259 3 476.360984 317.808435 114.576235
5260 2 519.453087 122.183412 198.128137
5261 3 574.230694 110.103122 275.098670
5262 3 495.462962 152.471988 248.526786
5263 2 38.144446 101.316756 348.596311
5264 3 32.437793 -9.965553 277.546918
5265 3 71.727192 -11.664486 349.324379
5266 2 -16.745132 28.578813 433.814191
5267 3 13.226713 -33.008387 373.416019
5268 3 9.706597 -8.932175 456.464714
5269 2 -104.244023 240.489831 778.017946
5270 3 -144.198542 183.522785 829.612359
5271 3 -166.395016 157.887480 764.639488
5272 2 326.261245 -35.184382 151.020990
5273 3 288.443952 -55.280762 167.464178
5274 3 319.456517 -49.459528 153.785658
5275 2 56.790084 509.550359 618.735182
5276 3 115.881105 385.071335 633.055785
5277 3 69.318941 443.290698 654.535030
5278 2 -225.128953 227.538579 300.565018
5279 3 -182.064939 282.434087 309.950542
5280 3 -242.724283 318.440902 338.971338
5281 2 310.515572 98.154334 240.658030
5282 3 339.250650 -2.580044 130.816243
5283 3 334.372068 23.676388 226.940853
5284 2 141.979190 345.815243 441.234404
5285 3 142.349498 351.315848 439.557770
5286 3 75.287564 290.736751 420.291698
5287 2 302.380099 163.113497 395.505610
5288 3 269.339509 122.622162 320.899703
5289 3 287.421164 176.646130 321.091102
5290 2 182.435466 299.638160 238.517225
5291 3 172.096235 245.250049 274.030167
5292 3 194.243137 261.937876 269.970364
5293 2 -225.514162 167.884875 553.714484
5294 3 -297.002476 222.493964 475.872532
5295 3 -240.904847 161.700274 517.247052
5296 2 -117.520369 262.659410 626.945534
5297 3 -143.995917 286.178719 560.311270
5298 3 -149.162279 278.073194 506.326510
5299 2 234.838144 200.631816 764.089995
5300 3 196.888689 338.562738 617.126413
5301 3 293.687876 353.597342 727.722756
5302 2 -318.778120 380.035312 18.126015
5303 3 -286.449996 355.191207 174.212998
5304 3 -285.610655 350.265445 162.324617
5305 2 -233.969226 -51.212476 233.921454
5306 3 -238.732691 -147.497344 357.525100
5307 3 -248.726448 -10.184932 304.298614
5308 2 203.761637 -105.623446 658.542228
5309 3 306.019710 -24.808762 638.811062
5310 3 219.067907 -7.473664 588.809402
5311 2 132.549998 282.472827 235.342440
5312 3 197.750474 284.831863 187.788475
5313 3 118.454092 293.299615 286.157968
5314 2 80.522355 201.164452 494.959216
5315 3 61.276536 237.864538 382.125785
5316 3 96.159111 224.569775 429.883310
5317 2 -49.977335 -98.307213 196.569742
5318 3 -36.168568 -104.420058 212.261161
5319 3 -71.992999 -110.438864 199.586285
5320 2 146.514332 297.563535 581.439969
5321 3 103.113787 308.105547 625.340234
5322 3 79.928487 281.139381 635.419008
5323 2 -7.476169 184.907758 678.397684
5324 3 -99.208061 187.533781 676.747141
5325 3 -77.364721 264.303130 638.460184
5326 2 -4.054421 420.558529 317.609447
5327 3 -20.895952 427.112701 362.629658
5328 3 -37.347257 448.641298 275.149135
5329 2 -46.851232 98.774349 349.543438
5330 3 -1.760628 140.395438 468.875712
5331 3 -100.650348 87.925294 407.594330
5332 2 15.194221 387.886165 552.608450
5333 3 -47.807521 313.930704 596.900262
5334 3 -0.246843 399.521517 563.655866
5335 2 159.708075 96.119788 222.080485
5336 3 127.667743 98.414243 176.977887
5337 3 103.719653 46.839835 218.437783
5338 2 20.023462 172.140614 439.074851
5339 3 21.059259 115.512730 500.446906
5340 3 -2.996857 126.611705 509.809125
5341 2 291.755468 256.838268 607.964210
5342 3 250.596389 308.152650 600.198655
5343 3 215.885669 298.335913 572.515018
5344 2 235.158573 390.910601 222.357981
5345 3 251.286103 299.382028 212.489058
5346 3 254.768051 411.177456 279.390873
5347 2 -207.475522 291.301712 416.041233
5348 3 -127.463174 225.519085 414.876007
5349 3 -154.157592 220.498478 519.778960
5350 2 -109.329605 272.405539 438.175588
5351 3 -104.973695 245.576470 546.894469
5352 3 -26.050376 328.983918 451.801226
5353 2 -186.861337 -7.411503 544.398947
5354 3 -195.375819 5.364225 642.662823
5355 3 -183.040546 69.157985 524.182944
5356 2 -97.769115 96.179936 496.302649
5357 3 -123.857038 163.527190 435.773949
5358 3 -96.224271 108.345750 465.116469
5359 2 150.548914 332.525573 328.881715
5360 3 223.479317 289.422645 461.818999
5361 3 174.119479 292.506195 451.772404
5362 2 93.540138 467.756671 331.775351
5363 3 193.320909 376.678419 326.289709
5364 3 105.026092 394.716294 342.476834
5365 2 -167.892543 595.478282 295.093898
5366 3 -198.832821 602.093483 315.487978
5367 3 -244.143595 580.939702 271.300106
5368 2 92.592588 166.742820 546.008491
5369 3 70.749926 83.625713 561.815307
5370 3 86.488888 75.668855 516.306198
5371 2 -394.309471 220.051107 530.367076
5372 3 -343.249541 220.758578 474.400195
5373 3 -326.071984 250.249126 519.350770
5374 2 -38.852932 447.315119 476.134694
5375 3 -62.721648 521.321363 302.176518
5376 3 -142.457852 419.859953 418.708061
5377 2 -113.533066 75.825493 356.746548
5378 3 -137.877008 160.574123 290.383228
5379 3 -84.463330 114.513984 428.963012
5380 2 37.028578 39.615073 433.226799
5381 3 -56.820949 91.203520 280.160549
5382 3 12.892031 115.466038 448.668898
5383 2 503.602675 370.877376 -204.417290
5384 3 484.810106 377.054116 -4.654942
5385 3 472.677348 390.714436 -87.645238
5386 2 -256.348826 535.789547 590.120877
5387 3 -232.567661 509.740595 497.399124
5388 3 -231.517043 511.611908 478.947401
5389 2 -39.122945 31.931893 401.267861
5390 3 -3.258807 123.778288 388.569312
5391 3 -81.340537 171.785610 363.672918
5392 2 -231.370423 474.882828 200.706268
5393 3 -284.237192 425.137695 195.951535
5394 3 -297.989349 568.592547 267.859450
5395 2 -77.412370 490.948465 892.246290
5396 3 -89.219678 528.927428 776.375521
5397 3 -165.463334 506.201980 809.997439
5398 2 -84.723779 188.194787 347.347720
5399 3 -42.534756 234.481326 386.115491
5400 3 -22.666130 159.551467 435.185745
5401 2 430.545988 -11.134137 317.442864
5402 3 404.691441 43.445443 308.823843
5403 3 413.635221 81.994153 373.475839
5404 2 -303.202608 -41.219559 201.994124
5405 3 -287.837313 -15.886246 274.021532
5406 3 -419.967284 -41.440398 175.792991
5407 2 102.767808 169.347831 424.079431
5408 3 159.520450 128.990309 385.857167
5409 3 163.459006 193.868236 400.801033
5410 2 -133.305519 181.755788 339.862926
5411 3 -129.813157 235.084875 333.447594
5412 3 -222.239203 234.824426 269.139335
5413 2 -4.778407 -70.411123 268.472158
5414 3 26.389836 -7.566234 385.680030
5415 3 27.466912 -25.907526 329.972175
5416 2 -122.436037 217.621660 353.518086
5417 3 -86.113227 237.388583 312.525333
5418 3 -129.597972 146.174313 334.682974
5419 2 52.626101 109.850024 211.590533
5420 3 66.512898 175.898262 190.120422
5421 3 95.521445 171.491422 217.337986
5422 2 74.408998 130.414244 348.512503
5423 3 119.459361 100.554322 276.916958
5424 3 61.980991 70.592441 312.815818
5425 2 -85.575827 51.322338 388.107280
5426 3 -147.057640 77.230084 371.636940
5427 3 -139.196857 -21.214089 444.598780
5428 2 -69.897141 325.458804 475.019546
5429 3 -79.080878 351.497844 414.414825
5430 3 -64.813056 306.802935 406.580998
5431 2 -353.524484 269.091887 321.970271
5432 3 -320.331357 401.690530 190.670302
5433 3 -313.623357 304.276287 329.614396
5434 2 -261.795226 -10.566282 238.808098
5435 3 -256.441659 -44.505326 242.534423
5436 3 -275.978615 -16.379393 285.186319
5437 2 46.290168 269.583958 353.814163
5438 3 61.571947 201.621782 255.682217
5439 3 -15.696340 232.467929 262.713799
5440 2 -248.942039 326.958494 285.525886
5441 3 -264.916861 302.525453 392.813651
5442 3 -289.515305 311.022428 298.912187
5443 2 90.989273 -105.958944 543.888941
5444 3 148.112803 -110.745519 610.849838
5445 3 119.509801 -86.907969 533.695988
5446 2 169.017738 646.239852 675.081467
5447 3 145.356029 608.530856 588.806376
5448 3 139.927450 619.665500 575.000465
5449 2 -361.326463 288.324287 146.370344
5450 3 -313.532323 308.233233 141.691891
5451 3 -320.366188 337.836065 106.091700
5452 2 34.733257 217.335288 427.603636
5453 3 58.481739 239.600380 316.011066
5454 3 91.265295 283.707263 387.984613
5455 2 -216.529858 -32.118161 239.321867
5456 3 -195.702164 22.576396 256.437870
5457 3 -230.920013 13.206243 302.325866
5458 2 9.984715 69.912931 720.824248
5459 3 -54.870676 124.230030 753.691268
5460 3 -64.411602 150.466269 695.137678
5461 2 197.762849 194.507530 244.712538
5462 3 185.497471 238.874832 214.993713
5463 3 172.808788 298.842732 273.665340
5464 2 97.567232 409.568660 117.716959
5465 3 95.110162 321.615466 171.287994
5466 3 78.554352 271.695529 127.024266
5467 2 -222.666367 463.486639 583.753483
5468 3 -269.334089 432.356780 474.225716
5469 3 -244.243453 378.406659 576.023908
5470 2 -297.540172 245.802375 679.191773
5471 3 -280.542685 318.207973 727.819222
5472 3 -297.859245 249.253793 635.472297
5473 2 33.843120 51.289724 685.728923
5474 3 -22.592947 159.122205 530.460331
5475 3 -39.048242 27.767694 611.647063
5476 2 236.082809 158.355361 507.573588
5477 3 161.502392 127.948086 503.911475
5478 3 177.305648 152.717431 481.684972
5479 2 109.625004 207.089318 723.756300
5480 3 28.999502 222.710808 689.699069
5481 3 84.391983 269.244355 756.222919
5482 2 177.220062 157.948176 201.545267
5483 3 221.068386 106.333539 390.370163
5484 3 191.917681 136.050745 296.933221
5485 2 185.101354 255.654340 204.914386
5486 3 179.898005 307.838499 320.141780
5487 3 189.487892 383.925997 301.237952
5488 2 219.916775 361.605043 248.865394
5489 3 246.549087 396.381255 280.811692
5490 3 196.887469 439.615913 349.674777
5491 2 293.410610 224.866380 365.685448
5492 3 371.751375 251.529844 358.164747
5493 3 316.893506 237.725874 261.155717
5494 2 20.717358 363.282350 577.065250
5495 3 21.775282 261.884037 617.895665
5496 3 46.691489 290.515468 516.497248
5497 2 338.963006 654.778821 -296.749343
5498 3 332.742020 587.485876 -308.859689
5499 3 386.988661 680.043415 -200.074382
5500 2 -358.164969 284.229317 230.767815
5501 3 -332.877181 243.859693 217.248108
5502 3 -396.590753 295.887445 179.644087
5503 2 -18.772905 413.454176 174.155696
5504 3 -69.798978 410.100171 198.609967
5505 3 -31.051991 349.795359 127.718697
5506 2 -45.449871 76.222876 344.040765
5507 3 -58.525539 137.108895 489.628328
5508 3 -32.942124 71.993580 449.043395
5509 2 293.574238 292.074028 371.347470
5510 3 294.019274 267.714987 421.962613
5511 3 349.273149 265.341993 500.184707
5512 2 -4.386763 411.361640 626.118048
5513 3 10.857181 387.791534 643.532637
5514 3 47.514373 380.707219 608.269365
5515 2 -185.160629 473.646902 751.481712
5516 3 -135.609221 476.845184 704.571896
5517 3 -155.620055 451.638792 668.510808
5518 2 -28.380929 481.655667 568.762085
5519 3 -22.548111 499.740251 634.926015
5520 3 -79.733075 544.185779 635.476356
5521 2 -221.038932 642.986013 492.877271
5522 3 -227.925894 637.414799 396.031816
5523 3 -170.203690 612.316540 394.484085
5524 2 233.911615 113.044915 408.703426
5525 3 173.215887 216.782080 332.193467
5526 3 252.429283 205.595558 343.327347
5527 2 53.654611 593.098872 76.042238
5528 3 109.319354 571.375721 92.017712
5529 3 50.029140 591.935380 50.072169
5530 2 393.498942 326.724227 398.943608
5531 3 327.001049 439.041404 418.106055
5532 3 340.599043 360.448302 417.999515
5533 2 443.954620 504.530056 369.243125
5534 3 391.979328 486.111191 582.309451
5535 3 298.231880 447.889629 513.125638
5536 2 601.884932 356.628408 -31.014695
5537 3 525.730818 269.516436 25.178657
5538 3 562.152955 309.933558 23.675939
5539 2 362.587074 232.112058 484.288178
5540 3 385.457781 282.713572 643.218884
5541 3 365.908672 253.820293 595.497340
