ITEM: TIMESTEP
601000
ITEM: NUMBER OF ATOMS
5541
ITEM: BOX BOUNDS pp pp pp
-19.1 19.1
-19.1 19.1
-19.1 19.1
ITEM: ATOMS id type xu yu zu
1 1 1.645794 -143.261324 -177.433970
2 1 7.951963 -150.834259 -174.607812
3 1 -0.986192 -159.170646 -189.743041
4 1 6.461239 -149.324169 -185.298408
5 1 3.200574 -136.417694 -186.616194
6 1 13.204476 -149.402122 -184.111944
7 1 8.063490 -153.121835 -182.973528
8 1 17.413225 -149.978182 -188.117075
9 1 4.611156 -149.092426 -185.180022
10 1 11.106086 -138.856005 -195.850672
11 1 -5.213579 -165.670675 -185.734404
12 1 2.123792 -152.055893 -177.569886
13 1 6.812960 -151.079428 -186.689539
14 1 9.158065 -139.667336 -196.545970
15 1 17.704421 -144.965390 -185.248367
16 1 19.156779 -145.866685 -198.655297
17 1 -3.039375 -166.273844 -193.821388
18 1 3.737161 -149.830761 -191.625227
19 1 5.011964 -147.915447 -189.673238
20 1 2.466260 -162.360414 -197.712063
21 1 -3.780413 -138.414457 -185.293648
22 1 6.542319 -148.524029 -194.186935
23 1 15.779319 -165.163810 -184.412670
24 1 7.996586 -151.690230 -206.297410
25 1 -1.078107 -159.768068 -194.619462
26 1 11.660786 -160.052692 -187.400927
27 1 0.737338 -163.813305 -204.055101
28 1 -4.168722 -154.836194 -187.781346
29 1 1.316334 -145.063671 -209.963768
30 1 2.873667 -148.389836 -202.495119
31 1 17.986017 -163.601555 -214.133433
32 1 10.288505 -134.168798 -194.247974
33 1 1.436455 -150.166669 -191.416686
34 1 5.461721 -148.900137 -200.058827
35 1 6.905016 -157.879042 -195.209179
36 1 -8.653093 -144.935042 -195.189657
37 1 6.745908 -169.989817 -181.231224
38 1 2.353830 -164.575039 -186.007102
39 1 17.692800 -166.117727 -186.064395
40 1 -0.180072 -168.339833 -199.552327
41 1 8.199079 -164.929132 -201.569009
42 1 4.367631 -152.816654 -185.294958
43 1 3.066136 -154.215509 -190.772186
44 1 12.278426 -158.998306 -178.323288
45 1 5.339075 -155.789563 -200.108389
46 1 7.628373 -155.730312 -199.291402
47 1 2.252041 -151.200819 -192.653191
48 1 8.580743 -165.245548 -188.430902
49 1 14.164065 -161.956284 -178.203592
50 1 16.440959 -138.175187 -203.475810
51 1 16.534426 -162.291888 -178.535944
52 1 6.540322 -148.247265 -190.526040
53 1 7.466790 -150.859498 -188.017399
54 1 10.144359 -149.982120 -184.437691
55 1 20.818430 -161.646649 -172.142810
56 1 15.592211 -147.637513 -183.126659
57 1 3.958120 -153.279792 -192.583370
58 1 11.339957 -159.572602 -195.486490
59 1 3.823327 -152.598017 -192.932292
60 1 7.484894 -145.682713 -186.366320
61 1 51.233561 -166.514756 -180.619550
62 1 53.138345 -159.369579 -182.401230
63 1 49.338178 -146.491094 -174.868886
64 1 42.834255 -155.242209 -164.842515
65 1 54.561556 -155.060746 -178.221342
66 1 45.750160 -173.859049 -186.555063
67 1 56.495427 -145.866791 -170.175837
68 1 55.139752 -149.072539 -147.032340
69 1 45.214141 -158.803934 -184.103272
70 1 44.764711 -154.557894 -163.710612
71 1 47.067800 -165.703927 -172.139082
72 1 60.944321 -144.252598 -166.235693
73 1 63.284130 -144.488386 -170.778323
74 1 54.123462 -157.478014 -174.559210
75 1 47.798920 -141.366521 -167.416235
76 1 57.955832 -139.953632 -165.075689
77 1 50.071061 -148.219867 -163.355195
78 1 52.274338 -141.046060 -156.936302
79 1 39.427129 -159.529163 -164.942578
80 1 47.260007 -156.303118 -173.988868
81 1 53.844313 -154.568218 -160.945603
82 1 41.573944 -154.684470 -187.538134
83 1 45.782477 -144.958366 -149.949003
84 1 50.603106 -155.101341 -182.048765
85 1 50.271465 -156.261534 -175.256815
86 1 46.518392 -137.018978 -170.050274
87 1 48.622125 -166.626188 -168.008424
88 1 51.534858 -151.602851 -169.714157
89 1 53.686151 -147.998660 -184.984914
90 1 55.402496 -143.539730 -169.167193
91 1 53.959581 -143.687440 -163.339363
92 1 51.644050 -155.084723 -200.066651
93 1 55.124910 -153.937453 -184.677250
94 1 46.045132 -150.837421 -175.390055
95 1 49.814242 -143.890432 -168.179896
96 1 66.615246 -159.313597 -158.109555
97 1 44.876814 -143.981202 -174.322862
98 1 45.615456 -150.586551 -168.412203
99 1 48.518853 -152.481004 -168.430674
100 1 46.941464 -150.515410 -160.593046
101 1 55.356015 -150.453088 -167.843300
102 1 54.801661 -146.304857 -178.974302
103 1 50.337811 -147.731703 -171.574275
104 1 49.193913 -134.005610 -169.074712
105 1 56.705484 -154.815820 -174.065424
106 1 53.419300 -157.515751 -166.885176
107 1 59.967068 -140.617132 -164.686634
108 1 55.919363 -133.506134 -168.561552
109 1 38.527265 -147.494015 -164.256303
110 1 60.597501 -154.637322 -182.623259
111 1 49.198615 -140.836515 -160.831811
112 1 48.098270 -156.935160 -155.350469
113 1 47.363902 -160.022192 -186.021642
114 1 44.491803 -132.619572 -166.373085
115 1 57.251266 -156.781415 -173.286521
116 1 46.917908 -144.174098 -155.262509
117 1 41.348489 -149.392832 -161.776945
118 1 46.292103 -143.185835 -167.388926
119 1 35.644453 -145.573896 -171.254285
120 1 48.840277 -159.795527 -158.571180
121 1 17.140721 -142.290957 -164.783746
122 1 22.452217 -133.057851 -162.604044
123 1 21.507307 -136.474634 -178.171393
124 1 9.381740 -131.421748 -159.187892
125 1 23.259554 -138.315280 -153.999655
126 1 13.130329 -112.967625 -179.747410
127 1 26.053484 -131.636418 -174.259628
128 1 12.104815 -124.922905 -174.535574
129 1 30.169282 -151.113653 -184.170288
130 1 26.028676 -150.381445 -172.190341
131 1 23.065031 -133.032521 -161.396987
132 1 17.956582 -144.900772 -167.663303
133 1 25.905558 -135.212192 -177.173986
134 1 25.253771 -137.225269 -180.775799
135 1 20.574384 -124.170689 -171.919987
136 1 26.218449 -136.490918 -166.539003
137 1 14.476514 -145.153482 -187.248442
138 1 17.847827 -131.309191 -179.503497
139 1 25.123404 -132.153576 -183.774130
140 1 23.223992 -142.262403 -183.848472
141 1 30.531626 -138.073151 -174.672301
142 1 24.209810 -144.530821 -183.769997
143 1 23.257909 -132.757004 -172.604066
144 1 28.734759 -137.403661 -185.975863
145 1 20.689149 -133.914202 -173.591104
146 1 31.478207 -147.706236 -175.822120
147 1 25.413437 -127.020534 -195.168918
148 1 21.436875 -125.301568 -186.296259
149 1 22.449369 -129.539838 -181.918071
150 1 21.930871 -123.937272 -160.645855
151 1 21.809654 -136.723908 -169.490651
152 1 23.912393 -143.592215 -199.321293
153 1 13.197265 -138.410641 -174.685531
154 1 14.904708 -126.597277 -169.413800
155 1 30.946913 -138.969550 -178.533066
156 1 26.149711 -136.034470 -168.161481
157 1 21.203852 -146.413902 -178.563456
158 1 11.575669 -126.339048 -170.418035
159 1 21.520733 -153.461194 -172.655804
160 1 20.237120 -132.120948 -164.278538
161 1 21.831628 -134.423393 -177.655317
162 1 16.337556 -145.385317 -177.052905
163 1 15.687647 -127.511313 -176.309688
164 1 15.076780 -146.444706 -176.310906
165 1 35.932006 -128.566186 -172.320057
166 1 31.243946 -141.268605 -163.325912
167 1 24.011855 -142.818560 -187.138820
168 1 26.394967 -145.030282 -165.105212
169 1 24.590088 -140.882371 -168.563840
170 1 22.385716 -139.208972 -174.424679
171 1 24.037516 -132.959525 -182.419663
172 1 17.447251 -130.916677 -177.405112
173 1 28.025155 -139.056276 -185.231576
174 1 16.531544 -139.936953 -166.295680
175 1 33.020807 -137.579058 -149.664183
176 1 33.854969 -132.299963 -173.568482
177 1 26.023513 -131.843318 -181.577323
178 1 18.108495 -130.499411 -178.789508
179 1 20.034636 -131.243098 -177.837380
180 1 24.296719 -142.443440 -172.137698
181 2 -26.883432 -0.935094 40.212897
182 3 -34.576956 4.578731 45.462433
183 3 -19.966385 -1.715657 28.201839
184 2 -41.639792 -37.440732 41.593386
185 3 -45.952219 -47.396649 36.702849
186 3 -39.323370 -39.250422 45.068964
187 2 -48.757905 58.144025 29.555048
188 3 -44.659344 46.493309 31.778048
189 3 -37.767994 57.173782 39.754762
190 2 7.911895 82.812360 -61.982222
191 3 22.512505 65.179009 -62.939322
192 3 11.616269 63.004504 -63.503917
193 2 -32.411252 -6.895618 13.932314
194 3 -29.340524 -17.704579 38.555556
195 3 -29.461433 -20.638980 30.676131
196 2 -57.599602 -17.526632 -64.086586
197 3 -57.498388 -19.336162 -50.666523
198 3 -56.300299 -20.976001 -43.768997
199 2 1.420596 -0.186040 10.066254
200 3 -7.324663 2.287881 21.669532
201 3 -10.727181 -4.235762 7.555652
202 2 29.814032 3.507301 26.989538
203 3 38.195089 0.864382 32.646050
204 3 34.042639 -2.873317 26.072563
205 2 -18.466536 29.522508 -25.024560
206 3 -10.796106 29.498904 -15.737981
207 3 -22.052813 30.766791 -9.081229
208 2 42.492049 29.141614 15.248905
209 3 42.384117 32.750827 8.010152
210 3 49.061430 24.009473 6.281538
211 2 48.856996 -15.584194 5.500014
212 3 39.325363 -34.306547 4.650314
213 3 44.164425 -28.994186 8.209184
214 2 113.869144 66.790188 7.998157
215 3 110.703121 54.009151 13.003823
216 3 116.842674 61.671609 6.080243
217 2 64.609072 20.592789 51.778896
218 3 70.736522 6.707600 54.613249
219 3 75.042078 21.766331 46.015111
220 2 -36.453297 10.117279 -14.743267
221 3 -28.116053 6.446834 -19.499197
222 3 -37.227925 -3.769338 -19.216313
223 2 -36.496355 -60.817379 -26.824812
224 3 -39.713929 -61.580178 -22.169581
225 3 -40.712591 -72.611411 -17.161792
226 2 -7.492254 -19.605639 48.465416
227 3 13.440657 -26.445997 58.742576
228 3 1.270128 -13.605748 52.357014
229 2 40.352105 -3.816528 -7.939370
230 3 36.880811 7.905093 -8.758714
231 3 43.646772 7.570787 -28.416831
232 2 13.754361 65.958213 20.529247
233 3 9.987646 67.928757 0.623044
234 3 20.064772 86.516055 -6.536388
235 2 -20.651615 46.307446 13.624162
236 3 -21.415136 46.834468 16.263167
237 3 -25.980145 33.559521 21.061445
238 2 -23.802430 32.159607 6.546979
239 3 -25.543672 24.710604 -7.327114
240 3 -18.020872 26.699950 16.242470
241 2 -15.480811 -62.121801 -23.410847
242 3 -20.748454 -61.308257 -22.869847
243 3 -20.058919 -65.914494 -33.887850
244 2 5.962783 -4.663766 -9.545428
245 3 3.051814 -13.665238 -12.647368
246 3 -7.756227 -13.084370 -26.778470
247 2 36.843646 31.630369 -19.511186
248 3 34.873584 32.174903 -31.771018
249 3 30.522460 33.683346 -43.143105
250 2 119.797236 -31.847753 -28.602543
251 3 112.640378 -23.321076 -51.876753
252 3 121.180479 -28.420258 -22.396597
253 2 -10.804688 -63.972785 -39.089003
254 3 -17.287444 -43.539824 -32.489722
255 3 -4.214643 -59.864215 -26.137956
256 2 -7.182280 11.924055 48.185550
257 3 3.148012 16.191507 42.691958
258 3 -9.592419 3.067316 51.857198
259 2 -35.218905 64.385440 -8.750514
260 3 -53.599308 61.007512 2.602157
261 3 -36.352927 63.416319 -19.917783
262 2 75.662747 56.062383 -72.377157
263 3 64.407399 50.844621 -62.724129
264 3 71.490296 58.956040 -63.986301
265 2 -58.375265 8.694954 -69.193847
266 3 -73.440166 8.249576 -63.979308
267 3 -71.802760 16.725144 -54.594710
268 2 -88.681242 98.858155 23.095397
269 3 -102.128488 98.980443 2.470380
270 3 -94.550629 94.877841 24.876137
271 2 -38.818077 -15.292845 29.679695
272 3 -39.259174 -16.326919 46.483210
273 3 -43.126282 -5.380293 39.257885
274 2 -4.946071 -38.866917 -25.221256
275 3 -8.434390 -44.391469 -12.826083
276 3 10.474827 -32.974694 -21.971686
277 2 -11.951387 5.559089 -68.038604
278 3 -17.767190 12.295291 -65.761283
279 3 -15.480832 15.545196 -53.614274
280 2 -48.159680 123.432931 -8.011474
281 3 -40.253196 135.620745 -13.905573
282 3 -36.294432 130.955052 -1.351332
283 2 16.881036 9.330179 -36.347437
284 3 17.973560 20.447619 -42.917445
285 3 17.941389 7.864899 -31.115894
286 2 -30.683713 -24.414435 54.334215
287 3 -18.242065 -35.713119 62.553687
288 3 -21.363228 -16.952553 57.819854
289 2 42.833848 -15.687788 48.624371
290 3 55.204216 -14.620759 53.321356
291 3 43.400199 4.871448 20.861477
292 2 52.236805 -1.397255 51.785207
293 3 45.009041 0.452166 60.994291
294 3 52.995331 -8.661316 45.219292
295 2 58.337800 56.716411 -90.797632
296 3 46.904267 31.099382 -77.391441
297 3 54.055507 52.961732 -102.383008
298 2 -32.146185 56.592192 24.583172
299 3 -33.169026 59.681349 25.654192
300 3 -31.010699 60.346263 28.514726
301 2 -71.159031 -1.335457 -6.074777
302 3 -69.645832 8.127991 -2.915328
303 3 -71.762617 2.222974 2.225272
304 2 -21.432037 -27.493006 -14.143801
305 3 -26.413102 -44.134646 -16.703433
306 3 -38.827820 -30.036082 -15.243786
307 2 -39.771542 45.257252 24.495055
308 3 -36.836658 39.381264 18.200434
309 3 -30.642914 52.233911 24.347055
310 2 -0.071227 30.574675 -9.922298
311 3 15.483333 29.583877 -30.457444
312 3 -3.528458 13.417297 -29.608568
313 2 11.712637 -16.213978 14.034325
314 3 12.394160 -11.640813 1.348119
315 3 20.757997 -12.547377 13.114719
316 2 53.354509 -46.048607 22.694540
317 3 45.359660 -44.382894 9.034588
318 3 51.174028 -45.242347 10.744816
319 2 6.198535 16.368860 14.628080
320 3 2.664480 27.536259 10.294291
321 3 6.988912 15.683128 4.665962
322 2 5.997659 -16.385893 17.139561
323 3 3.831798 -31.759526 2.589608
324 3 0.592492 -27.170576 28.202507
325 2 -11.883910 22.050930 17.888692
326 3 -8.944265 17.457048 23.479048
327 3 -10.366976 10.565173 42.412126
328 2 -11.643089 29.516992 -67.143741
329 3 -24.982666 44.169598 -53.479041
330 3 -14.192447 39.523169 -62.619886
331 2 -3.794853 -31.066819 -48.416377
332 3 -4.870306 -52.872670 -59.189582
333 3 -13.813624 -47.567963 -57.887536
334 2 31.610358 43.528578 -10.005654
335 3 33.096702 44.252159 -11.980369
336 3 55.399717 40.058478 -17.151450
337 2 -96.094832 67.688392 -12.258369
338 3 -86.047645 54.102323 -12.805310
339 3 -87.141624 69.119743 0.390490
340 2 -42.564700 44.254227 67.982844
341 3 -38.982685 48.298707 82.355966
342 3 -48.051010 45.055276 92.474199
343 2 29.799846 23.138308 7.235530
344 3 31.959279 18.750774 1.756340
345 3 23.875102 29.297850 0.056917
346 2 24.554464 20.904697 23.904697
347 3 23.613202 30.534081 32.732125
348 3 21.754555 21.407556 19.589013
349 2 47.994215 -44.429716 4.706729
350 3 56.534316 -45.554863 10.151547
351 3 61.031099 -35.017671 3.243795
352 2 84.220731 -4.362647 -3.321782
353 3 83.194110 1.958819 2.067558
354 3 87.164872 7.518485 8.179253
355 2 -26.860473 66.165896 53.826115
356 3 -27.882273 56.406076 49.536986
357 3 -27.625922 63.516037 59.555153
358 2 58.964696 -15.799289 -25.213889
359 3 60.126992 -17.394465 -38.671552
360 3 50.820275 -22.974924 -32.916856
361 2 8.650583 48.233802 14.846739
362 3 7.287112 39.001390 13.862466
363 3 5.159432 45.740678 17.228764
364 2 -11.717579 63.953848 62.403961
365 3 -9.876578 61.229343 44.143497
366 3 -19.582592 54.371773 47.498608
367 2 72.790702 45.235658 -8.772518
368 3 64.275483 47.391454 -16.889120
369 3 61.728458 45.869262 -25.387427
370 2 106.424483 -12.420327 45.091533
371 3 101.529083 -5.546593 39.490699
372 3 104.541702 -16.623680 30.599459
373 2 78.355344 9.763054 -2.149438
374 3 64.274072 24.396030 2.317642
375 3 78.477492 12.323830 -3.581866
376 2 -63.262795 95.440855 -9.873000
377 3 -69.740045 92.238810 -17.499791
378 3 -70.798533 88.713005 -20.344129
379 2 10.754406 -2.438087 -0.301249
380 3 9.615001 5.994399 3.882173
381 3 0.363707 17.393117 -13.274559
382 2 31.982401 12.861564 14.694707
383 3 39.497935 10.407045 24.103972
384 3 39.785208 13.451956 17.799800
385 2 20.015649 60.186127 -1.429973
386 3 19.123270 76.520162 5.167167
387 3 13.872281 48.167434 13.449861
388 2 -41.142910 4.351892 36.952035
389 3 -40.228121 10.652923 43.704699
390 3 -37.854332 3.579881 30.628288
391 2 3.496108 13.329175 -18.321089
392 3 9.329629 21.487958 -27.584815
393 3 19.739377 19.562980 -25.660923
394 2 1.160830 103.674051 12.893744
395 3 -19.831834 104.758345 17.930033
396 3 -7.253858 103.216919 31.863029
397 2 35.341857 101.115611 -40.627033
398 3 40.637289 98.778971 -37.332275
399 3 43.129280 81.731031 -36.364141
400 2 2.137436 57.813339 80.772130
401 3 11.539510 58.975064 67.373254
402 3 11.201889 61.782703 82.457054
403 2 -13.451481 19.649534 14.033990
404 3 -25.094674 27.231513 0.595071
405 3 -23.611816 24.447724 4.332192
406 2 65.501343 40.853882 -31.090200
407 3 54.942639 39.284792 -34.507690
408 3 49.731313 53.756722 -35.191211
409 2 10.322070 17.949534 -24.294781
410 3 24.539895 8.487841 -23.586336
411 3 27.931786 13.472105 -26.427223
412 2 63.000439 -5.087272 -56.076711
413 3 62.052088 1.395588 -48.257222
414 3 56.337884 -2.071230 -55.268807
415 2 -86.750338 -28.580728 18.058891
416 3 -69.786190 -23.222643 25.887349
417 3 -74.000737 -33.999972 30.214796
418 2 -56.061179 80.287601 15.612707
419 3 -50.009695 80.715921 11.850228
420 3 -52.680790 81.675992 19.347681
421 2 -31.576943 86.066601 11.662896
422 3 -29.684398 81.309253 18.462692
423 3 -15.902420 79.706018 27.792296
424 2 37.536306 -32.343872 47.675837
425 3 44.209282 -39.547677 47.008978
426 3 41.166263 -32.455753 42.322833
427 2 -84.169598 105.554783 28.467237
428 3 -85.890229 104.377500 29.322270
429 3 -87.713226 111.040405 24.706875
430 2 53.130904 7.702719 6.787424
431 3 58.902808 12.303015 13.703287
432 3 49.814051 8.430379 6.450294
433 2 70.604834 -9.624943 33.515931
434 3 63.154485 -21.802685 35.133194
435 3 61.176070 -6.687010 35.083546
436 2 -26.480859 54.136924 68.373015
437 3 -29.582922 51.684842 67.591497
438 3 -31.260591 52.524419 56.551796
439 2 0.669720 28.354201 -79.027629
440 3 -8.747919 25.118449 -80.448919
441 3 -9.429853 16.030280 -75.277168
442 2 -5.021518 49.303775 37.698965
443 3 8.314899 59.890624 44.160911
444 3 5.306934 48.250120 50.002830
445 2 35.468824 51.791568 7.829713
446 3 35.281488 43.481699 0.417047
447 3 39.051388 47.133027 10.005451
448 2 24.789247 59.646485 -89.207490
449 3 32.184875 69.857302 -87.766983
450 3 42.053691 70.591928 -89.142826
451 2 46.966678 70.931823 -0.253881
452 3 51.005556 87.050235 -5.020891
453 3 60.892694 83.464840 -9.562455
454 2 -5.223837 -22.402882 -14.289662
455 3 3.323775 -19.502265 -22.053432
456 3 2.954979 -18.940429 -19.702281
457 2 62.063193 80.297609 -11.300005
458 3 69.781540 81.993982 5.369260
459 3 63.769922 68.067606 16.135815
460 2 -73.731310 43.699964 -39.537210
461 3 -73.075182 43.243062 -49.982301
462 3 -73.734071 44.733860 -42.259531
463 2 -56.456119 53.930195 75.729943
464 3 -49.631338 59.149621 59.667783
465 3 -57.632855 53.450964 69.048122
466 2 9.536542 -50.579499 -54.284399
467 3 2.203175 -55.934577 -31.689623
468 3 5.896040 -62.775722 -35.740472
469 2 8.456186 4.863609 -5.218963
470 3 6.732952 10.233756 -5.199231
471 3 6.061203 8.017563 -3.944758
472 2 -20.599865 33.909967 27.627557
473 3 -8.602674 41.599698 27.536746
474 3 -33.282411 10.184886 23.679544
475 2 18.147303 6.181946 70.241423
476 3 20.072535 8.518237 68.404088
477 3 29.220806 21.854434 75.484309
478 2 16.769579 69.085115 8.325713
479 3 19.869605 54.777496 17.756165
480 3 26.278260 74.542484 -0.723893
481 2 -3.670712 36.267350 32.400711
482 3 2.091847 26.328626 20.231306
483 3 2.704891 22.184919 33.389453
484 2 23.723268 52.608810 -38.693242
485 3 25.504009 56.864831 -25.945620
486 3 18.444823 64.696714 -36.783350
487 2 20.505199 49.214760 -26.410488
488 3 13.963258 55.069289 -38.277183
489 3 8.595585 57.177044 -29.967874
490 2 67.910906 66.554563 -19.368641
491 3 63.049120 72.796865 -4.495782
492 3 74.069397 62.600910 -22.582535
493 2 46.774878 33.563254 -9.946147
494 3 70.461481 22.722906 4.664982
495 3 59.586018 33.094263 -3.491033
496 2 -98.848352 36.103843 -3.332498
497 3 -96.489384 37.652487 -10.445116
498 3 -103.641817 47.834467 12.674553
499 2 -77.604340 59.651233 33.249204
500 3 -79.098152 58.339544 34.463517
501 3 -73.151770 58.872941 9.332082
502 2 29.926321 9.083038 53.133349
503 3 23.472481 18.749167 47.914360
504 3 36.807777 13.153077 34.006886
505 2 14.202812 -29.823352 -6.704730
506 3 15.687772 -20.081986 -20.135596
507 3 7.378402 -12.215563 -34.310238
508 2 39.974113 82.810406 -16.307561
509 3 38.308928 76.420973 -4.873023
510 3 51.026927 63.911006 -15.045426
511 2 -16.168257 62.696818 65.576550
512 3 -20.167870 59.237494 65.592100
513 3 -25.727794 63.140343 74.542671
514 2 -36.342297 88.688656 -0.836107
515 3 -45.910400 103.367480 -2.334963
516 3 -31.132554 91.931623 -5.343194
517 2 73.034013 62.419926 82.758684
518 3 60.861490 73.921666 84.500882
519 3 68.650383 69.081721 81.516841
520 2 59.105917 19.800647 26.049086
521 3 47.482476 16.087482 14.104068
522 3 46.070263 12.636078 24.647723
523 2 -7.721566 4.163087 10.837763
524 3 3.620735 9.943576 33.459621
525 3 -9.385828 3.244307 20.686434
526 2 7.998581 14.830562 37.798475
527 3 17.145918 6.922279 37.409677
528 3 6.773385 21.453352 15.858846
529 2 39.816298 35.443233 -18.456633
530 3 33.074504 40.644683 -1.171038
531 3 49.920667 36.904822 -15.403039
532 2 1.943110 128.977819 -25.768317
533 3 1.212640 110.215740 -43.707221
534 3 -1.929629 115.534602 -22.771845
535 2 32.269567 97.364357 -69.932553
536 3 38.700681 108.537172 -76.074578
537 3 31.297787 97.911673 -56.659643
538 2 24.448164 22.753018 14.268398
539 3 10.610053 4.963297 28.152090
540 3 15.479550 1.708309 15.040331
541 2 35.530763 48.143517 59.962457
542 3 26.388469 55.151871 47.079817
543 3 22.391171 46.806194 46.932309
544 2 -23.318946 94.341495 21.964138
545 3 -22.183044 87.411732 19.415075
546 3 -11.322848 75.448868 19.465649
547 2 -26.062406 -29.541992 12.346372
548 3 -25.996285 -32.466696 22.182846
549 3 -36.484948 -31.221450 14.908291
550 2 74.632046 74.128087 -32.552494
551 3 62.260275 76.961679 -5.218008
552 3 73.297579 72.957722 -18.671079
553 2 -1.072425 14.369001 45.243686
554 3 4.882381 25.321189 16.293984
555 3 -9.690678 16.377034 18.785507
556 2 12.311499 71.363120 -32.903451
557 3 0.095949 71.642278 -46.253789
558 3 7.600067 67.380091 -24.190197
559 2 -17.166855 35.405158 -23.982545
560 3 -5.032253 42.027170 -5.189562
561 3 -2.200767 47.340718 -19.877106
562 2 -2.052720 76.061087 21.726744
563 3 -4.918036 52.513396 14.422232
564 3 -8.393834 71.013163 24.717123
565 2 16.548612 135.279941 -6.869154
566 3 23.298784 140.423011 -10.785188
567 3 27.815932 127.542086 6.853316
568 2 -5.534660 84.568378 16.134833
569 3 17.734088 71.402130 9.996233
570 3 0.406745 61.812393 1.455695
571 2 11.285443 96.257592 1.152348
572 3 6.436371 98.943808 -0.363196
573 3 16.037835 100.253787 -10.679953
574 2 -48.478186 92.004459 1.317791
575 3 -46.005956 92.473907 6.228803
576 3 -52.851678 81.736467 13.427137
577 2 -56.019274 66.901419 30.527849
578 3 -54.262628 54.809113 26.313150
579 3 -54.259301 48.679341 41.346880
580 2 46.985588 -15.158531 23.447238
581 3 43.623085 -17.197231 15.956434
582 3 41.741976 -15.962480 18.712596
583 2 -48.425466 -5.426867 68.106369
584 3 -45.874675 -6.790024 74.118683
585 3 -52.873364 -11.408881 65.012892
586 2 -8.719741 31.628924 -8.782699
587 3 -14.598791 38.547809 3.941280
588 3 -1.663098 37.220855 3.777060
589 2 102.285020 101.268749 4.246536
590 3 98.102734 103.706414 11.485887
591 3 111.393969 88.318827 19.722444
592 2 55.631244 -17.218392 8.692731
593 3 54.845440 -15.088895 -17.449784
594 3 65.655284 -20.527464 -4.858052
595 2 23.022111 84.768604 -33.015554
596 3 14.241045 78.157770 -26.242033
597 3 21.109503 81.998345 -23.449009
598 2 66.433946 -14.318779 -11.456413
599 3 75.970469 -0.661250 -12.232751
600 3 66.906676 -18.243545 -0.051247
601 2 22.654666 121.889232 9.556878
602 3 20.872299 117.099647 19.787303
603 3 29.497197 103.699503 9.914386
604 2 47.207173 10.038491 -17.852641
605 3 39.808669 32.964122 6.096948
606 3 42.772646 23.175941 -22.713459
607 2 53.340200 71.571152 76.757935
608 3 54.705307 51.929335 56.898147
609 3 60.674145 37.955092 65.299765
610 2 -49.020677 28.985741 -106.630613
611 3 -57.200822 20.892334 -95.988914
612 3 -37.269523 14.328464 -110.728205
613 2 -0.794543 70.328852 41.654419
614 3 -5.649197 57.320857 22.102819
615 3 -0.178630 67.947006 38.155177
616 2 55.252160 91.183010 -22.443773
617 3 48.272304 78.088199 -24.268367
618 3 52.200418 76.545310 -24.202896
619 2 10.659060 14.403959 -22.079748
620 3 -6.327718 15.216588 -24.451012
621 3 6.982788 1.681962 -26.286894
622 2 54.402660 81.055710 41.062267
623 3 53.917195 85.795653 37.990017
624 3 41.957361 79.434777 43.137624
625 2 14.215733 62.106896 -42.409774
626 3 13.241685 62.045832 -34.109723
627 3 21.722440 63.542230 -27.921522
628 2 14.528430 85.210752 28.316253
629 3 34.062653 88.312046 30.334068
630 3 27.319107 87.935641 14.188646
631 2 -27.686229 93.675919 19.725701
632 3 -24.740237 106.733222 1.531964
633 3 -35.148935 93.415934 0.187403
634 2 50.787724 43.897487 19.551068
635 3 52.740505 30.394513 9.192796
636 3 59.040600 29.714977 15.811862
637 2 12.304506 97.703215 0.870950
638 3 7.456593 100.273575 2.196021
639 3 14.077416 106.043806 11.543326
640 2 -4.913484 97.233395 -35.696188
641 3 -4.588241 96.366926 -35.286283
642 3 -8.734565 93.949627 -43.405540
643 2 104.627177 35.066386 -3.001317
644 3 102.976651 38.901320 10.343047
645 3 101.186913 44.434172 23.897296
646 2 22.284526 -13.389303 40.858996
647 3 24.732651 3.343977 47.831641
648 3 27.153007 -12.898486 30.240041
649 2 -39.783183 96.864319 4.779260
650 3 -32.060476 91.180159 8.945880
651 3 -38.132029 94.367403 -3.552576
652 2 3.020057 88.238685 -78.529792
653 3 7.958969 87.042268 -70.221728
654 3 5.532811 76.416039 -65.255696
655 2 -36.292910 77.593292 -69.301283
656 3 -36.470170 77.105622 -58.822199
657 3 -39.412160 85.962292 -66.873470
658 2 -18.075639 113.467229 10.746247
659 3 -14.406599 115.995428 4.398273
660 3 -8.525725 106.264025 -2.677192
661 2 -65.804348 34.574609 12.561839
662 3 -67.833760 44.591380 19.597532
663 3 -63.736530 43.196461 25.408073
664 2 0.759570 17.676250 -68.139599
665 3 4.096896 27.081432 -65.879014
666 3 -8.737877 49.301341 -61.077996
667 2 44.351884 27.302267 -22.953276
668 3 47.436614 37.994270 -39.701601
669 3 47.059616 48.014112 -28.350590
670 2 25.744836 116.377116 48.216408
671 3 39.624739 128.036180 53.795743
672 3 36.799211 114.222609 67.653587
673 2 -25.766763 42.570271 -28.002516
674 3 -28.666884 55.655114 -30.908672
675 3 -34.036364 51.313743 -20.883071
676 2 32.520108 57.522572 28.696822
677 3 41.381281 51.506291 14.616627
678 3 36.575795 43.900237 36.743960
679 2 -32.037662 47.474913 26.419283
680 3 -21.449902 48.141890 21.589124
681 3 -28.333853 48.403849 38.206421
682 2 6.701168 65.792437 -52.550186
683 3 6.883371 74.052442 -65.792079
684 3 -4.394132 66.357447 -66.124569
685 2 -14.196726 59.777687 7.288217
686 3 -19.392533 41.066107 12.327161
687 3 -30.003270 44.395091 10.842881
688 2 -46.354924 -43.894608 3.575905
689 3 -35.828770 -46.338788 0.959872
690 3 -44.188832 -47.913868 1.914112
691 2 -52.239163 20.505302 82.863854
692 3 -42.164177 7.400050 73.492118
693 3 -42.110581 21.064625 72.069426
694 2 20.146079 -4.307954 1.530500
695 3 32.471120 -10.971185 2.969021
696 3 16.541509 6.463106 -8.387647
697 2 -42.482356 61.103280 26.728713
698 3 -44.042200 73.387057 24.373451
699 3 -37.212414 72.345506 26.950444
700 2 -49.068874 0.306480 8.337007
701 3 -40.946978 9.170709 16.470764
702 3 -45.117709 9.625765 17.336112
703 2 15.330594 11.409772 57.569847
704 3 14.353876 5.098022 50.164813
705 3 16.782979 8.292639 52.047959
706 2 -55.260988 -26.749859 49.202920
707 3 -60.731244 -26.380338 42.108802
708 3 -56.229429 -12.530539 25.432498
709 2 -14.306648 -11.049394 23.997077
710 3 -7.769504 -13.516601 21.910814
711 3 -12.056326 -21.451052 25.807535
712 2 41.712399 49.434591 -54.740544
713 3 40.362777 52.857005 -32.392435
714 3 41.887938 60.375561 -74.243475
715 2 28.896179 6.544825 -40.066054
716 3 34.577848 11.139645 -6.390940
717 3 41.091490 -0.444923 -37.218303
718 2 23.933221 -45.654656 39.228809
719 3 22.247048 -57.986144 31.885067
720 3 28.758971 -52.575555 40.711571
721 2 68.024005 41.462491 -1.634640
722 3 80.090359 55.575113 -14.377605
723 3 54.932477 52.176062 -3.540802
724 2 -22.620022 82.199293 -36.735458
725 3 -25.427705 78.242450 -36.826905
726 3 -35.697415 79.036224 -36.908868
727 2 -82.955079 -13.380549 -16.210299
728 3 -86.552643 0.064462 -12.088793
729 3 -82.864342 -7.500310 -10.695118
730 2 18.282613 18.538494 -32.799374
731 3 9.359753 5.250261 -16.358605
732 3 12.723141 13.818587 -41.382723
733 2 13.575697 -27.180626 42.412682
734 3 18.634677 -31.321255 36.655962
735 3 3.216757 -26.941627 43.795145
736 2 6.377846 34.746861 26.102693
737 3 -2.903851 42.522366 49.661141
738 3 5.796254 46.934560 39.799249
739 2 -20.940094 25.255026 71.411981
740 3 -12.456486 43.621476 84.183383
741 3 -26.537127 27.497260 81.974961
742 2 54.185587 -91.187252 94.574572
743 3 35.993526 -83.275011 85.519099
744 3 53.370520 -83.902317 77.325154
745 2 135.135736 37.502911 20.590410
746 3 135.661575 33.290116 12.103524
747 3 135.187366 43.233666 10.191542
748 2 -60.149591 -39.113503 44.407121
749 3 -64.540467 -46.752375 59.378690
750 3 -62.978608 -40.304330 54.444946
751 2 28.446736 0.866000 21.551115
752 3 41.620144 14.748050 38.383969
753 3 33.674462 -9.749080 13.153674
754 2 22.882355 -32.597708 14.337432
755 3 16.935049 -51.143768 16.433107
756 3 17.404555 -57.847899 14.451150
757 2 -5.982527 9.359766 28.602969
758 3 1.901347 1.286474 9.630904
759 3 -6.598184 8.567497 25.173923
760 2 31.316561 44.280650 20.661609
761 3 27.088695 50.505799 4.687528
762 3 28.702215 49.554524 19.925155
763 2 59.737201 -21.359647 9.804897
764 3 39.332242 -25.916542 11.685476
765 3 47.574015 -10.084840 18.701301
766 2 -22.791051 -22.132006 49.706781
767 3 -29.829933 -29.684179 49.494091
768 3 -22.781993 -23.869160 67.891259
769 2 99.642870 7.601266 1.803914
770 3 93.080946 -4.398851 -2.694839
771 3 85.620657 6.612911 -1.266080
772 2 -50.505775 65.915185 -11.747379
773 3 -50.013910 76.002331 -10.398989
774 3 -48.390980 60.513544 -12.652440
775 2 12.571670 27.250837 35.420642
776 3 17.245413 16.332718 45.753225
777 3 3.858995 31.587574 47.892430
778 2 18.296676 30.786957 26.517148
779 3 16.403868 23.919320 28.062898
780 3 20.387107 20.868191 37.134819
781 2 -35.039777 -15.997161 33.176311
782 3 -25.223773 -16.938101 24.378587
783 3 -31.621292 -4.294161 20.355341
784 2 -13.067147 6.007795 10.198695
785 3 -18.776815 11.820333 5.529726
786 3 -4.221491 4.837658 20.589220
787 2 -48.674236 37.371501 44.101909
788 3 -53.976735 36.103313 36.445038
789 3 -61.146940 47.549035 20.730456
790 2 34.377207 -62.950715 -25.748703
791 3 28.628964 -63.652841 -31.798608
792 3 22.333556 -60.719342 -35.780056
793 2 11.978322 -5.803683 50.055046
794 3 18.033118 -8.451853 37.782980
795 3 17.673371 -12.672448 27.665428
796 2 81.298006 -0.814581 84.474929
797 3 80.860883 11.383885 78.676056
798 3 69.347902 5.962218 76.081181
799 2 50.596235 19.338042 -29.467652
800 3 63.130059 20.477189 -22.331458
801 3 62.017448 24.671095 -29.077864
802 2 51.453423 59.261186 -2.011318
803 3 55.473082 67.647926 -6.487537
804 3 42.544055 70.022387 -9.527941
805 2 2.606816 -73.261835 23.057095
806 3 2.675593 -59.968098 18.712904
807 3 -1.417972 -60.467217 25.814914
808 2 -9.538860 104.983931 -14.809018
809 3 -14.847703 93.563354 -35.025879
810 3 -6.374813 96.396445 -25.092924
811 2 11.051792 17.065655 -11.326809
812 3 -0.246489 7.005187 5.806474
813 3 -11.865684 26.686078 7.579680
814 2 19.141611 -0.270621 5.417181
815 3 16.363537 -10.035358 -17.237276
816 3 15.635922 -11.512333 -7.906664
817 2 -81.262679 29.767008 68.491147
818 3 -67.622643 44.847654 74.315891
819 3 -76.359730 32.905843 88.300867
820 2 -27.244392 77.806163 62.845571
821 3 -23.251679 74.633048 60.215743
822 3 -24.481683 83.714468 54.913302
823 2 82.090117 -10.062851 -14.305376
824 3 80.515865 -26.026055 -12.318928
825 3 88.518529 -28.993582 25.133230
826 2 42.179648 7.270444 -25.713797
827 3 49.518156 32.675963 -20.643508
828 3 54.593256 23.174419 -10.069430
829 2 80.967230 -5.213629 103.408718
830 3 78.640757 -11.521934 102.393402
831 3 66.019470 -12.242991 95.279377
832 2 -17.442451 10.711518 7.884894
833 3 -9.221685 28.056153 18.149007
834 3 -18.362303 19.417295 2.725690
835 2 -7.433108 22.133283 22.481327
836 3 -11.168057 10.460316 11.689281
837 3 -9.247851 26.007362 21.283912
838 2 20.788088 47.333361 -14.036296
839 3 24.532198 43.777725 -14.579513
840 3 17.481677 51.704395 -17.470612
841 2 11.427656 10.510884 0.683605
842 3 6.625479 17.912904 -17.700585
843 3 18.256415 15.508309 -7.330112
844 2 -32.908852 -37.393154 37.829162
845 3 -41.956997 -62.437860 40.198655
846 3 -29.521814 -36.668594 17.799188
847 2 -10.959769 75.281374 72.578721
848 3 -4.026255 66.121773 85.680722
849 3 1.627909 71.324181 78.804618
850 2 -53.654001 66.281989 80.727924
851 3 -38.278569 62.104110 89.348685
852 3 -51.791785 76.409900 88.018892
853 2 48.112524 68.370631 -11.008782
854 3 46.368525 59.517504 -8.748847
855 3 44.465566 53.853551 -21.090270
856 2 2.837428 14.483071 -10.848524
857 3 2.566716 2.175674 -12.391996
858 3 -9.148523 9.375667 -11.206674
859 2 7.288731 -20.396939 -79.574279
860 3 6.352203 -39.197351 -99.025717
861 3 10.951927 -28.850224 -71.662992
862 2 65.947932 8.077658 -10.626180
863 3 77.109341 -8.155852 -10.234902
864 3 73.429464 10.673467 -19.055502
865 2 60.666223 8.675597 59.075339
866 3 55.050130 10.789762 45.465872
867 3 59.550780 23.833854 63.423709
868 2 55.958652 10.143386 -35.955753
869 3 61.262353 8.063747 -39.121940
870 3 52.292690 -0.932745 -42.093590
871 2 25.373046 30.223826 4.761014
872 3 29.616246 36.033410 18.282248
873 3 27.029367 32.100345 19.417406
874 2 1.078124 28.720531 4.441928
875 3 -0.141699 25.232895 6.167517
876 3 3.485063 26.706448 -0.585929
877 2 83.400260 85.208122 37.029181
878 3 84.087065 85.651197 26.727134
879 3 85.010600 96.510895 34.366527
880 2 16.565570 69.381568 -49.696119
881 3 32.020332 65.129059 -54.431570
882 3 24.017612 66.965873 -34.187880
883 2 -40.443921 12.096594 -14.184023
884 3 -45.962171 28.630300 -18.069735
885 3 -50.495428 2.332206 -7.853006
886 2 -35.161587 -5.581850 48.766426
887 3 -40.095545 7.963285 57.567808
888 3 -24.798414 -1.378539 44.622718
889 2 36.147657 37.557806 -6.019198
890 3 31.887584 52.928454 -17.395340
891 3 29.626487 48.962908 -22.249767
892 2 -42.687939 -60.961455 3.317807
893 3 -41.017317 -68.376873 18.748937
894 3 -38.446252 -60.581097 4.401629
895 2 16.472144 105.318440 59.954038
896 3 11.205064 100.192225 47.031065
897 3 15.130671 95.108969 48.480884
898 2 26.517046 96.873403 37.458221
899 3 27.705642 89.805327 28.240877
900 3 25.537879 102.969880 41.488861
901 2 -0.104642 38.209587 -27.438553
902 3 -1.896383 42.434913 -8.997184
903 3 10.480308 57.905606 -24.029980
904 2 86.008411 70.146355 1.513029
905 3 89.324235 67.605689 7.608157
906 3 92.245931 69.997847 4.736502
907 2 67.199925 1.479086 -71.657116
908 3 69.581214 -9.301996 -58.992794
909 3 73.553036 2.468600 -62.127603
910 2 32.869434 -28.049122 86.265148
911 3 39.815056 -32.908149 87.020377
912 3 34.302391 -30.878552 92.871515
913 2 85.746083 41.866955 62.682056
914 3 74.698115 60.665739 55.199543
915 3 79.407688 49.086732 54.227631
916 2 59.373560 48.880404 -87.658016
917 3 63.008195 46.675891 -86.218164
918 3 76.660244 50.676177 -78.094756
919 2 57.885705 2.705372 32.053082
920 3 65.152404 21.918433 17.080517
921 3 65.171224 20.305304 1.447206
922 2 38.891952 -32.490643 68.146119
923 3 49.034468 -31.815706 60.732161
924 3 53.625453 -25.185528 71.630667
925 2 -44.762271 54.409290 -4.267862
926 3 -56.805062 54.859937 8.205002
927 3 -58.514212 60.502160 11.231909
928 2 64.330256 -19.484929 -45.876045
929 3 67.262417 -10.654442 -36.576382
930 3 60.718327 -16.001707 -19.883721
931 2 -46.820099 35.087714 -15.245230
932 3 -36.974219 20.022721 -3.422457
933 3 -42.359832 24.689659 -14.050290
934 2 -5.392027 -11.012490 -46.449576
935 3 -8.917368 -5.417994 -46.847519
936 3 -7.087914 0.042629 -50.749113
937 2 12.411520 57.822549 3.052375
938 3 5.883480 59.639370 31.820868
939 3 3.093720 49.170945 31.294022
940 2 -23.567418 21.799039 78.069160
941 3 -27.742185 29.357002 73.572466
942 3 -21.189074 17.754938 87.952267
943 2 -9.873352 39.421137 26.073977
944 3 -10.292578 37.674948 27.303313
945 3 -1.494439 44.979223 44.725905
946 2 81.165702 23.946685 45.346826
947 3 97.016052 14.081469 58.142565
948 3 81.329724 17.094732 51.392042
949 2 -39.138869 14.389182 26.025746
950 3 -46.468013 13.705196 32.964751
951 3 -38.769817 11.967349 28.180937
952 2 78.622571 5.758877 30.804846
953 3 69.417197 0.264102 23.405494
954 3 86.731582 -0.270600 30.173799
955 2 53.218502 30.787532 -3.077717
956 3 42.676033 37.495545 -19.969743
957 3 49.738914 43.326646 -16.036389
958 2 6.100766 36.205710 11.798081
959 3 -8.605700 37.813947 23.224814
960 3 -0.834738 46.427400 5.143551
961 2 -13.052212 -10.147592 44.280298
962 3 -14.168505 -7.222098 44.978052
963 3 -26.420876 0.524667 55.059582
964 2 -29.404546 10.627455 104.282370
965 3 -29.536712 18.250749 113.332571
966 3 -32.835342 26.916380 83.994926
967 2 29.019609 66.286755 -28.945445
968 3 34.122436 81.151067 -23.998585
969 3 21.787981 69.978827 -31.881419
970 2 -29.634838 25.767491 -16.567845
971 3 -21.187709 34.655442 -9.592932
972 3 -24.529594 33.448988 -8.026822
973 2 20.306870 92.200678 -23.350809
974 3 10.784819 89.613722 -28.303182
975 3 22.188960 97.058979 -11.434025
976 2 -49.086709 74.909515 -26.727724
977 3 -35.959965 55.434207 -19.330668
978 3 -30.975763 71.529131 -26.905234
979 2 5.898000 92.841349 10.161079
980 3 -3.626854 79.504409 28.170576
981 3 4.532871 75.644019 21.985505
982 2 -19.367097 30.110940 46.947091
983 3 -20.788289 36.911902 33.562915
984 3 -19.214909 40.825735 38.848052
985 2 -28.394456 39.723185 21.705365
986 3 -32.682772 36.281201 25.628652
987 3 -34.373857 29.778800 26.282551
988 2 20.965761 -9.604166 21.665480
989 3 23.915736 -14.152110 20.174930
990 3 28.807490 -24.060449 -6.790787
991 2 56.455318 37.490373 58.705567
992 3 54.975159 43.133337 66.234469
993 3 70.577084 57.353866 67.848146
994 2 37.722932 36.673236 -12.077701
995 3 45.530986 30.308647 -7.555629
996 3 39.110139 28.390475 -5.180660
997 2 1.550999 22.003462 -5.996304
998 3 10.046429 23.874960 -14.033727
999 3 20.857167 7.648364 -0.834617
1000 2 -4.427154 39.657833 36.297423
1001 3 0.494398 48.907033 32.397574
1002 3 8.409764 44.508872 40.750172
1003 2 -48.584546 57.656283 -9.364009
1004 3 -40.783127 64.146399 -9.853014
1005 3 -41.836242 68.828448 -4.063814
1006 2 -24.369981 20.589638 -29.306772
1007 3 -35.332770 20.064277 -17.173258
1008 3 -31.692898 16.104867 -11.919312
1009 2 -10.426183 55.276398 -27.424401
1010 3 -1.054404 68.499267 -14.099438
1011 3 0.932473 75.855161 -22.461330
1012 2 -58.231591 97.142101 40.901216
1013 3 -50.996925 89.959445 61.299907
1014 3 -57.263249 95.617202 48.817316
1015 2 0.973178 99.971915 -45.251325
1016 3 5.843967 103.145870 -34.987356
1017 3 6.521576 99.500551 -45.035984
1018 2 37.596280 62.968766 1.056722
1019 3 37.539364 62.298850 -8.713542
1020 3 54.718667 57.233148 -4.226339
1021 2 1.078188 2.165477 91.282148
1022 3 19.617664 2.845136 91.803303
1023 3 9.264518 -7.859441 89.595250
1024 2 -30.616880 84.109741 -54.294925
1025 3 -28.998837 81.363011 -61.526926
1026 3 -23.226495 84.559811 -54.831529
1027 2 71.760038 -13.628277 -22.091313
1028 3 68.671342 -9.326346 -15.648970
1029 3 63.247191 -23.152689 -5.978632
1030 2 53.645863 16.810783 13.688349
1031 3 59.609331 22.367913 17.810488
1032 3 49.709599 20.496002 14.422804
1033 2 83.697178 96.960166 16.527542
1034 3 87.591075 96.797085 38.087466
1035 3 82.091263 93.185330 33.134680
1036 2 117.790403 30.664407 25.798834
1037 3 121.564567 41.129220 33.785079
1038 3 115.713224 37.095383 37.739949
1039 2 -23.189261 84.309252 -34.630670
1040 3 -27.090657 82.499410 -16.664737
1041 3 -34.246834 108.755810 -42.868839
1042 2 13.608955 55.771347 21.126086
1043 3 6.969495 41.503755 6.107715
1044 3 6.503400 51.162295 22.833590
1045 2 45.939955 88.946171 9.985138
1046 3 49.269774 78.635545 4.164439
1047 3 58.923807 71.164122 -15.105712
1048 2 -37.097963 75.542834 51.920760
1049 3 -30.870257 82.909815 58.825743
1050 3 -42.166999 84.847651 56.975877
1051 2 -15.560480 38.132376 31.846786
1052 3 -15.758823 38.568332 14.545440
1053 3 -8.294672 24.146236 23.426982
1054 2 73.756080 28.363430 -4.448864
1055 3 77.704546 15.157677 3.081775
1056 3 74.763561 8.435125 19.345778
1057 2 -8.067797 58.502542 67.374440
1058 3 -0.153944 53.357135 82.344069
1059 3 -3.697117 40.471437 81.831033
1060 2 2.003690 20.090186 70.110056
1061 3 -2.329901 6.835826 46.091941
1062 3 1.490287 13.392099 65.212484
1063 2 31.291607 43.774448 -1.278856
1064 3 25.109757 42.859462 17.181499
1065 3 19.946377 45.592162 11.380924
1066 2 73.682185 92.707080 29.270332
1067 3 67.998825 91.828956 10.451957
1068 3 55.846056 92.624368 16.645026
1069 2 92.327893 50.272963 4.740968
1070 3 93.843872 43.413978 -4.626206
1071 3 92.380596 39.632638 0.904620
1072 2 64.939851 53.859070 12.161830
1073 3 68.226393 58.469701 12.501642
1074 3 74.669995 41.453653 5.631628
1075 2 134.087410 -17.870473 9.590223
1076 3 148.000743 -7.274591 4.721555
1077 3 148.949014 -10.092258 9.084252
1078 2 47.954926 48.973549 23.493878
1079 3 45.717530 28.864908 17.707967
1080 3 49.825578 28.232744 31.816529
1081 2 -69.584366 30.219433 -30.703373
1082 3 -55.242316 39.463469 -20.269694
1083 3 -64.732875 40.787850 -5.893429
1084 2 7.369281 38.559482 13.416584
1085 3 8.334914 25.086449 13.257424
1086 3 1.939813 35.422826 5.543792
1087 2 5.510608 44.617492 54.607132
1088 3 7.152173 49.748664 60.251014
1089 3 9.872754 49.765786 53.023836
1090 2 56.765877 35.325865 -36.890951
1091 3 52.086134 27.596168 -33.900194
1092 3 47.291634 48.002627 -19.940922
1093 2 28.189968 97.569835 -69.081615
1094 3 30.529351 87.530439 -75.611689
1095 3 10.509003 80.463545 -63.787751
1096 2 47.812490 33.110072 11.257509
1097 3 38.902702 24.727265 5.512526
1098 3 44.299691 27.551791 2.036012
1099 2 19.035616 65.548511 -35.986577
1100 3 11.916275 70.279693 -16.046798
1101 3 11.627079 71.719250 -25.035488
1102 2 102.049000 39.059554 -57.578359
1103 3 95.947808 29.996131 -76.124204
1104 3 110.191511 39.494271 -82.902509
1105 2 -23.709637 93.687596 0.805344
1106 3 -36.430329 103.126439 -10.530651
1107 3 -17.005232 93.016684 0.599490
1108 2 15.295316 3.157975 27.249815
1109 3 29.769079 -0.484137 29.335706
1110 3 33.679356 -7.249848 21.110827
1111 2 100.080178 45.920444 45.860308
1112 3 83.546097 55.329662 44.004286
1113 3 93.676749 45.090007 42.418295
1114 2 55.334585 97.659928 25.836584
1115 3 51.966429 86.843342 3.892098
1116 3 63.534928 92.378173 21.436352
1117 2 -27.397254 92.497831 36.692694
1118 3 -33.291045 96.249267 38.618270
1119 3 -32.968219 90.800212 23.250725
1120 2 -25.781525 88.907712 -21.478767
1121 3 -29.932065 95.655228 -7.767612
1122 3 -21.044747 105.844797 -31.213218
1123 2 -4.373455 71.859787 24.214865
1124 3 -7.302946 60.571096 40.485321
1125 3 4.896376 60.018280 36.017829
1126 2 -47.748964 118.003998 9.697691
1127 3 -37.121430 122.874051 -10.927744
1128 3 -41.226277 116.926835 -0.565858
1129 2 85.863776 59.774209 48.566746
1130 3 84.009553 64.602231 45.756438
1131 3 64.838905 62.434563 52.453097
1132 2 25.472396 18.451253 5.481146
1133 3 27.321701 24.886851 -8.516207
1134 3 36.270389 16.701373 -10.615405
1135 2 40.618043 -9.022082 -15.309152
1136 3 37.122370 -23.814459 -24.153777
1137 3 38.451225 -13.824982 -15.614288
1138 2 -36.819341 57.767707 -20.068898
1139 3 -29.341420 47.771662 2.579103
1140 3 -30.124793 48.554402 0.330227
1141 2 40.444895 78.368440 -70.411846
1142 3 40.139375 64.190172 -78.647606
1143 3 44.641065 73.565510 -55.404174
1144 2 10.293996 19.989663 12.272326
1145 3 13.437087 22.624991 8.371591
1146 3 0.327121 19.799329 18.775247
1147 2 21.071281 89.560500 -3.536955
1148 3 21.031560 63.230679 -9.310974
1149 3 26.920995 87.399728 6.820159
1150 2 -12.363616 22.797060 -24.689629
1151 3 -11.460868 31.656697 -20.510416
1152 3 -4.032306 21.118839 -25.180561
1153 2 95.501700 41.261140 -48.150986
1154 3 101.129737 38.140796 -48.152886
1155 3 100.366675 44.406390 -54.793371
1156 2 -23.379999 42.055716 -12.434938
1157 3 -23.384476 43.205645 0.173375
1158 3 -27.762784 38.561179 -9.171237
1159 2 36.067979 97.186931 72.347885
1160 3 42.284285 95.871144 64.491870
1161 3 49.013433 106.161335 71.689366
1162 2 1.383896 31.299847 -33.987517
1163 3 -1.323967 32.891517 -38.129380
1164 3 15.518399 30.960805 -34.990184
1165 2 19.257408 77.706062 66.036459
1166 3 27.950869 87.955870 81.436014
1167 3 21.544661 87.283369 82.668164
1168 2 0.222615 19.302327 69.369616
1169 3 6.510833 18.799777 74.561681
1170 3 -2.548139 21.686634 67.055760
1171 2 3.606693 72.255121 26.292461
1172 3 5.778732 89.226872 4.925746
1173 3 -3.192011 84.667488 14.752543
1174 2 43.031579 24.080388 11.749215
1175 3 42.788028 14.640345 24.021882
1176 3 51.038661 24.406816 28.067897
1177 2 -42.764860 113.752606 18.034404
1178 3 -36.354388 132.355641 23.675326
1179 3 -36.415903 120.615934 27.703634
1180 2 105.176231 23.077728 -0.809573
1181 3 126.536912 44.001199 -7.647786
1182 3 105.308941 27.393656 1.140770
1183 2 -14.841312 37.044504 -50.846086
1184 3 -23.251327 49.987421 -57.995109
1185 3 -19.129021 27.869483 -48.071404
1186 2 7.751016 58.903882 -2.123497
1187 3 -10.371798 66.165467 10.060125
1188 3 -5.880355 62.201915 4.918530
1189 2 93.670420 160.498268 44.046164
1190 3 84.957897 190.570715 28.537272
1191 3 96.448283 171.384049 32.684117
1192 2 16.597091 127.187096 87.792176
1193 3 22.965275 134.413913 89.570437
1194 3 22.488118 143.666396 91.652059
1195 2 -55.911466 -27.971945 -12.891976
1196 3 -70.015801 -25.550914 -8.497604
1197 3 -65.841286 -14.317263 -15.291182
1198 2 39.477400 -4.739139 -16.613047
1199 3 35.595918 -11.071642 3.807465
1200 3 45.972302 -7.795965 -1.082163
1201 2 -84.167108 26.781363 -15.593163
1202 3 -98.068369 26.177332 -9.308543
1203 3 -83.273998 32.358532 -18.443347
1204 2 66.575540 11.125120 19.678086
1205 3 62.127121 13.473771 13.539407
1206 3 66.700853 4.125868 29.874910
1207 2 -1.398155 -24.324620 -15.423266
1208 3 7.775905 -6.574724 -25.372385
1209 3 3.840600 -21.642173 -25.335366
1210 2 34.011581 74.136240 56.290181
1211 3 34.782538 62.389129 65.711197
1212 3 30.968876 65.979431 53.837852
1213 2 -39.089383 33.256954 -5.275089
1214 3 -36.896447 20.898526 -7.457865
1215 3 -37.146536 34.095655 1.755560
1216 2 81.185687 4.200411 36.950367
1217 3 87.344542 11.867535 42.591612
1218 3 76.039656 -2.392615 46.399218
1219 2 99.939751 0.591123 -23.756544
1220 3 92.372227 1.583678 -38.186114
1221 3 104.063592 9.695688 -34.162767
1222 2 59.522084 25.161802 3.589190
1223 3 62.194330 29.845560 -0.086593
1224 3 69.147323 10.395955 -3.724007
1225 2 34.630558 48.418705 79.465688
1226 3 41.526802 41.940128 77.018671
1227 3 48.792819 43.877617 78.773269
1228 2 28.916613 30.810597 12.676518
1229 3 14.762014 32.540395 17.972525
1230 3 24.479639 15.159803 15.587442
1231 2 42.055110 -21.597918 25.958779
1232 3 42.842171 -10.991825 20.080349
1233 3 47.578495 -6.568065 5.723435
1234 2 -19.894551 2.852863 29.406798
1235 3 -21.315499 5.232564 29.379588
1236 3 -16.484006 -3.237785 30.624074
1237 2 31.043818 33.152064 24.724786
1238 3 36.496486 41.531427 48.061582
1239 3 28.633092 30.949302 21.849054
1240 2 87.375299 17.016831 -0.799964
1241 3 78.117204 22.788635 19.258475
1242 3 75.228336 11.325156 23.601430
1243 2 10.222720 22.912455 12.034042
1244 3 22.035434 5.080614 -1.188703
1245 3 21.983288 10.332202 3.856856
1246 2 34.923792 46.960736 72.437800
1247 3 35.282236 54.955371 68.907940
1248 3 39.693496 44.489401 59.828926
1249 2 -47.543183 48.784823 -33.580680
1250 3 -39.003021 49.537606 -22.831619
1251 3 -47.057832 43.836524 -27.733292
1252 2 29.309976 48.412776 -62.907456
1253 3 26.531462 36.609762 -58.617467
1254 3 26.387271 55.854567 -70.652539
1255 2 28.176598 -1.195749 44.236835
1256 3 29.802492 -2.197572 43.666525
1257 3 19.158462 -9.232864 51.943958
1258 2 30.989960 11.489168 95.924468
1259 3 29.482325 9.524710 104.164851
1260 3 30.116000 13.929335 106.393570
1261 2 33.552086 56.211959 56.474184
1262 3 36.612226 60.073585 56.799783
1263 3 24.893944 47.717641 53.689570
1264 2 78.483575 16.033655 -15.738297
1265 3 68.202168 24.973559 -9.962391
1266 3 74.510643 8.190547 0.167685
1267 2 45.189777 19.522155 36.058413
1268 3 52.206137 6.931762 45.057455
1269 3 43.895484 8.621456 37.817851
1270 2 47.809153 28.150572 -4.200626
1271 3 57.032374 33.574146 -22.125785
1272 3 51.603666 31.648004 -8.540195
1273 2 -60.610514 -76.896997 86.782986
1274 3 -60.814840 -77.881725 89.814060
1275 3 -62.265113 -68.150915 80.032340
1276 2 44.957340 80.669795 54.096137
1277 3 47.512407 80.965358 48.727622
1278 3 49.542991 63.184724 40.132081
1279 2 -41.192328 -15.096239 42.917809
1280 3 -28.686105 -19.793640 26.852282
1281 3 -39.190178 -6.005706 39.262903
1282 2 47.725571 -25.125038 -63.767823
1283 3 46.878264 -48.777616 -71.239276
1284 3 47.121118 -39.762225 -66.536126
1285 2 -17.645674 57.021918 28.920640
1286 3 -6.240065 56.828425 32.151881
1287 3 -14.069476 55.043818 27.892534
1288 2 83.822704 40.111508 13.608287
1289 3 81.458331 41.915671 18.136331
1290 3 85.704252 23.029611 -2.911139
1291 2 -3.481214 -28.730566 10.524643
1292 3 -11.048278 -33.285291 18.778732
1293 3 -16.663761 -35.347440 5.639981
1294 2 21.438620 16.255787 -37.135450
1295 3 19.633206 34.723346 -35.246524
1296 3 25.028408 23.476938 -70.399502
1297 2 -23.938774 -5.505529 -20.161406
1298 3 -21.410418 5.813226 -26.336953
1299 3 -14.837569 7.951061 -33.668224
1300 2 36.608829 1.549073 78.588392
1301 3 46.865070 2.241258 73.749607
1302 3 30.000758 -0.998139 77.296725
1303 2 -23.898165 38.806418 4.186726
1304 3 -14.278981 30.552141 10.743240
1305 3 -23.378295 40.132703 7.857222
1306 2 65.576813 31.858526 -42.835086
1307 3 72.036090 35.508271 -31.829404
1308 3 73.946072 31.552503 -40.794404
1309 2 113.683300 24.825003 35.114363
1310 3 109.993286 32.191390 31.273354
1311 3 117.241565 28.896058 37.673091
1312 2 -120.016133 60.242668 3.418560
1313 3 -120.085622 58.717329 6.341469
1314 3 -120.625722 69.158833 16.098409
1315 2 42.445852 24.354589 88.508006
1316 3 33.787410 17.283116 77.560926
1317 3 43.134842 10.621849 105.472395
1318 2 39.383313 44.406853 54.961844
1319 3 36.209769 40.146087 20.361741
1320 3 43.722805 45.927548 32.551224
1321 2 6.552032 17.612978 -21.313338
1322 3 1.975216 9.566277 -32.304946
1323 3 -4.309716 11.691287 -5.044523
1324 2 57.115070 -31.760187 15.621398
1325 3 47.300052 -27.349736 27.939863
1326 3 41.066824 -32.373148 15.069353
1327 2 12.087371 34.089409 25.371777
1328 3 11.093391 15.836499 38.108600
1329 3 4.760056 34.486080 36.965854
1330 2 25.744034 -34.822284 16.598355
1331 3 28.777132 -32.254954 18.746505
1332 3 31.187516 -33.015757 24.821436
1333 2 -3.082496 38.986627 40.630480
1334 3 2.662927 32.999598 32.096549
1335 3 -1.813512 36.329705 38.834785
1336 2 22.877086 60.265638 34.958644
1337 3 17.947157 59.699423 22.891797
1338 3 24.834125 60.429742 21.002952
1339 2 11.512901 44.308375 21.115573
1340 3 11.823144 63.456816 19.270217
1341 3 14.427325 51.817169 31.668888
1342 2 30.368397 -9.848495 0.484329
1343 3 29.180046 -16.800438 -10.352940
1344 3 32.529500 -14.701197 -18.761677
1345 2 75.857213 29.560569 -61.758421
1346 3 76.521322 27.554851 -38.920124
1347 3 72.741716 18.306895 -58.107471
1348 2 81.132529 1.304198 52.751655
1349 3 83.704080 2.669446 63.027302
1350 3 88.578811 4.977855 59.212168
1351 2 7.967199 -7.819237 57.920773
1352 3 16.472703 -5.138607 49.804686
1353 3 11.514009 -5.503772 65.984569
1354 2 24.604290 11.989987 -9.037060
1355 3 17.376922 22.275135 0.586392
1356 3 10.010287 13.813726 -7.499928
1357 2 -18.103075 -5.138526 41.237913
1358 3 -5.286701 -6.843542 28.914053
1359 3 -18.887255 -11.140286 40.327143
1360 2 16.528832 57.099433 12.851267
1361 3 -6.427903 39.589996 4.701410
1362 3 -4.971779 47.372609 1.580499
1363 2 64.422787 -22.105725 -33.002564
1364 3 56.776378 -4.052358 -28.307869
1365 3 61.541763 -23.808647 -17.389627
1366 2 7.767883 82.256738 100.138233
1367 3 7.437650 80.419848 109.571547
1368 3 -1.466290 82.018350 94.017524
1369 2 -0.844878 16.947251 22.569630
1370 3 -12.844765 3.693227 27.790551
1371 3 -8.574576 17.603711 14.611822
1372 2 4.659957 -16.357571 -26.616741
1373 3 12.948506 -10.805835 -24.873372
1374 3 4.740374 -1.951271 -35.869971
1375 2 -25.204580 31.999953 4.859365
1376 3 -24.052297 49.037527 0.991586
1377 3 -34.088425 59.313090 -3.395981
1378 2 118.346118 7.243742 18.929237
1379 3 112.866057 2.628830 24.286956
1380 3 119.261555 1.789867 13.063799
1381 2 17.493433 55.175502 47.670226
1382 3 20.347458 47.687385 47.899334
1383 3 16.511777 46.397256 45.035356
1384 2 40.418758 13.251562 -52.094442
1385 3 44.438224 23.216949 -38.024690
1386 3 45.034585 -0.294439 -43.965988
1387 2 72.704402 -10.419118 -13.789069
1388 3 71.658152 -10.794331 -26.021479
1389 3 92.365066 2.623889 -15.367743
1390 2 -17.613539 25.846832 17.762539
1391 3 -18.730713 20.660203 17.082475
1392 3 -19.875567 23.610888 12.287574
1393 2 31.748804 39.542285 96.538781
1394 3 19.083478 40.583934 108.974910
1395 3 23.083149 53.418640 112.124370
1396 2 -41.054798 -2.890458 72.302171
1397 3 -46.545335 -4.459548 70.363619
1398 3 -46.628338 -0.713237 74.385620
1399 2 19.939209 5.427055 5.385398
1400 3 8.360231 4.484948 15.054782
1401 3 16.757837 14.840013 23.099318
1402 2 30.378269 17.138556 -3.904771
1403 3 16.785892 33.860693 15.608181
1404 3 25.684859 6.401278 13.893652
1405 2 58.385461 64.556131 54.092966
1406 3 45.552065 61.952124 46.780774
1407 3 57.263119 53.439321 57.372404
1408 2 -16.076802 -12.361068 -73.976202
1409 3 -14.216148 -0.943491 -42.203954
1410 3 -11.055526 -5.316857 -64.542860
1411 2 22.827303 116.827673 23.341583
1412 3 30.662667 111.989403 14.797527
1413 3 35.278060 119.920118 21.410077
1414 2 16.495151 100.013612 -21.592305
1415 3 22.379411 85.143557 -22.923929
1416 3 14.188377 98.949632 -17.614118
1417 2 22.034222 48.374803 -42.061558
1418 3 21.497095 59.677833 -33.753955
1419 3 14.187781 66.571930 -32.139259
1420 2 11.201091 38.765226 74.411895
1421 3 4.811103 48.928847 56.560291
1422 3 4.663479 58.429253 53.406087
1423 2 105.292530 22.662938 18.484199
1424 3 97.882496 20.932201 10.809883
1425 3 110.638235 24.045153 41.396444
1426 2 -38.143978 32.178645 -53.378807
1427 3 -40.490936 47.761549 -50.828589
1428 3 -48.234081 59.533499 -38.598280
1429 2 -97.158047 -19.628925 3.881847
1430 3 -95.818614 -11.419569 16.477380
1431 3 -80.910797 -10.895337 -0.669169
1432 2 -63.120378 -42.104699 -34.937726
1433 3 -62.522542 -49.544589 -34.566315
1434 3 -69.748925 -48.786321 -42.318203
1435 2 -30.499859 67.915065 -0.475922
1436 3 -41.420928 75.168809 6.207375
1437 3 -30.678327 56.880385 16.521257
1438 2 1.254935 55.927472 -46.005586
1439 3 13.081836 48.360796 -41.537150
1440 3 10.259669 48.614426 -49.053557
1441 2 -29.683137 46.424133 7.395303
1442 3 -26.103217 52.991741 8.580102
1443 3 -22.527291 31.240174 -9.397923
1444 2 -64.275465 34.799570 -47.855186
1445 3 -74.155597 42.895645 -45.042973
1446 3 -63.070240 36.168500 -49.862526
1447 2 -4.490288 43.275866 4.135641
1448 3 -0.868658 59.990695 13.501171
1449 3 6.903384 33.039093 14.476521
1450 2 -9.379157 46.809280 15.462621
1451 3 -1.003403 49.630454 20.386336
1452 3 1.495600 42.684869 26.492651
1453 2 29.118042 41.152445 -1.624514
1454 3 22.801880 42.698658 19.542340
1455 3 20.179430 42.677929 8.802936
1456 2 21.919248 54.691364 34.789968
1457 3 20.387599 49.368127 24.050818
1458 3 25.022127 57.692385 45.579288
1459 2 91.086044 35.268613 26.736859
1460 3 93.459322 20.404585 48.499368
1461 3 80.077393 25.853463 38.940343
1462 2 21.336236 52.905864 65.842513
1463 3 23.984908 46.055036 73.604180
1464 3 12.236212 52.847970 59.814340
1465 2 94.196149 117.383078 38.165975
1466 3 90.707546 99.402514 48.505380
1467 3 97.770473 121.883318 44.664737
1468 2 -98.898146 23.920293 51.483961
1469 3 -81.136260 35.179987 59.334752
1470 3 -86.792983 18.086068 55.142415
1471 2 -39.466218 -19.365545 27.074642
1472 3 -39.766686 -16.362927 31.085849
1473 3 -40.293906 -23.644289 11.974510
1474 2 -48.331258 53.513784 58.814732
1475 3 -52.115806 57.389356 84.400694
1476 3 -59.227646 66.810824 74.065039
1477 2 -62.656072 66.753884 -17.012859
1478 3 -59.444821 88.251297 -17.911054
1479 3 -61.299303 99.031841 -13.831628
1480 2 -47.847898 101.889327 0.343740
1481 3 -46.826089 110.035402 1.281961
1482 3 -41.507457 107.638089 5.021667
1483 2 -52.796456 83.570020 31.355626
1484 3 -48.115254 89.168746 30.716526
1485 3 -51.947266 84.016281 42.773892
1486 2 -21.803075 46.313606 -4.431388
1487 3 -28.624886 47.816847 -3.477718
1488 3 -31.014045 45.103033 -6.339831
1489 2 -11.364276 -28.588752 -2.717278
1490 3 -15.751930 -8.428754 -8.841152
1491 3 -19.622057 -16.686782 -12.523230
1492 2 60.014036 5.257244 -65.699857
1493 3 54.271105 4.426240 -77.902673
1494 3 44.679020 5.879718 -55.200407
1495 2 43.834382 65.145426 73.997179
1496 3 39.085180 64.142807 59.620929
1497 3 32.235339 66.557042 60.250935
1498 2 16.746380 -1.726846 36.508918
1499 3 14.597837 -17.406594 12.197545
1500 3 11.768616 4.025934 12.532585
1501 2 41.639411 92.694323 -68.609325
1502 3 33.412111 77.466495 -69.933780
1503 3 38.516182 86.765268 -61.170789
1504 2 50.163151 78.232255 33.480589
1505 3 41.922508 86.691642 27.874097
1506 3 55.446343 79.870642 29.107769
1507 2 14.436675 56.822731 41.579570
1508 3 17.459959 55.368646 25.693656
1509 3 18.661562 58.456849 34.750764
1510 2 -44.843185 67.448674 1.090961
1511 3 -46.716149 77.289453 -6.215015
1512 3 -46.168476 71.475643 -5.664722
1513 2 71.627013 -12.239780 58.355923
1514 3 87.782540 -10.294903 73.013397
1515 3 82.033539 -9.208714 53.244604
1516 2 -13.700067 45.689437 42.085579
1517 3 -15.706872 49.476283 48.623056
1518 3 -19.517765 30.299809 41.360161
1519 2 -46.172383 -12.093092 35.285302
1520 3 -55.950234 -13.017866 43.745922
1521 3 -59.473200 -3.874037 43.733359
1522 2 51.471898 74.397112 82.056038
1523 3 56.315995 81.752393 70.388552
1524 3 52.902217 74.399039 65.702239
1525 2 13.975385 56.378579 -25.977942
1526 3 25.327843 41.020126 -21.052892
1527 3 13.442220 61.716138 -20.815852
1528 2 89.131747 38.746285 45.073159
1529 3 83.580342 19.701724 42.316324
1530 3 93.862988 30.353402 36.723406
1531 2 17.220492 69.790989 -4.797671
1532 3 15.783567 65.163751 -31.493790
1533 3 7.719312 80.162527 -32.890193
1534 2 39.325921 18.712741 25.818822
1535 3 31.778266 15.102116 6.126998
1536 3 26.585030 10.949401 5.100057
1537 2 82.584577 81.956385 14.630961
1538 3 71.931937 82.960400 19.865664
1539 3 78.430435 82.514740 15.996618
1540 2 54.754635 49.359408 -8.184660
1541 3 54.906145 41.489227 -8.543322
1542 3 63.150421 52.414526 -25.285906
1543 2 125.647568 15.724072 30.596676
1544 3 127.121086 8.126494 42.525140
1545 3 133.210082 13.682056 31.058102
1546 2 -19.594961 -11.160063 62.059841
1547 3 -7.970062 -8.489517 47.403047
1548 3 -12.926422 -9.435382 62.170999
1549 2 28.456488 26.812488 -53.958703
1550 3 27.231562 12.348275 -42.405013
1551 3 25.239163 23.980027 -45.066162
1552 2 10.249138 28.453853 17.829661
1553 3 11.015796 7.740529 10.021677
1554 3 19.023442 20.726316 3.550210
1555 2 9.721934 55.908653 5.679898
1556 3 -2.421150 61.789389 5.032571
1557 3 -5.828763 55.128278 -7.373040
1558 2 -20.443435 60.923934 10.431422
1559 3 -3.330880 49.630310 14.585049
1560 3 -12.239283 60.736222 28.506241
1561 2 90.790099 22.844401 -5.723422
1562 3 96.439520 17.242499 -11.501237
1563 3 107.169266 9.879427 -2.275740
1564 2 64.284376 50.310719 39.116694
1565 3 58.008540 65.762234 35.488201
1566 3 52.215769 50.725125 37.628303
1567 2 70.621060 -34.738547 -17.561916
1568 3 76.254791 -34.820395 -0.901793
1569 3 78.484185 -28.201727 -27.515266
1570 2 37.543290 79.545978 71.081557
1571 3 44.648380 84.846222 53.660686
1572 3 31.450802 81.744354 50.742723
1573 2 131.508906 74.082071 -7.016235
1574 3 127.487944 88.598586 -16.404158
1575 3 130.946868 83.378814 -5.837073
1576 2 -6.159491 -7.533675 -51.980969
1577 3 -11.198716 -9.708259 -47.713039
1578 3 -12.779617 0.534829 -38.814894
1579 2 43.675247 57.047351 17.761918
1580 3 31.459498 69.564495 29.104870
1581 3 43.476975 59.807225 32.201149
1582 2 101.891017 6.892850 -2.782358
1583 3 101.683603 12.882190 2.406223
1584 3 104.161151 16.477944 -1.860108
1585 2 8.818782 19.198742 44.497050
1586 3 25.568042 22.384227 25.200953
1587 3 15.006960 16.524060 44.385835
1588 2 -15.217491 84.780775 6.451415
1589 3 -8.106822 76.185151 9.239601
1590 3 -8.842792 84.210394 0.437219
1591 2 -43.745152 75.952023 -29.803520
1592 3 -26.647991 67.194972 -24.507114
1593 3 -33.655450 69.225230 -17.414574
1594 2 -11.728068 79.438248 60.246793
1595 3 -13.654153 80.649227 56.864020
1596 3 -17.944481 85.415576 64.959949
1597 2 -7.795045 53.143940 25.870504
1598 3 -14.509132 38.575083 34.257345
1599 3 -9.282020 49.817017 31.758256
1600 2 -35.715047 60.389895 36.690213
1601 3 -30.150981 63.948712 24.467777
1602 3 -25.122646 63.362473 18.767564
1603 2 22.210362 143.054956 41.935229
1604 3 21.246530 141.436597 56.822716
1605 3 18.233268 138.511011 42.009057
1606 2 -0.478781 -20.551616 23.629653
1607 3 1.689791 -12.440450 10.523242
1608 3 -5.382312 -15.636766 14.263052
1609 2 22.092815 85.101920 23.911577
1610 3 20.615932 83.675917 26.899602
1611 3 26.751125 89.215629 28.355675
1612 2 39.397841 53.771250 45.312453
1613 3 33.380046 54.761615 18.677986
1614 3 39.360108 52.744497 35.268659
1615 2 24.622208 35.828323 -29.265555
1616 3 13.387892 48.688359 -44.566932
1617 3 16.225460 38.828138 -36.171154
1618 2 56.423559 12.834892 -7.824644
1619 3 56.156212 20.136610 -1.257540
1620 3 51.187194 23.973170 -0.320948
1621 2 35.663661 -9.657818 17.456328
1622 3 35.040088 2.059448 19.158659
1623 3 38.430003 -12.541338 31.696533
1624 2 -8.741886 38.407281 -51.659530
1625 3 -9.839621 33.448699 -55.464903
1626 3 -1.340649 32.216249 -56.153286
1627 2 -15.765722 41.173510 33.418674
1628 3 -8.174490 30.294326 43.504020
1629 3 -5.135396 40.836511 31.102736
1630 2 -19.938123 105.303434 29.938578
1631 3 -15.760998 87.326831 17.371456
1632 3 -9.055971 78.096287 40.939012
1633 2 -23.694027 48.146009 71.830679
1634 3 -37.410904 41.132866 66.472875
1635 3 -31.382292 56.842219 75.326819
1636 2 40.015832 96.513373 -7.409381
1637 3 25.265092 97.460121 -4.869252
1638 3 27.331334 90.072101 -9.172342
1639 2 -4.012919 62.629193 26.106061
1640 3 -3.927273 51.187987 20.350076
1641 3 3.861156 55.321220 33.399443
1642 2 69.961789 51.466370 -18.464987
1643 3 70.385610 46.833533 -13.835502
1644 3 62.433394 45.879846 -22.673073
1645 2 60.330875 28.241070 83.144062
1646 3 67.567393 11.723917 87.929673
1647 3 66.125423 28.207354 87.979428
1648 2 -4.460249 117.005981 -48.595898
1649 3 -1.359275 124.444570 -47.424440
1650 3 -6.013965 122.100914 -48.731602
1651 2 17.408489 84.303429 -1.150261
1652 3 19.735906 83.347391 -9.382158
1653 3 34.486464 92.633932 -19.701778
1654 2 80.918872 19.916375 57.820804
1655 3 84.640827 16.285022 56.085759
1656 3 81.157247 16.270986 67.394382
1657 2 27.845517 -25.733030 -38.599548
1658 3 25.036134 -21.028278 -42.100218
1659 3 35.085889 -21.897469 -46.489431
1660 2 95.391132 24.507423 -22.221204
1661 3 97.328889 23.626268 -4.637519
1662 3 96.500122 24.434994 -33.122145
1663 2 -17.651522 23.323666 -10.534358
1664 3 -12.339385 28.316599 -13.996164
1665 3 -10.457510 30.989216 -8.522359
1666 2 -43.919978 58.085317 83.283921
1667 3 -33.723780 73.210193 79.827757
1668 3 -45.977387 45.646092 71.207753
1669 2 27.538399 138.865895 31.992337
1670 3 25.893326 131.031857 23.766580
1671 3 17.635088 142.692121 16.788015
1672 2 -10.217953 49.458731 25.735104
1673 3 -5.915867 56.397904 3.997292
1674 3 -15.603736 56.081012 34.929492
1675 2 -23.269809 79.247457 1.568902
1676 3 -16.471588 84.011073 -4.537319
1677 3 -18.008113 86.896413 -5.148759
1678 2 26.104481 58.332429 19.659471
1679 3 28.041747 58.912039 19.946236
1680 3 18.833230 62.007103 -1.057336
1681 2 -61.159426 54.278754 38.440709
1682 3 -63.395284 53.856694 30.200289
1683 3 -61.255192 39.181875 44.522202
1684 2 -36.002401 106.165623 114.830389
1685 3 -42.532889 96.582652 121.949147
1686 3 -42.085431 80.358632 112.001131
1687 2 37.643995 114.294669 -31.860416
1688 3 25.010955 121.077430 -24.348992
1689 3 34.638200 127.691704 -31.271387
1690 2 34.303617 11.859354 -24.810742
1691 3 33.388022 12.680074 -23.306737
1692 3 30.921491 8.669384 -36.134832
1693 2 8.159212 -16.639192 37.628834
1694 3 12.449709 6.491815 29.702982
1695 3 2.255733 -15.227954 32.575240
1696 2 6.942379 61.143898 -14.324397
1697 3 22.614361 61.203070 -7.566172
1698 3 5.163688 62.797349 -19.595805
1699 2 92.971635 78.511110 8.190271
1700 3 84.495101 79.111493 6.506329
1701 3 91.866853 67.618327 7.918649
1702 2 50.797843 57.651740 21.661873
1703 3 53.935898 52.379617 15.651488
1704 3 49.454959 42.330813 13.516157
1705 2 -39.625890 -20.795778 38.048990
1706 3 -46.114257 -24.940963 30.590505
1707 3 -43.365236 -15.224369 35.514436
1708 2 -12.047258 -30.728740 48.393789
1709 3 -2.482885 -40.458680 63.284154
1710 3 -7.711351 -31.424982 50.812077
1711 2 14.211519 -14.899864 -34.096161
1712 3 14.604233 -21.335986 -11.208189
1713 3 12.299687 -22.150894 -16.833453
1714 2 64.568473 34.572166 86.466364
1715 3 54.453979 33.357556 92.079904
1716 3 54.347856 33.843008 84.501435
1717 2 -7.236643 55.584433 72.009656
1718 3 1.959833 57.867839 75.367237
1719 3 5.401868 72.913280 83.483989
1720 2 -70.377550 68.285852 10.505891
1721 3 -55.462769 62.173076 9.695670
1722 3 -56.105192 55.065952 26.219316
1723 2 64.779143 6.286478 16.943853
1724 3 77.319651 10.191670 7.504350
1725 3 75.602027 18.366792 19.724873
1726 2 11.536051 -48.226104 -6.779660
1727 3 27.371824 -49.993533 -24.581309
1728 3 23.369704 -35.725685 -21.974869
1729 2 23.086300 0.640444 -16.372882
1730 3 11.450943 -6.855270 -12.251745
1731 3 24.020501 -2.108990 -19.318070
1732 2 71.321510 30.886420 37.746089
1733 3 63.047170 38.129497 44.176961
1734 3 58.684829 24.916300 29.442264
1735 2 36.913215 10.340108 21.622615
1736 3 40.642573 12.755069 8.034879
1737 3 26.628701 15.136080 5.290606
1738 2 17.334691 -3.974866 -16.929460
1739 3 27.982690 -1.072016 -3.725308
1740 3 25.715592 8.998930 -14.895877
1741 2 9.361560 -39.857985 -63.391085
1742 3 6.361645 -38.336846 -68.676443
1743 3 9.190120 -32.277460 -74.865649
1744 2 32.865299 -17.406883 37.455684
1745 3 26.136609 -20.078561 14.716897
1746 3 30.458528 -7.285167 29.790093
1747 2 -4.603086 -10.231343 59.025617
1748 3 -9.181881 -12.744049 51.948140
1749 3 -6.356863 -9.569483 43.047340
1750 2 26.919621 22.771758 61.302158
1751 3 29.178021 29.327682 40.609821
1752 3 25.592693 28.144173 54.937764
1753 2 -24.605535 -5.935454 -13.306229
1754 3 -27.726560 -8.892925 -8.903269
1755 3 -20.686952 -0.438967 -21.080887
1756 2 -18.439295 29.788333 -4.878494
1757 3 -10.417928 9.035924 -5.761824
1758 3 -11.430114 19.756427 -13.339599
1759 2 19.097474 -13.883693 0.957597
1760 3 12.356198 -11.328167 -0.952251
1761 3 13.050095 -3.657260 -3.754923
1762 2 63.858468 23.051254 35.180134
1763 3 59.715117 22.005797 26.444456
1764 3 65.433771 14.346318 19.758108
1765 2 12.161978 -28.327060 109.798761
1766 3 11.652184 -26.559551 96.765036
1767 3 17.296839 -36.177666 86.617516
1768 2 15.488263 20.829379 11.215696
1769 3 15.913300 23.671230 9.575135
1770 3 22.600090 13.402662 5.595782
1771 2 33.600814 34.655667 15.820451
1772 3 28.442088 11.957901 32.651986
1773 3 28.286062 33.471831 21.398102
1774 2 4.805309 0.136532 -32.211456
1775 3 15.805806 8.929823 -42.624044
1776 3 10.148920 6.071502 -27.908210
1777 2 78.789392 50.867790 -32.015351
1778 3 80.027913 48.809902 -36.372112
1779 3 71.082082 65.021515 -29.653051
1780 2 0.294198 26.556237 -5.402140
1781 3 12.426564 27.026323 -13.779382
1782 3 10.662962 36.813986 -5.941599
1783 2 -70.607901 71.397477 -15.953246
1784 3 -77.806429 82.254644 -8.415786
1785 3 -70.588267 64.312049 -22.623110
1786 2 46.201864 -15.289542 40.101868
1787 3 43.157759 -10.857889 33.133604
1788 3 47.072129 -10.820929 17.202306
1789 2 -11.070852 45.733695 33.717418
1790 3 -5.389485 41.734284 30.256675
1791 3 -0.076368 47.488735 19.939239
1792 2 76.819448 0.299205 5.744325
1793 3 76.305946 7.429756 4.144787
1794 3 81.564937 -5.290557 -6.111164
1795 2 0.645016 65.203047 -27.090037
1796 3 3.676822 47.561284 -35.487679
1797 3 -2.252390 60.439560 -35.163842
1798 2 0.132070 15.189822 94.778565
1799 3 6.475348 22.330898 78.500709
1800 3 8.338226 32.192479 71.547500
1801 2 33.855825 82.901685 51.950947
1802 3 30.437823 66.364700 44.513415
1803 3 41.450664 68.762157 51.011194
1804 2 62.904617 -38.990246 36.147421
1805 3 74.134912 -39.699518 26.327730
1806 3 63.385371 -28.433501 31.654777
1807 2 -0.737970 19.172390 2.101704
1808 3 7.119457 20.004313 22.022417
1809 3 -4.425680 35.527696 -0.966394
1810 2 99.607651 1.660672 46.603222
1811 3 109.866435 1.244155 37.063622
1812 3 98.426447 -6.459196 56.584417
1813 2 -19.627502 -57.882040 61.248030
1814 3 -34.686046 -47.198317 52.064065
1815 3 -32.034319 -41.351532 62.874770
1816 2 11.165505 5.798287 20.890856
1817 3 23.074180 -8.306616 25.110815
1818 3 16.980992 -2.337959 16.748184
1819 2 -48.151749 9.816121 72.080824
1820 3 -54.748214 -0.801895 77.057364
1821 3 -45.301933 4.648234 55.367532
1822 2 7.646946 44.706298 79.012260
1823 3 9.263274 48.417801 51.726719
1824 3 -2.794507 53.215199 66.145615
1825 2 -55.565345 -41.345321 36.602399
1826 3 -45.367422 -33.480746 33.312707
1827 3 -54.161229 -34.952429 44.421375
1828 2 107.643333 -62.985966 34.758091
1829 3 109.417055 -55.594746 38.272075
1830 3 109.390562 -49.933089 23.043998
1831 2 -17.811055 23.420494 21.008565
1832 3 -10.637953 29.408349 16.039542
1833 3 -17.795365 18.561983 6.526304
1834 2 77.694606 23.566447 51.503331
1835 3 76.393757 37.290834 63.455626
1836 3 82.763821 26.213638 50.553353
1837 2 56.043212 20.160890 -11.821566
1838 3 47.910974 13.677243 -8.068647
1839 3 50.368399 7.228143 -9.736083
1840 2 -47.191326 -28.801171 98.559125
1841 3 -37.977478 -22.154170 108.935728
1842 3 -47.805160 -23.690019 114.763908
1843 2 62.184346 10.129516 23.953348
1844 3 66.846893 13.465390 21.159672
1845 3 65.317197 -0.007405 17.570534
1846 2 114.840821 18.552580 -0.490545
1847 3 112.612443 28.511430 22.109428
1848 3 114.032791 29.307055 6.043277
1849 2 -10.132219 18.509023 88.026526
1850 3 -11.456431 11.311829 85.677949
1851 3 -7.428268 18.530866 84.597887
1852 2 69.313509 49.591974 11.117851
1853 3 84.687835 29.486952 35.412230
1854 3 80.504526 42.256781 22.171531
1855 2 -38.109831 -60.795181 15.903903
1856 3 -31.868099 -71.066260 21.553419
1857 3 -47.128215 -65.623340 36.710025
1858 2 7.875558 80.457239 30.616029
1859 3 10.896127 84.187557 30.418923
1860 3 5.068070 94.144523 21.318006
1861 2 -101.356233 40.548597 45.000035
1862 3 -89.424595 42.519496 47.799528
1863 3 -95.443634 52.783796 40.395675
1864 2 6.084928 -20.100284 5.679430
1865 3 8.783972 -27.024402 30.062741
1866 3 8.658888 -17.361058 1.064402
1867 2 -15.836077 5.742290 1.710404
1868 3 -18.850551 7.877349 -0.565782
1869 3 -16.159297 15.887817 9.386506
1870 2 -19.203388 115.511917 34.346265
1871 3 -0.355297 104.797313 28.157755
1872 3 0.960152 123.514798 21.615172
1873 2 54.899129 23.498811 -6.659494
1874 3 51.209456 22.712289 -10.388356
1875 3 53.379896 17.895656 13.947576
1876 2 -49.189155 57.819938 66.546871
1877 3 -48.784188 44.413393 75.335145
1878 3 -44.890736 53.070279 76.899653
1879 2 -5.417771 66.785501 116.072264
1880 3 -2.927810 78.904726 113.389485
1881 3 -3.717781 41.742451 109.691824
1882 2 -13.585012 -18.831844 92.447098
1883 3 -18.077682 -10.617906 99.159350
1884 3 -19.059307 -23.393068 109.277593
1885 2 12.167026 39.247358 52.163589
1886 3 12.216598 38.452151 44.102126
1887 3 11.587725 42.206704 45.528064
1888 2 62.671488 9.248901 -20.470744
1889 3 68.925067 8.769941 -13.568605
1890 3 60.788165 3.398446 -16.549107
1891 2 20.035123 -7.312088 35.238919
1892 3 25.523844 -12.343891 36.813982
1893 3 14.666519 -14.662780 49.975824
1894 2 122.519216 -7.254293 -56.775473
1895 3 129.191733 -24.142932 -42.510414
1896 3 116.176680 -18.791686 -44.924979
1897 2 -75.417209 7.157463 70.667215
1898 3 -82.456355 8.905192 58.013595
1899 3 -75.947264 2.530245 49.907359
1900 2 -14.392126 -22.394782 -49.043699
1901 3 -11.435167 -12.807203 -54.978123
1902 3 -7.904175 6.719715 -48.780310
1903 2 -22.702055 0.961737 -1.461975
1904 3 -13.575327 8.750937 -6.161394
1905 3 -2.041451 4.985057 2.944604
1906 2 110.164845 -10.186952 53.783793
1907 3 105.870819 -4.244664 47.029782
1908 3 110.646456 -11.470302 44.949717
1909 2 55.032887 -37.967009 -26.452641
1910 3 53.800975 -33.087027 -35.081981
1911 3 56.180523 -49.352027 -41.096159
1912 2 20.078316 68.049745 5.402022
1913 3 19.447639 64.106381 -8.071560
1914 3 29.204013 67.636341 2.094241
1915 2 82.928023 45.323963 -6.743597
1916 3 84.323449 51.640058 -0.741839
1917 3 85.885185 53.855466 3.273140
1918 2 9.190310 -8.387396 40.135437
1919 3 0.216368 -10.026406 34.111375
1920 3 11.429151 -6.980935 38.814352
1921 2 93.783633 79.655642 70.963157
1922 3 101.240472 84.301589 62.046588
1923 3 100.701081 87.938963 88.425918
1924 2 8.400791 43.110612 62.652150
1925 3 3.298448 39.309615 49.991390
1926 3 1.158628 34.379728 66.405106
1927 2 -67.515304 12.369477 39.714993
1928 3 -56.538550 22.850818 27.707599
1929 3 -61.885758 22.224733 26.385059
1930 2 -28.853277 28.524234 28.798965
1931 3 -26.330998 25.391315 40.959004
1932 3 -33.918554 22.390392 33.758580
1933 2 -31.892392 9.721498 -36.393225
1934 3 -32.525201 22.086713 -32.795596
1935 3 -30.852062 30.912463 -22.803702
1936 2 -2.372484 38.461473 -34.714815
1937 3 -6.313511 47.700993 -33.219487
1938 3 -11.139478 47.747942 -30.626499
1939 2 64.003520 -27.199225 24.185010
1940 3 53.777828 -25.085826 -8.313730
1941 3 53.225595 -25.451485 -0.577278
1942 2 99.042624 47.525013 -23.731994
1943 3 96.880882 50.604817 -27.013785
1944 3 107.730114 49.741153 -20.729940
1945 2 39.381436 91.055894 99.505126
1946 3 32.886756 96.321837 90.948038
1947 3 17.478804 107.355145 79.910716
1948 2 -23.914598 63.400758 9.106251
1949 3 -23.915877 50.559497 24.731230
1950 3 -35.143826 57.029011 18.059477
1951 2 -2.671230 23.419403 89.108023
1952 3 -4.543525 24.051237 84.192074
1953 3 2.649504 20.691508 95.619895
1954 2 -21.659672 28.585587 45.359895
1955 3 -27.939920 27.446588 52.888984
1956 3 -19.159101 25.690785 38.463383
1957 2 103.141222 57.241008 57.192396
1958 3 96.170635 62.029472 59.595599
1959 3 100.087419 49.533757 68.110599
1960 2 -41.878141 68.242851 18.893773
1961 3 -25.763253 65.817946 33.475122
1962 3 -36.076851 60.029234 23.025610
1963 2 27.662364 59.694679 -24.350833
1964 3 36.130588 72.492239 -12.088846
1965 3 27.975729 59.917262 -13.747875
1966 2 47.837292 -26.521821 36.808311
1967 3 39.578697 -40.672661 44.740922
1968 3 49.846996 -41.684035 50.844715
1969 2 -41.548857 -12.087225 43.502297
1970 3 -67.082211 -0.651243 38.777261
1971 3 -59.828768 4.247634 38.566272
1972 2 30.971667 21.946929 47.916750
1973 3 30.808263 42.100713 27.631410
1974 3 24.402496 32.146920 36.361094
1975 2 5.052962 3.659753 107.119313
1976 3 6.937053 11.884256 97.163534
1977 3 8.849449 -1.092018 105.074050
1978 2 -53.355363 -39.584099 23.773079
1979 3 -61.184846 -47.146805 12.009669
1980 3 -54.942273 -40.616310 2.532045
1981 2 -5.552497 17.444426 114.373017
1982 3 -3.646698 17.102211 116.803727
1983 3 -6.135174 24.095330 113.484345
1984 2 9.119395 97.032265 42.922717
1985 3 7.129625 98.825017 39.014099
1986 3 6.682174 82.840845 34.949985
1987 2 13.445492 24.900707 31.173539
1988 3 16.122114 25.611281 55.469584
1989 3 16.194114 19.221713 44.597137
1990 2 11.017101 70.686506 70.177524
1991 3 15.693941 84.016516 57.087074
1992 3 5.281896 78.983347 54.985921
1993 2 48.481428 39.459362 57.337616
1994 3 51.094774 38.297776 52.555873
1995 3 60.284073 36.114941 29.560356
1996 2 25.236783 65.514070 46.805744
1997 3 21.346369 72.072802 54.588016
1998 3 29.531440 60.169163 54.314905
1999 2 121.408007 -0.567975 20.277667
2000 3 130.492231 2.352783 20.214029
2001 3 122.902195 0.373326 17.838744
2002 2 28.632232 18.251816 104.744152
2003 3 27.247896 33.251523 103.727157
2004 3 27.143048 35.306632 112.586439
2005 2 22.038564 31.135738 63.360549
2006 3 26.432884 27.626377 48.976022
2007 3 31.810507 20.220305 52.797574
2008 2 59.756040 33.116338 -5.598314
2009 3 51.407256 28.125909 -11.334621
2010 3 53.621093 32.650373 3.460001
2011 2 85.622302 1.695929 44.517280
2012 3 98.475551 3.674419 41.386401
2013 3 94.479023 0.877764 36.546623
2014 2 -19.760413 35.415969 55.877026
2015 3 -28.122030 34.207954 34.138417
2016 3 -32.559478 38.070920 58.169500
2017 2 15.157760 21.843524 32.709241
2018 3 22.384064 33.260596 39.388751
2019 3 23.780237 11.988173 44.240461
2020 2 -25.446451 -22.657170 37.094514
2021 3 -19.041140 1.187076 43.609682
2022 3 -24.777277 -9.515987 23.414329
2023 2 15.342391 73.815194 50.679019
2024 3 14.366493 65.031018 52.139920
2025 3 8.004941 67.758446 40.782179
2026 2 -27.437212 82.723008 40.943156
2027 3 -26.225175 82.093843 35.881018
2028 3 -24.798544 86.998259 52.234047
2029 2 10.035032 115.036882 89.721479
2030 3 19.047163 116.989674 93.437457
2031 3 5.827678 108.394244 84.645520
2032 2 -33.148375 25.428813 38.438164
2033 3 -41.198564 30.065253 47.737404
2034 3 -32.765101 27.959694 36.078746
2035 2 -14.911085 79.133333 35.811769
2036 3 -17.422114 78.776075 47.632536
2037 3 -17.144056 64.739833 51.847700
2038 2 -75.363139 51.633989 0.160106
2039 3 -85.812778 52.357046 7.733684
2040 3 -71.177093 43.888558 1.350136
2041 2 28.340468 65.281011 8.876631
2042 3 22.135733 71.107771 14.082909
2043 3 35.218981 68.647600 11.628959
2044 2 50.127100 22.709090 51.627696
2045 3 41.185016 11.143233 45.377170
2046 3 48.795383 23.023152 51.886304
2047 2 13.058117 90.566681 -1.326189
2048 3 13.416527 88.567835 4.337676
2049 3 21.251154 80.674934 11.197256
2050 2 92.018508 4.651104 -22.975700
2051 3 81.926624 5.879461 -7.821978
2052 3 85.334362 11.561127 -6.060080
2053 2 -29.995164 91.920113 41.909367
2054 3 -39.512024 70.156397 43.643979
2055 3 -30.695900 84.279961 32.671611
2056 2 -90.606797 15.270496 56.406221
2057 3 -85.861647 -0.647895 49.888284
2058 3 -86.460648 1.002926 35.693678
2059 2 -22.947941 75.864272 29.092020
2060 3 -25.236795 79.819662 10.097635
2061 3 -34.413229 74.407842 -4.386347
2062 2 -64.307288 22.708095 -5.974988
2063 3 -53.528618 27.139594 9.890942
2064 3 -60.581094 33.199820 0.017191
2065 2 8.840581 83.816109 -15.134755
2066 3 18.653230 83.576132 -26.661099
2067 3 11.414512 79.504101 -15.655232
2068 2 -30.613321 -18.394086 22.499976
2069 3 -36.317074 -0.924248 22.145980
2070 3 -20.320781 -21.970377 23.732346
2071 2 27.576290 82.641083 47.688486
2072 3 11.509664 100.073654 44.088243
2073 3 29.968486 78.441075 41.463440
2074 2 24.577476 72.388907 18.450956
2075 3 40.630533 74.060998 30.302061
2076 3 37.633936 74.794331 25.875224
2077 2 16.045125 103.680042 44.619967
2078 3 8.613175 102.556400 52.646009
2079 3 2.587821 92.841493 64.054735
2080 2 12.622731 87.203950 88.018389
2081 3 2.997561 80.855857 89.434725
2082 3 18.699470 86.189779 86.621059
2083 2 44.132962 94.385785 -36.352562
2084 3 60.946235 82.153706 -20.496005
2085 3 50.405953 89.879805 -26.576170
2086 2 -26.972475 62.997483 -32.091021
2087 3 -29.442107 56.624227 -14.395886
2088 3 -27.073147 61.402565 -28.322926
2089 2 7.963347 -30.410073 6.931814
2090 3 10.330396 -17.575609 8.775393
2091 3 11.218913 -12.602273 28.744138
2092 2 41.217303 64.404373 -13.413484
2093 3 34.742792 54.579475 -19.543928
2094 3 41.402568 65.534238 -14.142470
2095 2 60.139650 58.372085 65.370417
2096 3 47.531441 73.212097 57.200826
2097 3 52.054892 58.181682 62.087269
2098 2 -44.700768 18.760632 4.399976
2099 3 -40.904826 11.423619 -3.453334
2100 3 -40.368270 10.592627 -8.928832
2101 2 -5.294329 62.111472 12.536480
2102 3 -7.547489 73.930986 -0.817989
2103 3 -4.344366 54.717048 4.523121
2104 2 59.426716 76.861217 15.679236
2105 3 67.811113 74.927756 30.519569
2106 3 63.124162 60.284647 10.794435
2107 2 16.903949 8.372210 16.590420
2108 3 35.158630 33.043129 11.692435
2109 3 27.797673 8.177430 8.683417
2110 2 -111.115566 71.600409 -19.359051
2111 3 -104.651183 80.840801 -2.009366
2112 3 -107.855199 72.591322 -5.497782
2113 2 39.261382 59.928495 38.898941
2114 3 37.071099 58.384283 44.114823
2115 3 42.438990 50.150386 44.794783
2116 2 25.222479 29.661682 -10.496045
2117 3 42.688207 35.139463 -9.735534
2118 3 36.605273 29.027776 -10.027941
2119 2 11.684363 27.740097 54.078511
2120 3 18.197036 25.345033 57.595064
2121 3 14.066172 38.325393 62.781396
2122 2 93.668584 103.299935 -20.095298
2123 3 104.663850 109.580079 -4.146214
2124 3 109.566602 99.184112 -10.043962
2125 2 3.030181 130.692991 -12.500248
2126 3 11.396038 126.107448 -16.641470
2127 3 -6.959076 117.962330 -24.710729
2128 2 84.558557 44.458767 -0.910031
2129 3 85.874634 43.710077 -21.810215
2130 3 78.655178 46.271934 -32.360878
2131 2 85.573907 103.696516 39.547390
2132 3 89.594728 102.406941 43.173381
2133 3 88.813087 91.973511 53.699928
2134 2 -29.184512 -15.875607 35.174854
2135 3 -27.754221 -18.132310 36.780679
2136 3 -31.229365 -3.939193 26.037823
2137 2 -94.404724 103.173260 -5.729820
2138 3 -91.689165 107.110653 -9.123867
2139 3 -98.736761 98.190695 -10.356121
2140 2 29.192669 128.302695 11.892591
2141 3 31.632961 119.329043 13.978546
2142 3 33.262441 117.423665 -8.160841
2143 2 34.791937 102.067749 121.686063
2144 3 37.940459 100.896502 131.182703
2145 3 39.661751 101.744643 134.932757
2146 2 -19.476784 64.757447 -19.938320
2147 3 -15.295552 65.112224 -10.197028
2148 3 -14.020425 75.039010 -28.551247
2149 2 52.057561 35.423908 25.656873
2150 3 62.008504 36.424933 7.459655
2151 3 44.838505 37.192006 25.044383
2152 2 51.128000 92.585096 65.851707
2153 3 52.903173 118.126803 65.351199
2154 3 55.171948 110.399750 74.860977
2155 2 6.989391 115.870525 28.727789
2156 3 18.974495 118.377210 19.204357
2157 3 19.644206 111.216045 23.902105
2158 2 46.903783 145.292168 44.386017
2159 3 32.127477 153.594748 34.503894
2160 3 48.985109 157.341950 48.152761
2161 2 48.643152 126.865777 -21.053473
2162 3 44.767127 140.691382 -28.659748
2163 3 53.074960 126.845350 -18.809803
2164 2 50.171930 57.114307 74.779315
2165 3 49.721909 60.690252 66.660792
2166 3 55.108055 75.035965 41.644945
2167 2 99.156342 18.232397 -11.927112
2168 3 97.519090 -0.829248 -8.789683
2169 3 85.890072 8.306430 -22.667094
2170 2 -0.638650 37.483222 -22.838253
2171 3 -0.777921 28.349169 -21.093195
2172 3 7.631061 38.888202 -19.790157
2173 2 -4.318847 -33.694891 -11.474547
2174 3 -13.997898 -28.437101 -36.710309
2175 3 -10.229708 -32.854489 -19.469203
2176 2 -25.064471 -10.899368 58.880235
2177 3 -28.910900 -2.115494 59.218206
2178 3 -28.296992 -18.312120 77.671608
2179 2 -17.613323 59.049033 -2.771582
2180 3 -18.554449 54.866684 -2.176350
2181 3 -18.364679 45.087114 11.206707
2182 2 20.190253 15.216053 24.307203
2183 3 15.790648 9.794469 17.470555
2184 3 13.971713 16.816201 30.720202
2185 2 -71.855117 -26.910716 22.748069
2186 3 -52.930152 -34.028127 -5.629408
2187 3 -54.499943 -39.233515 16.466426
2188 2 4.531927 -16.507854 18.402027
2189 3 4.661096 -16.474496 17.951610
2190 3 7.941104 -38.855331 31.316872
2191 2 71.517966 -1.612323 0.525370
2192 3 70.469394 -10.299090 18.813400
2193 3 71.680948 -5.601327 15.957150
2194 2 106.837171 -4.191460 43.648751
2195 3 94.591163 -12.120502 31.833529
2196 3 95.677161 -19.634379 57.469673
2197 2 77.784395 -42.512231 35.642340
2198 3 76.483477 -43.555956 30.565945
2199 3 76.800825 -52.313517 37.749748
2200 2 9.465951 -36.864927 24.495299
2201 3 15.008016 -57.821079 -0.804949
2202 3 8.354092 -33.828323 21.938299
2203 2 32.668780 41.950480 23.914430
2204 3 42.104387 47.591564 20.925024
2205 3 25.360855 36.266818 11.097870
2206 2 113.547643 -27.403540 60.301235
2207 3 124.671430 -3.209319 77.674312
2208 3 110.021190 -2.123645 76.050611
2209 2 125.684235 6.287643 32.158026
2210 3 138.499054 7.339330 36.345562
2211 3 132.704912 6.151233 40.106777
2212 2 -55.635968 34.255323 37.126468
2213 3 -47.786543 36.530187 29.893239
2214 3 -47.496558 32.172752 60.203455
2215 2 2.171722 29.772242 -11.537523
2216 3 11.390557 34.824809 -21.898156
2217 3 11.520344 30.580651 -1.475101
2218 2 -53.103961 -46.139703 2.333614
2219 3 -44.451801 -53.051624 10.531065
2220 3 -50.316331 -42.653688 4.428618
2221 2 42.246929 3.389629 16.200206
2222 3 44.379814 5.872509 11.931072
2223 3 35.339718 3.438774 24.520864
2224 2 -19.782192 -9.818868 71.543593
2225 3 -25.120415 -1.637779 98.730744
2226 3 -23.965975 -14.436685 84.601130
2227 2 42.750643 -52.306059 51.341659
2228 3 53.406663 -49.159578 64.250503
2229 3 42.519770 -57.489671 44.583453
2230 2 22.448159 46.539406 51.094619
2231 3 31.462747 43.623821 26.889752
2232 3 31.148979 58.674586 44.301640
2233 2 -55.178022 -13.749318 73.301350
2234 3 -46.215896 -10.173871 91.634525
2235 3 -64.172211 -16.341911 89.054490
2236 2 53.393891 -7.536148 10.356433
2237 3 61.683243 -11.190325 9.260189
2238 3 67.505493 -1.051086 16.962556
2239 2 24.195378 -5.744988 30.821014
2240 3 31.770144 -29.834656 29.822397
2241 3 29.428922 -36.767904 29.066381
2242 2 71.669541 3.688276 -31.351195
2243 3 78.219570 3.754815 -24.275208
2244 3 83.987922 2.802062 -25.214918
2245 2 101.093870 -20.315797 43.615916
2246 3 98.121702 -20.948520 49.579379
2247 3 102.438154 -13.017882 55.001549
2248 2 -13.030785 -39.037307 -16.832687
2249 3 -5.197034 -13.403937 -29.102991
2250 3 -23.225694 -30.421222 -19.663717
2251 2 -56.700194 -17.927615 17.753617
2252 3 -47.655675 -26.554419 18.526642
2253 3 -59.492920 -19.357296 20.410914
2254 2 11.620803 46.525207 25.305108
2255 3 3.401883 39.120214 14.266723
2256 3 14.205618 48.501234 11.291477
2257 2 -38.478556 54.433089 20.161745
2258 3 -35.690803 50.200480 16.480706
2259 3 -23.753940 59.315800 29.115284
2260 2 23.568564 25.106620 38.216564
2261 3 21.589169 33.676707 30.160953
2262 3 24.281225 23.360258 39.136290
2263 2 -12.323979 52.615854 47.275712
2264 3 -3.540261 51.526727 37.502312
2265 3 -16.137549 46.055245 33.335248
2266 2 -16.695240 41.410956 -19.109990
2267 3 -15.097755 37.828199 -6.988082
2268 3 -17.610023 38.018584 -11.760851
2269 2 25.937522 29.358469 53.854154
2270 3 26.727629 34.016971 42.878191
2271 3 22.323459 16.922926 64.833481
2272 2 37.678003 36.680681 8.296752
2273 3 39.786271 38.500246 23.080419
2274 3 33.286523 37.638537 17.875636
2275 2 14.706471 16.806229 26.368102
2276 3 15.257014 15.495665 30.151739
2277 3 3.495371 -4.258975 34.038442
2278 2 -19.767417 36.461547 -31.913437
2279 3 -20.487029 41.243874 -32.531911
2280 3 -18.821134 28.960012 -38.711172
2281 2 23.998809 -8.466169 -0.894038
2282 3 17.690043 -3.307377 6.032291
2283 3 18.929641 -17.261990 -13.819673
2284 2 34.742745 50.398715 -11.047779
2285 3 35.608531 47.888382 -20.587922
2286 3 41.862773 51.554165 -15.295610
2287 2 95.754045 66.553168 -6.014410
2288 3 105.048166 56.646034 -11.885843
2289 3 93.302158 60.197713 5.387210
2290 2 -75.576043 95.634756 -45.872909
2291 3 -60.839145 97.919587 -47.133410
2292 3 -64.024901 92.666112 -63.224761
2293 2 19.157307 -25.325966 68.902395
2294 3 16.178721 -30.177649 53.420322
2295 3 8.567540 -22.335428 61.445735
2296 2 -18.945482 -8.921903 82.322541
2297 3 -10.631424 -15.934698 75.094092
2298 3 -19.537196 -7.805809 69.548325
2299 2 -86.183850 -54.636891 49.391165
2300 3 -85.520068 -53.964132 61.965327
2301 3 -72.066623 -59.121395 56.011055
2302 2 16.613202 -5.336464 -32.341919
2303 3 11.138762 0.077363 -22.981226
2304 3 15.996191 -0.513772 -34.312461
2305 2 6.148733 37.854786 91.607641
2306 3 5.952165 48.354511 96.826065
2307 3 15.845755 46.666088 106.536229
2308 2 52.891827 104.150044 23.188311
2309 3 60.999692 118.615134 43.817942
2310 3 61.461145 93.702869 41.637582
2311 2 15.712984 9.371502 9.241042
2312 3 20.204465 11.783934 7.578323
2313 3 24.023908 11.272302 24.614936
2314 2 37.817060 -48.610445 60.162713
2315 3 25.221672 -52.173752 58.039925
2316 3 34.045945 -50.642429 58.315922
2317 2 41.155050 32.019321 -79.865032
2318 3 54.936831 31.733378 -72.407003
2319 3 47.192996 26.128577 -85.530449
2320 2 3.158988 2.236993 -51.050254
2321 3 9.116003 -4.655352 -45.731638
2322 3 10.795958 10.193649 -45.625282
2323 2 18.593021 36.320993 48.712865
2324 3 14.784931 27.777978 40.066898
2325 3 15.726470 32.973640 41.315346
2326 2 58.352732 60.230338 6.701253
2327 3 63.321312 58.238018 13.109350
2328 3 65.339835 65.575035 18.022163
2329 2 -54.057366 112.846682 -29.253866
2330 3 -65.676444 101.985365 -17.438545
2331 3 -58.601665 114.901366 -21.851072
2332 2 0.788608 66.258448 79.225590
2333 3 -7.009779 71.452745 93.154034
2334 3 -12.520284 58.047979 74.730616
2335 2 37.497312 -69.618189 10.547882
2336 3 32.752301 -56.106803 17.714812
2337 3 25.394507 -59.267037 17.285806
2338 2 78.127372 89.938273 45.581693
2339 3 90.740885 74.788816 48.969707
2340 3 86.987421 75.590196 30.861747
2341 2 37.806484 49.569894 66.113223
2342 3 40.122386 35.905580 60.513997
2343 3 27.836861 48.393440 65.987991
2344 2 -11.206493 74.576374 13.061627
2345 3 -14.013797 82.073405 25.166646
2346 3 -9.606972 61.984129 38.319933
2347 2 -13.607185 79.297574 -21.583831
2348 3 -23.318746 69.099795 -25.228346
2349 3 -25.657553 66.662700 -21.456703
2350 2 39.646644 14.897651 17.085857
2351 3 46.329651 5.582159 22.783467
2352 3 41.458709 6.325137 23.387153
2353 2 13.755036 126.222141 60.672133
2354 3 6.390503 111.756535 65.467897
2355 3 9.012953 127.587851 62.056464
2356 2 -3.121920 -21.177922 85.621861
2357 3 -5.635841 -34.166022 90.715634
2358 3 -3.474637 -30.363807 83.421677
2359 2 -35.695499 11.362449 40.687838
2360 3 -32.495615 -0.095915 56.218572
2361 3 -37.122231 5.323419 33.852042
2362 2 -11.022414 41.081279 27.809742
2363 3 -13.074135 31.217984 22.508359
2364 3 -20.180262 44.203445 19.765299
2365 2 43.016384 9.160024 -15.994220
2366 3 31.861353 14.676015 -19.960706
2367 3 35.117330 -1.318506 -11.648127
2368 2 73.043799 45.979566 86.322713
2369 3 54.673588 48.346152 101.790760
2370 3 68.852540 59.353461 98.766190
2371 2 -38.749062 7.348878 65.341351
2372 3 -35.599659 8.082390 80.874389
2373 3 -36.208841 7.080162 77.160773
2374 2 -25.032087 20.104286 24.248118
2375 3 -13.177571 4.764914 37.574205
2376 3 -16.488735 6.798324 41.550225
2377 2 60.673735 101.273683 123.885333
2378 3 69.474521 87.513714 108.028143
2379 3 57.724791 101.305558 111.034252
2380 2 58.591106 63.754934 -23.907447
2381 3 61.129974 61.332397 -16.884730
2382 3 55.079695 68.123193 -26.450726
2383 2 26.921328 52.790566 2.061810
2384 3 30.068623 57.071511 18.899215
2385 3 22.614887 55.001463 22.915945
2386 2 -60.264369 6.927449 146.287394
2387 3 -62.263233 25.368212 131.600607
2388 3 -56.570176 17.178511 136.765549
2389 2 -75.209987 -0.507052 69.919122
2390 3 -59.493925 -3.458361 49.076210
2391 3 -66.178113 14.552015 68.178967
2392 2 -71.454199 42.599881 56.319016
2393 3 -62.808651 42.450005 41.915638
2394 3 -66.420512 27.761376 33.430153
2395 2 31.759379 55.149324 37.201309
2396 3 27.558093 48.267217 35.998543
2397 3 16.963338 44.182199 16.994177
2398 2 -5.757073 35.364734 15.191229
2399 3 2.843651 24.352979 17.467550
2400 3 -1.800893 21.643882 23.273518
2401 2 25.533102 94.720461 3.022061
2402 3 28.312792 96.627056 3.679423
2403 3 32.835211 95.193717 19.175454
2404 2 -3.258009 73.480305 28.821162
2405 3 5.095689 88.440339 18.982295
2406 3 6.746780 76.918955 11.767035
2407 2 100.925885 106.126989 19.197804
2408 3 103.555815 114.076389 16.378754
2409 3 92.038807 93.421179 2.364483
2410 2 94.305171 2.050670 14.107564
2411 3 95.633099 -12.726225 23.262034
2412 3 104.642133 -11.871180 22.856520
2413 2 45.112310 44.743066 -4.690616
2414 3 52.210984 51.833361 10.306091
2415 3 41.175867 42.965989 4.923322
2416 2 -46.491794 89.793764 -0.913699
2417 3 -50.871911 73.294698 22.879143
2418 3 -55.153920 80.306899 26.730095
2419 2 -13.288993 85.256380 67.180872
2420 3 -9.614940 86.191846 58.375874
2421 3 -8.258239 81.059549 51.103376
2422 2 40.073516 57.637555 69.034292
2423 3 55.047785 62.774307 63.318424
2424 3 45.518753 69.753826 64.139954
2425 2 -18.742903 127.783796 1.442342
2426 3 -19.047996 126.392809 -22.157370
2427 3 -14.265079 121.341779 -6.867671
2428 2 -28.962786 11.819051 78.098300
2429 3 -33.712546 18.370848 89.331889
2430 3 -38.575882 15.634607 81.432180
2431 2 -25.065891 13.046591 76.366896
2432 3 -25.701991 -3.918564 74.172747
2433 3 -7.642364 13.799661 77.488904
2434 2 17.982984 111.781857 -18.621241
2435 3 28.035008 124.484299 -16.698481
2436 3 11.765846 131.533598 -18.018141
2437 2 36.697791 53.261424 82.578770
2438 3 29.217621 47.032700 83.522018
2439 3 38.723556 60.254950 78.105934
2440 2 88.917555 56.120152 68.854061
2441 3 95.110051 52.973135 51.719048
2442 3 90.935098 54.817742 80.722892
2443 2 118.950955 32.237820 -60.255049
2444 3 111.030932 24.637641 -64.262744
2445 3 113.056709 31.510447 -60.869196
2446 2 89.428049 34.708671 49.441173
2447 3 95.058421 29.920458 45.023921
2448 3 83.148944 26.174124 49.346177
2449 2 -6.170219 -7.702950 -33.061282
2450 3 1.891906 -5.511930 -35.699062
2451 3 -0.106235 -11.351494 -26.603917
2452 2 37.082415 76.430840 67.980731
2453 3 25.930910 82.319813 64.873945
2454 3 36.973037 89.812579 76.969124
2455 2 104.637931 33.656609 65.569086
2456 3 96.303524 45.167682 60.186428
2457 3 106.312139 25.705052 60.366111
2458 2 73.292890 45.430450 86.131917
2459 3 75.226548 39.421105 92.844285
2460 3 68.582623 34.000543 110.158718
2461 2 116.742015 69.770505 108.600829
2462 3 125.105435 81.269748 99.032652
2463 3 106.132728 76.155780 91.633755
2464 2 -22.157210 105.469563 31.212968
2465 3 -12.995914 107.060266 26.665782
2466 3 -26.355599 91.443931 44.682177
2467 2 -75.118762 42.441331 37.487077
2468 3 -60.506804 58.579453 35.325194
2469 3 -60.220676 47.585682 32.177375
2470 2 -4.290738 65.882051 6.512181
2471 3 -11.646910 72.626196 4.786032
2472 3 -8.691643 76.897255 7.583463
2473 2 30.303978 69.348598 17.470226
2474 3 31.675884 63.364431 11.639662
2475 3 30.488101 84.263654 0.050766
2476 2 -2.958344 -36.433133 -23.050595
2477 3 -5.176730 -17.396890 -43.549754
2478 3 2.717170 -27.585422 -30.792158
2479 2 7.699395 58.746806 28.370524
2480 3 7.039683 72.324194 13.376459
2481 3 -4.078462 55.634330 12.058692
2482 2 34.665483 31.722798 3.902305
2483 3 36.964600 23.225063 -12.385986
2484 3 41.452602 42.473977 -11.455493
2485 2 60.174222 155.319188 -44.298215
2486 3 52.604279 141.246589 -53.301189
2487 3 46.489274 151.777274 -58.961730
2488 2 -8.294752 49.241208 11.764249
2489 3 -22.136347 64.249180 4.529376
2490 3 -1.987534 70.428258 5.894065
2491 2 51.848326 69.189660 -22.927176
2492 3 60.213157 77.208361 -22.798402
2493 3 52.397069 68.593469 -12.329053
2494 2 17.474947 104.749929 54.350743
2495 3 16.159401 105.171088 51.138033
2496 3 4.216119 112.211249 50.437004
2497 2 25.585447 41.754873 9.863910
2498 3 31.492053 39.011438 13.599274
2499 3 32.165637 38.027362 9.669138
2500 2 -30.983953 20.542094 64.793759
2501 3 -20.859812 21.688554 76.347310
2502 3 -30.809528 17.643675 96.079495
2503 2 -7.502477 36.086041 25.795127
2504 3 -3.671471 40.475149 19.071677
2505 3 -6.135134 47.664755 31.418869
2506 2 13.630241 58.467112 73.027231
2507 3 22.641829 84.120225 91.161728
2508 3 19.358788 70.918588 71.704676
2509 2 -35.912329 85.067680 11.547131
2510 3 -42.115166 81.147145 0.913632
2511 3 -47.966804 78.581578 -7.327688
2512 2 -25.409587 95.071665 48.663157
2513 3 -27.948659 128.538134 56.569817
2514 3 -21.359158 105.959019 50.314918
2515 2 -2.693860 62.566959 -2.100250
2516 3 3.923543 64.668909 -1.753026
2517 3 -5.957488 59.314207 -7.756105
2518 2 36.013586 35.606357 45.523010
2519 3 43.719468 40.325113 55.766161
2520 3 44.244384 47.562584 59.963158
2521 2 -39.993389 123.629279 90.544425
2522 3 -28.065812 129.895899 81.758241
2523 3 -34.227132 131.867294 78.785295
2524 2 37.978710 85.149410 42.022603
2525 3 47.391982 82.466527 45.460256
2526 3 40.197679 75.313272 40.078223
2527 2 8.557116 119.676028 35.286649
2528 3 19.499359 118.364157 21.059689
2529 3 26.041153 132.521884 34.608847
2530 2 98.199197 99.296540 48.954694
2531 3 96.259271 96.701496 34.669123
2532 3 106.625493 97.861712 44.340582
2533 2 67.974088 34.932481 -7.130859
2534 3 69.409787 33.404778 -7.969259
2535 3 61.579842 34.467822 -2.216012
2536 2 66.584115 132.263389 4.930132
2537 3 67.365205 126.576789 16.725958
2538 3 76.941060 128.588589 18.553433
2539 2 13.386111 95.854093 67.169289
2540 3 21.765475 109.174840 65.414512
2541 3 18.938310 88.311194 62.599867
2542 2 -11.672805 -15.668338 19.461449
2543 3 -10.286884 -15.175088 2.379529
2544 3 -1.615496 -20.128720 22.647505
2545 2 -0.718420 21.138648 8.342117
2546 3 -0.421424 19.829656 9.198613
2547 3 -6.851606 21.041727 10.155329
2548 2 -11.631753 -53.319364 97.906100
2549 3 -13.914854 -48.607458 97.712772
2550 3 -10.965848 -54.490147 91.149919
2551 2 -10.193321 24.782979 10.764004
2552 3 -6.881027 19.558878 10.712214
2553 3 -8.089221 22.313430 18.243970
2554 2 28.052009 -3.493070 14.905572
2555 3 18.183120 -12.510940 -11.857648
2556 3 21.566738 -27.663769 7.742593
2557 2 -48.031333 -47.511251 49.742545
2558 3 -52.888913 -39.338439 70.634656
2559 3 -57.173627 -31.259658 71.778940
2560 2 114.895883 12.762656 28.917743
2561 3 112.029138 11.849030 23.198423
2562 3 102.586339 15.884860 26.313876
2563 2 63.685374 -31.334118 -20.395867
2564 3 61.051223 -21.771433 5.474734
2565 3 46.786365 -24.795325 -22.011897
2566 2 24.316885 12.339769 42.240746
2567 3 17.386734 25.705765 41.451478
2568 3 25.920906 12.539617 48.364082
2569 2 72.210324 3.632668 108.391467
2570 3 68.209658 -3.116447 101.248805
2571 3 64.797412 -5.094002 99.155559
2572 2 57.838934 53.373141 28.743849
2573 3 67.801712 56.846658 16.591583
2574 3 70.517640 39.717533 20.697230
2575 2 87.565882 95.763202 31.119357
2576 3 86.456781 80.388192 28.828803
2577 3 88.216421 98.920067 32.361981
2578 2 87.252140 -23.714247 41.598476
2579 3 92.185760 -31.215688 31.089787
2580 3 98.771194 -35.885550 16.257934
2581 2 26.650302 43.672194 101.146859
2582 3 26.885519 46.037787 109.054216
2583 3 18.873513 51.528937 100.667705
2584 2 0.511049 -9.668410 -16.572137
2585 3 -7.729713 1.370483 -3.841902
2586 3 3.326756 -27.273532 -11.704515
2587 2 -81.685702 16.076540 106.330502
2588 3 -83.335679 4.450226 113.635354
2589 3 -79.819567 9.788680 110.855888
2590 2 2.284410 1.108865 14.741546
2591 3 -4.451157 1.589710 14.915301
2592 3 6.713914 4.694359 25.099550
2593 2 -75.305654 29.966377 23.349837
2594 3 -80.197104 20.776665 18.386449
2595 3 -76.376659 27.054474 15.554181
2596 2 5.291825 -0.200218 67.807216
2597 3 5.838783 -5.198995 65.999178
2598 3 4.970842 -12.053440 80.481847
2599 2 9.949659 34.187797 63.448361
2600 3 -10.471934 50.868988 44.702529
2601 3 -3.646995 54.028366 53.239684
2602 2 12.304033 -7.204193 -11.444812
2603 3 12.663197 -9.849143 0.248672
2604 3 11.289621 -12.481558 -6.743181
2605 2 45.402281 -22.631634 66.281106
2606 3 43.062922 -20.086315 84.556791
2607 3 57.209379 -15.816576 65.182145
2608 2 24.513274 18.959303 89.768973
2609 3 24.097528 31.023040 90.903888
2610 3 29.919639 17.368148 79.975615
2611 2 2.806432 33.974561 30.896213
2612 3 -10.962566 17.163436 20.494659
2613 3 3.275055 19.795022 22.255268
2614 2 45.369064 77.447775 22.633740
2615 3 36.825228 53.957647 21.679931
2616 3 39.569600 56.819697 0.771158
2617 2 24.111197 18.336646 12.098042
2618 3 24.206037 1.041419 0.790659
2619 3 20.097482 4.969301 -12.700424
2620 2 -50.592667 13.987630 54.052534
2621 3 -47.761572 3.488307 52.319728
2622 3 -45.686070 -10.269873 56.611280
2623 2 -33.915319 4.443914 48.646151
2624 3 -37.744724 -0.321805 62.201375
2625 3 -36.056015 -15.606825 42.344655
2626 2 -19.717053 -59.232219 16.304999
2627 3 -30.688831 -55.229197 29.513818
2628 3 -18.907576 -58.932846 15.311574
2629 2 -1.634161 46.974977 -6.269051
2630 3 -6.039948 50.488565 5.942632
2631 3 -1.199442 60.580272 16.828418
2632 2 92.854497 55.346912 15.633034
2633 3 89.020821 56.972979 12.233020
2634 3 91.273115 60.502829 22.378916
2635 2 51.397661 -20.296431 41.267932
2636 3 55.227190 -15.480721 35.808957
2637 3 57.022175 -8.072760 42.309442
2638 2 -16.245650 -25.883777 135.637512
2639 3 -9.718012 -15.068597 127.782936
2640 3 -12.788445 -13.482300 136.552865
2641 2 9.538325 24.976993 37.071874
2642 3 8.549073 6.459398 60.639759
2643 3 6.887835 25.802451 54.510035
2644 2 48.619666 40.858749 96.984081
2645 3 50.188276 33.904311 101.388918
2646 3 49.553067 46.968657 106.125494
2647 2 52.744949 30.730357 40.256575
2648 3 47.196320 24.523557 24.841698
2649 3 54.539451 36.423004 40.847076
2650 2 -72.792973 37.568736 15.419846
2651 3 -68.112216 33.052640 26.776445
2652 3 -62.976236 39.731297 19.069587
2653 2 64.629291 30.803436 56.105255
2654 3 61.252403 29.966016 75.683915
2655 3 53.569352 33.636915 53.500068
2656 2 35.507124 -3.425221 74.049328
2657 3 35.616961 19.196778 63.891553
2658 3 31.351761 15.650456 54.339375
2659 2 -13.477635 -16.708737 -15.844104
2660 3 -10.122427 -31.137606 -15.444716
2661 3 -18.416235 -12.864029 -19.895433
2662 2 39.524339 5.463691 4.051007
2663 3 37.632200 6.061099 16.565781
2664 3 41.076276 15.026572 21.938587
2665 2 -44.314499 -65.300408 81.978905
2666 3 -43.380217 -54.158040 80.473364
2667 3 -36.568814 -44.156191 73.930383
2668 2 13.198031 52.274939 68.532378
2669 3 9.323390 48.790678 62.566350
2670 3 3.576304 42.253763 51.091839
2671 2 26.676075 -8.762659 20.054879
2672 3 24.879769 -4.220976 8.388329
2673 3 27.091080 -14.769582 18.373438
2674 2 14.804743 20.692381 -38.443318
2675 3 12.944784 12.977088 -20.953838
2676 3 13.641556 24.928622 -6.388929
2677 2 108.524907 10.602876 8.579098
2678 3 97.653465 31.299646 14.018634
2679 3 96.348326 33.579611 12.578280
2680 2 112.546128 33.714896 72.094243
2681 3 97.090040 35.762640 76.645079
2682 3 111.240823 23.401375 80.463949
2683 2 45.404555 10.975685 11.002554
2684 3 42.705817 3.402679 29.827579
2685 3 41.277682 2.634891 17.049229
2686 2 26.390418 -10.195322 77.985952
2687 3 21.116038 -18.067525 76.833167
2688 3 30.524579 -4.865586 70.442809
2689 2 84.638942 27.311197 -10.286999
2690 3 91.552193 33.685614 -21.964988
2691 3 82.320160 30.298122 -21.081349
2692 2 76.534103 -30.293502 34.917851
2693 3 64.161559 -24.315679 18.041421
2694 3 71.396958 -28.418905 30.845265
2695 2 -53.385498 -16.606534 69.958553
2696 3 -56.978008 -18.712749 64.173832
2697 3 -56.190556 -17.905732 63.867939
2698 2 93.686135 24.829376 5.037804
2699 3 86.155949 27.087210 16.522540
2700 3 90.567255 18.372610 27.675236
2701 2 23.843615 62.700684 66.536842
2702 3 26.879616 74.322580 64.764697
2703 3 23.093954 76.308830 45.401448
2704 2 35.463517 59.313265 102.094484
2705 3 25.106692 69.292718 85.365876
2706 3 25.746404 63.967129 81.660161
2707 2 2.608036 -4.943280 35.952505
2708 3 -15.504303 -4.859599 53.216617
2709 3 -2.714249 12.004423 56.994003
2710 2 28.255622 9.222024 88.309723
2711 3 16.687392 20.870543 68.071518
2712 3 17.936849 15.577813 79.472866
2713 2 -86.109308 9.661895 31.038367
2714 3 -87.279813 3.093420 29.380823
2715 3 -84.245496 7.048626 35.379059
2716 2 16.650483 22.020506 75.118116
2717 3 19.223785 19.155401 57.273247
2718 3 11.874671 22.953022 78.808327
2719 2 8.975868 31.226365 7.426094
2720 3 -3.922317 30.982037 0.987666
2721 3 13.942090 22.990926 16.192033
2722 2 -79.198904 88.846712 -15.732436
2723 3 -79.718667 94.458484 -7.606821
2724 3 -63.153792 77.948969 0.351734
2725 2 -30.927821 102.745184 2.007681
2726 3 -36.687037 101.673130 6.864681
2727 3 -26.545067 99.811745 8.567413
2728 2 -34.020218 52.604557 76.614731
2729 3 -30.654897 41.545546 76.860277
2730 3 -19.682626 43.731869 57.793927
2731 2 -15.653880 104.472231 2.377796
2732 3 -17.563397 109.369949 -2.457914
2733 3 -7.351165 109.554278 -13.388413
2734 2 -40.259075 97.838845 -33.724889
2735 3 -29.186771 93.581349 -41.268881
2736 3 -39.730765 95.896764 -30.543605
2737 2 59.005856 58.095842 84.721108
2738 3 71.283807 59.250045 98.358804
2739 3 65.887829 65.781832 100.638330
2740 2 -65.648946 -35.186819 61.017448
2741 3 -58.692292 -24.907153 72.244486
2742 3 -72.108540 -32.238465 73.783415
2743 2 52.196862 -16.250407 -29.391687
2744 3 55.359953 3.761794 -23.703122
2745 3 45.997322 -14.981484 -44.412242
2746 2 80.219261 56.355507 86.833267
2747 3 84.197801 63.853241 86.781538
2748 3 75.665570 59.882794 105.576786
2749 2 -49.641259 38.136033 60.673309
2750 3 -47.676215 40.318123 53.654338
2751 3 -50.220516 33.737150 51.352463
2752 2 30.032216 85.324526 27.802156
2753 3 28.474061 69.028065 29.040224
2754 3 28.546404 79.841454 27.038230
2755 2 57.305074 55.241842 57.698405
2756 3 40.416701 57.325137 60.089248
2757 3 51.448459 68.519789 58.774525
2758 2 -12.254224 40.265990 60.298915
2759 3 -4.420494 32.281273 72.294684
2760 3 -4.846923 35.013267 51.455340
2761 2 -10.590991 28.504315 78.341687
2762 3 -1.588985 23.639615 63.843251
2763 3 -6.135474 28.236629 68.609206
2764 2 39.971884 70.941269 56.131741
2765 3 35.141993 60.086163 57.788860
2766 3 43.524271 69.600833 77.736213
2767 2 4.519103 109.168157 -11.316049
2768 3 -4.115791 98.801025 -13.329436
2769 3 13.567491 105.340380 -6.076940
2770 2 15.145562 43.273720 42.904261
2771 3 9.188757 30.772906 37.827372
2772 3 19.293535 41.266466 27.857351
2773 2 17.639598 67.055187 52.513436
2774 3 1.375054 49.872062 63.658461
2775 3 9.696941 51.987852 50.294845
2776 2 6.805181 42.940106 34.669446
2777 3 -4.255653 48.957537 50.634626
2778 3 1.905508 51.033329 47.911839
2779 2 28.833590 57.086631 18.789601
2780 3 26.066327 72.534032 -19.223671
2781 3 24.718116 48.373203 -10.496659
2782 2 -40.217589 64.869651 64.747390
2783 3 -51.877894 55.921421 65.972852
2784 3 -40.857399 61.894701 56.252948
2785 2 106.202433 6.709874 62.137394
2786 3 115.500320 1.369697 62.812270
2787 3 112.010385 11.460607 68.765552
2788 2 17.423700 68.937607 45.003922
2789 3 13.785039 75.768960 33.811858
2790 3 19.224960 77.998223 34.440595
2791 2 -38.381976 52.888174 46.120578
2792 3 -28.398418 41.593012 44.205811
2793 3 -43.526954 38.041308 43.593666
2794 2 -54.468914 19.162716 55.017074
2795 3 -62.928932 21.487628 66.695024
2796 3 -46.312624 27.543710 43.234394
2797 2 46.252141 -10.081127 51.071367
2798 3 43.616054 -23.289979 33.315390
2799 3 41.960068 -7.385071 36.516846
2800 2 -21.206675 87.938476 -56.971251
2801 3 -27.497236 81.886643 -57.747017
2802 3 -14.068625 84.058541 -58.185826
2803 2 -7.171132 50.186319 1.775663
2804 3 1.223438 43.324970 9.069581
2805 3 -5.063880 59.254337 -5.088560
2806 2 81.920998 34.920997 20.812314
2807 3 87.436438 27.968296 25.044060
2808 3 75.544876 40.311918 35.414996
2809 2 131.931030 32.486770 27.809405
2810 3 141.286850 34.870994 24.669113
2811 3 131.953880 39.738448 26.462720
2812 2 25.617654 29.969637 93.686030
2813 3 23.478463 19.387774 85.243121
2814 3 27.948582 24.647509 69.589505
2815 2 59.237204 70.676266 37.030455
2816 3 53.916209 67.626496 40.507880
2817 3 57.017519 60.608031 45.635035
2818 2 -2.213621 77.525891 65.947107
2819 3 -14.188462 65.210961 56.425504
2820 3 -4.741234 67.796985 46.076170
2821 2 81.591769 55.552918 102.049416
2822 3 72.541655 59.030526 105.636394
2823 3 61.272678 53.952819 105.091376
2824 2 60.942235 25.894044 2.849003
2825 3 57.408291 36.754049 5.110751
2826 3 54.893755 17.604732 -4.394355
2827 2 38.749096 81.090839 27.671270
2828 3 43.033808 78.657899 35.122445
2829 3 48.197509 88.420726 18.536870
2830 2 22.948700 72.232326 133.700994
2831 3 25.793065 69.710045 115.753603
2832 3 31.160106 66.482879 124.603086
2833 2 -34.776827 98.628867 57.296725
2834 3 -25.477622 108.074346 60.656707
2835 3 -43.156602 106.255967 74.710052
2836 2 40.899003 30.600704 65.224136
2837 3 46.554184 11.649689 61.798966
2838 3 43.881999 12.323589 70.077544
2839 2 3.160004 113.053665 27.284359
2840 3 15.286241 107.571989 41.397396
2841 3 16.547928 109.254381 46.694577
2842 2 -2.534686 85.466039 59.763519
2843 3 -7.703919 95.039850 57.034599
2844 3 3.647271 79.749483 57.836491
2845 2 47.642111 82.278917 3.356540
2846 3 42.388156 84.486230 11.684203
2847 3 45.897994 68.825832 0.222542
2848 2 24.527825 53.651490 -29.156450
2849 3 36.365601 57.590239 -48.916954
2850 3 40.742080 56.879317 -38.602219
2851 2 -2.087529 79.272821 95.488934
2852 3 -5.903184 87.716281 86.807647
2853 3 8.624749 78.866285 94.709002
2854 2 59.585331 15.091046 17.792271
2855 3 60.302675 19.964522 36.157830
2856 3 67.817978 11.921759 24.610382
2857 2 19.556290 79.217812 10.428485
2858 3 19.572667 88.130134 7.026225
2859 3 13.882192 77.360484 4.786718
2860 2 38.072204 77.060777 26.998147
2861 3 38.022406 79.999761 8.970821
2862 3 43.284822 79.769819 25.560834
2863 2 100.002690 47.888304 94.916538
2864 3 96.674529 40.444794 81.211516
2865 3 100.228492 31.030360 88.783979
2866 2 -2.855286 -31.353153 54.748839
2867 3 -6.600626 -36.714260 45.949681
2868 3 -12.441338 -43.818823 38.523679
2869 2 38.585036 37.927994 10.347472
2870 3 51.453824 47.496237 27.091867
2871 3 50.896916 42.215840 9.689205
2872 2 102.194665 -21.789640 32.442783
2873 3 103.688514 -23.504550 24.627805
2874 3 108.643998 -17.471099 22.210375
2875 2 -12.273861 22.395069 83.531576
2876 3 -21.621424 15.804497 79.312359
2877 3 -18.034769 18.313452 72.571091
2878 2 10.590270 40.847059 -38.584672
2879 3 7.642411 39.347527 -58.215589
2880 3 7.701629 29.324307 -49.044202
2881 2 44.021818 10.385752 14.478325
2882 3 32.771080 9.302606 13.990473
2883 3 26.607508 -0.441801 1.086136
2884 2 7.423326 -47.737780 64.239072
2885 3 13.271848 -44.193677 42.198157
2886 3 4.615724 -46.196355 49.070591
2887 2 46.948021 22.284102 75.082357
2888 3 52.866767 7.416157 61.966115
2889 3 64.036058 16.483799 66.774824
2890 2 66.233586 -83.407045 6.732535
2891 3 56.917556 -79.967836 15.052023
2892 3 50.759876 -73.282908 -2.235967
2893 2 92.647669 -22.458833 30.475937
2894 3 95.827540 -26.153011 39.690718
2895 3 82.309745 -32.252939 27.120724
2896 2 114.268559 2.099901 29.162985
2897 3 104.625938 3.981666 22.721708
2898 3 105.293498 -6.679788 26.674464
2899 2 13.033464 -48.353683 17.437096
2900 3 22.356870 -45.101205 33.049936
2901 3 15.376895 -60.930773 29.276303
2902 2 62.169072 -24.838927 41.947142
2903 3 66.660078 -36.308195 35.216895
2904 3 60.963283 -27.187214 37.831620
2905 2 -17.317942 -9.094015 141.390916
2906 3 -16.957497 -8.174145 124.393705
2907 3 -19.922054 -9.591075 126.128509
2908 2 -8.433823 36.778207 13.984453
2909 3 1.781534 33.426222 32.520074
2910 3 -2.627818 21.396522 23.671765
2911 2 74.937000 -0.757449 39.304158
2912 3 81.167372 -8.763854 32.831156
2913 3 86.586836 -0.155681 26.193562
2914 2 -23.976858 -40.573316 31.094051
2915 3 -18.614130 -45.846732 23.912593
2916 3 -10.632154 -47.895654 9.013965
2917 2 22.649409 71.933041 9.610836
2918 3 7.559613 60.060669 1.070644
2919 3 21.813382 70.187460 3.918853
2920 2 70.692947 20.603859 31.409332
2921 3 63.845127 35.185308 44.192841
2922 3 68.736764 16.974654 54.040985
2923 2 6.543018 -35.570217 16.050566
2924 3 4.862715 -41.817544 26.225066
2925 3 16.495895 -30.030803 20.663567
2926 2 19.678855 27.103209 62.522878
2927 3 10.195785 28.918396 49.843064
2928 3 20.266210 21.321371 49.403899
2929 2 -15.203314 -20.134703 86.890514
2930 3 -18.044065 -12.256082 92.876225
2931 3 -31.199245 -23.525847 76.885039
2932 2 51.129241 33.846939 61.309336
2933 3 52.289181 19.627632 70.409656
2934 3 56.196589 39.061905 61.256029
2935 2 116.933899 -20.155955 38.645456
2936 3 115.251155 -9.926619 35.848583
2937 3 112.339417 -12.424314 37.333409
2938 2 37.273064 12.249792 16.865510
2939 3 29.397519 5.518785 -2.569600
2940 3 31.730877 4.254284 12.509011
2941 2 98.240702 -49.937171 79.048439
2942 3 112.142480 -43.071255 81.230005
2943 3 99.560359 -50.365468 77.254166
2944 2 31.269291 20.909023 23.361218
2945 3 28.514590 44.994161 29.596434
2946 3 35.916681 34.207940 15.766773
2947 2 -8.738629 37.092702 27.436797
2948 3 -12.258856 31.223845 18.551684
2949 3 -12.250179 36.215203 31.396799
2950 2 -8.873691 70.741378 -21.838912
2951 3 -12.376977 72.145692 -18.169808
2952 3 -9.896233 70.029039 -24.706854
2953 2 -15.598414 1.106668 75.206034
2954 3 -21.256893 6.248882 68.825244
2955 3 -23.460457 2.825110 91.562379
2956 2 29.888174 61.956058 26.120498
2957 3 33.508388 71.125268 33.787779
2958 3 41.252312 65.132267 43.599153
2959 2 56.367890 31.344477 49.329411
2960 3 47.730211 37.162926 47.609118
2961 3 42.492331 39.528411 43.888303
2962 2 17.023621 95.635660 57.836562
2963 3 9.383670 83.517918 58.771416
2964 3 11.891266 75.480413 53.546984
2965 2 9.331327 34.849765 78.388675
2966 3 12.922577 45.214897 87.687245
2967 3 7.034772 41.148539 70.980723
2968 2 -2.570518 7.266179 71.144016
2969 3 -3.653775 5.599959 73.423021
2970 3 -8.374893 18.445650 81.607527
2971 2 -29.107699 28.087448 69.312415
2972 3 -26.192744 -6.960980 52.847924
2973 3 -23.549913 7.946440 82.193259
2974 2 -4.142786 -24.951720 -8.572257
2975 3 -0.351061 -8.413612 -1.947346
2976 3 -2.994578 -19.104324 -0.646287
2977 2 60.080132 18.470269 10.184758
2978 3 64.816692 21.726934 3.946825
2979 3 56.791319 5.995434 9.681692
2980 2 95.159160 9.488163 29.352668
2981 3 89.924006 1.200796 29.469112
2982 3 96.025013 6.749034 19.852352
2983 2 49.797261 -58.450126 41.061612
2984 3 51.018478 -38.757066 39.859148
2985 3 50.045037 -40.635049 48.708116
2986 2 -48.772615 9.504737 94.143572
2987 3 -41.060283 21.510297 76.172655
2988 3 -30.683121 9.116680 81.336642
2989 2 13.950615 24.487476 65.089065
2990 3 15.623423 20.941921 58.594414
2991 3 14.628364 19.784393 44.638942
2992 2 45.899643 41.592658 19.826168
2993 3 43.783155 61.719840 23.267456
2994 3 49.896876 50.048772 30.457794
2995 2 28.775720 75.981052 30.620816
2996 3 34.166976 90.602373 15.218463
2997 3 33.663823 79.135196 24.959221
2998 2 40.536087 -0.196312 5.783509
2999 3 47.052455 -13.106834 11.651766
3000 3 48.461751 -0.207096 12.188378
3001 2 23.736205 37.197193 10.992934
3002 3 37.546587 29.149626 24.201489
3003 3 25.847589 30.770550 18.567367
3004 2 -13.288790 7.603636 70.594644
3005 3 -19.896917 -4.114563 58.099474
3006 3 -24.456463 -8.409372 56.802583
3007 2 36.627713 -18.573759 80.354152
3008 3 43.994739 -19.462001 58.357466
3009 3 47.791408 -24.609765 70.108981
3010 2 4.898898 13.389545 26.327527
3011 3 -5.940780 14.917729 18.524079
3012 3 -1.607001 21.966792 19.553783
3013 2 23.831080 0.134552 89.011502
3014 3 22.425075 7.778419 80.593651
3015 3 25.539809 9.579509 95.425335
3016 2 -66.554061 51.400149 -34.289129
3017 3 -62.026837 53.464659 -10.853510
3018 3 -67.296705 47.014664 -15.688385
3019 2 92.913756 7.196997 62.606123
3020 3 108.632721 7.147116 70.381300
3021 3 97.055197 6.011760 70.510513
3022 2 -56.686082 35.822874 50.458601
3023 3 -47.508716 33.079384 66.366302
3024 3 -54.031846 34.146476 63.176235
3025 2 40.437509 21.084508 -1.973540
3026 3 39.270834 23.225824 10.350787
3027 3 38.064025 23.286803 5.789355
3028 2 -8.137508 10.009631 59.549475
3029 3 -4.858175 17.689245 57.086518
3030 3 17.454281 18.583078 48.493313
3031 2 75.003266 15.517357 88.850308
3032 3 74.602897 9.982333 88.340058
3033 3 64.258613 1.625258 97.297415
3034 2 -25.850272 36.941793 52.990374
3035 3 -29.710595 47.719335 63.741111
3036 3 -27.124561 36.323291 62.586794
3037 2 -87.887196 17.691966 90.412256
3038 3 -77.110990 15.853876 79.139697
3039 3 -68.743047 17.253050 84.697033
3040 2 3.998240 37.136450 63.187776
3041 3 2.181868 47.693877 68.534089
3042 3 0.419003 45.828825 67.204167
3043 2 16.995909 41.620503 67.143185
3044 3 13.466612 28.405035 71.110254
3045 3 2.939460 36.957026 78.579258
3046 2 74.082764 88.859666 37.642196
3047 3 76.260343 78.689156 46.664966
3048 3 69.175699 71.313272 41.207417
3049 2 101.435431 4.661264 10.859223
3050 3 104.758045 -1.310910 13.642066
3051 3 110.413160 -7.018235 25.030183
3052 2 -80.293117 80.174143 42.257971
3053 3 -82.976630 68.691354 32.505933
3054 3 -74.703720 73.158377 40.638696
3055 2 -34.615497 20.158646 80.858812
3056 3 -33.632087 21.582824 64.080715
3057 3 -26.077769 23.613212 76.039106
3058 2 50.715807 93.871842 33.238466
3059 3 54.682665 91.459013 43.125933
3060 3 50.565490 90.485376 27.987123
3061 2 1.688692 71.504751 48.677374
3062 3 9.844872 73.281923 52.518040
3063 3 3.788718 86.855825 63.646214
3064 2 45.210951 22.200498 37.919418
3065 3 64.563608 30.295392 19.243160
3066 3 63.987476 24.424204 23.779024
3067 2 58.821783 18.299621 88.638118
3068 3 54.211352 17.962814 86.124601
3069 3 58.247583 34.073021 88.402757
3070 2 73.188114 20.210851 -6.223579
3071 3 66.032452 23.811740 -0.637808
3072 3 63.707942 22.755601 -1.758222
3073 2 4.599059 100.010807 38.044737
3074 3 6.830381 89.560789 58.830522
3075 3 4.053673 98.145812 41.004836
3076 2 43.543249 66.659093 52.861936
3077 3 62.447981 71.262182 65.507269
3078 3 59.953538 76.530687 61.035184
3079 2 70.366171 54.520190 93.003334
3080 3 73.021749 52.619305 96.761858
3081 3 52.485551 59.283080 100.763202
3082 2 27.934406 59.945862 26.246769
3083 3 28.115628 57.113976 18.228600
3084 3 35.957306 64.889265 20.752927
3085 2 48.852269 -32.573107 78.118666
3086 3 49.027024 -31.252094 67.795172
3087 3 46.420749 -27.251779 79.063210
3088 2 11.085816 55.112773 59.798273
3089 3 16.024041 57.004110 76.970203
3090 3 20.067010 51.083034 68.751944
3091 2 -11.847902 55.585193 -19.144402
3092 3 -16.298583 57.541718 -4.358052
3093 3 -13.841750 42.969355 -13.902104
3094 2 24.611991 122.023402 88.486860
3095 3 38.599247 109.893637 99.313275
3096 3 27.358134 101.332880 94.777767
3097 2 -15.867487 55.291196 82.468531
3098 3 -29.072119 60.686987 101.729352
3099 3 -28.223392 76.195828 96.329400
3100 2 27.435069 101.841167 -57.133668
3101 3 26.614241 108.549084 -83.619137
3102 3 26.481666 105.027689 -44.462030
3103 2 4.161914 38.750964 46.830631
3104 3 10.918902 54.683161 48.074060
3105 3 4.035609 54.437076 53.699303
3106 2 44.202580 -6.901006 40.307045
3107 3 36.953164 -4.319064 35.203270
3108 3 40.729310 -11.242141 22.612893
3109 2 29.668125 61.145145 -6.017904
3110 3 37.509687 51.740672 -5.176554
3111 3 30.607799 54.973897 -7.750634
3112 2 54.561654 62.305122 28.135440
3113 3 52.330223 68.544865 21.971510
3114 3 51.895797 62.834907 24.052085
3115 2 -19.225558 1.941058 89.257754
3116 3 -23.457197 -0.527332 92.800554
3117 3 -27.643563 -10.017559 91.091708
3118 2 20.992450 29.578010 20.764217
3119 3 39.443524 27.388366 26.740244
3120 3 23.366096 16.814375 22.612341
3121 2 56.335049 94.814614 19.940497
3122 3 55.694257 94.715581 4.180849
3123 3 60.222324 88.272507 6.925024
3124 2 101.537717 74.330277 9.721356
3125 3 105.994718 70.197027 -2.279463
3126 3 97.478016 79.135166 14.109542
3127 2 73.512172 72.534891 55.622600
3128 3 69.192871 74.389802 32.564856
3129 3 71.391794 71.921151 28.860736
3130 2 0.851666 32.134524 47.645302
3131 3 -0.122051 30.706650 48.803457
3132 3 2.546646 22.200991 69.288326
3133 2 42.856883 120.218638 83.306073
3134 3 39.992182 112.738602 90.114842
3135 3 40.535277 126.405497 99.556210
3136 2 49.484970 37.307757 30.067828
3137 3 56.003892 39.892719 38.732676
3138 3 42.007130 26.875384 42.530842
3139 2 23.747714 21.554752 75.244580
3140 3 14.991891 38.546830 96.836551
3141 3 23.620416 37.550280 78.283325
3142 2 69.663980 22.814079 -31.467492
3143 3 70.589551 46.357428 -28.412749
3144 3 66.179392 34.837500 -40.514731
3145 2 72.335695 79.581031 -4.700643
3146 3 59.656071 81.175048 4.611250
3147 3 72.226661 87.471477 2.035872
3148 2 33.836504 37.536906 84.696484
3149 3 45.637771 27.790307 72.160162
3150 3 47.400267 29.550166 71.066150
3151 2 47.287175 77.249367 -2.365713
3152 3 41.340141 79.808043 -13.481755
3153 3 47.336257 89.300522 -3.913540
3154 2 -29.990612 49.943912 57.368779
3155 3 -13.033197 67.164285 66.477437
3156 3 -22.196342 40.195725 79.468377
3157 2 24.641874 16.812046 70.685094
3158 3 26.969615 30.138338 72.301747
3159 3 14.962252 26.851863 49.902065
3160 2 61.279343 84.293865 30.556473
3161 3 67.928408 94.950457 58.665098
3162 3 59.568809 93.349316 54.489996
3163 2 5.845115 98.775892 39.574712
3164 3 13.015602 110.812303 29.506361
3165 3 12.889139 90.603521 37.332151
3166 2 26.733767 79.987628 29.145775
3167 3 24.018127 75.372478 16.077577
3168 3 26.825533 80.701161 16.380475
3169 2 26.764779 -21.118336 30.187442
3170 3 19.797002 -11.442134 16.839500
3171 3 25.145851 -22.536869 14.511788
3172 2 -65.999405 -13.168028 49.581303
3173 3 -80.166353 -3.330643 41.336524
3174 3 -84.434767 -6.801247 44.508274
3175 2 39.331440 32.755742 31.811838
3176 3 31.278824 48.353728 24.847933
3177 3 36.022572 39.390616 31.222495
3178 2 14.139689 17.575625 58.772708
3179 3 15.327592 16.560723 82.749357
3180 3 16.625856 28.667373 56.612692
3181 2 40.014851 -58.975418 59.165333
3182 3 44.829905 -56.026502 58.771527
3183 3 44.762687 -46.385215 64.615262
3184 2 23.863715 -0.759338 32.360531
3185 3 26.234815 1.672908 30.164896
3186 3 32.503321 3.996458 42.178679
3187 2 3.517439 4.166873 41.116390
3188 3 -6.200697 6.905080 37.459755
3189 3 -3.489065 5.991281 45.985249
3190 2 0.759790 9.227888 10.914461
3191 3 -5.426534 4.712367 17.726519
3192 3 -7.344848 8.430620 23.493835
3193 2 16.516020 11.565038 71.083688
3194 3 16.340508 7.488960 65.443324
3195 3 17.781778 7.889250 62.805277
3196 2 81.146400 -26.956276 47.600220
3197 3 79.530940 -27.509081 52.679652
3198 3 84.222420 -30.470777 51.395889
3199 2 140.306189 26.690205 84.713773
3200 3 136.614012 30.655878 65.230802
3201 3 128.667791 15.645323 86.385029
3202 2 11.797317 26.847121 71.447095
3203 3 10.977437 11.246037 80.642945
3204 3 8.543457 1.280733 87.061307
3205 2 -26.822379 20.863747 111.747503
3206 3 -26.078697 16.335903 103.254194
3207 3 -19.344462 20.786268 109.491051
3208 2 2.551627 31.328456 45.735708
3209 3 5.029532 7.807722 46.746899
3210 3 2.154664 22.526193 40.563512
3211 2 6.087733 25.867813 64.092972
3212 3 -2.670373 19.357223 66.310062
3213 3 -0.590127 27.988988 53.075293
3214 2 69.091269 -19.660755 108.007920
3215 3 62.036626 -16.209143 118.441512
3216 3 61.518623 -0.280548 129.398366
3217 2 -8.404181 44.284066 47.685455
3218 3 -6.249654 36.166449 47.184482
3219 3 5.998106 38.217819 50.191796
3220 2 5.727857 2.470831 90.671876
3221 3 3.539295 2.299131 80.702987
3222 3 -3.029834 -3.331687 70.158155
3223 2 20.338743 -15.925040 20.430331
3224 3 23.208035 -15.203167 20.676304
3225 3 20.208825 -14.443872 -0.151218
3226 2 60.807672 33.212916 -13.348984
3227 3 67.008698 37.192672 -17.564739
3228 3 50.639120 25.765387 -6.505549
3229 2 59.326475 3.893736 0.539506
3230 3 42.977945 8.078207 15.654661
3231 3 54.588458 2.479946 4.400072
3232 2 37.762714 -31.073204 93.303442
3233 3 24.999852 -14.882026 96.307798
3234 3 32.480906 -25.155545 107.629743
3235 2 7.345564 -30.179519 42.296016
3236 3 4.475579 -32.973265 58.276691
3237 3 7.715327 -28.212876 45.099342
3238 2 0.524037 35.699692 53.013418
3239 3 4.678705 40.160586 54.927244
3240 3 -9.623663 46.566751 51.528013
3241 2 66.468151 55.427692 7.761796
3242 3 67.093642 43.838588 -10.185936
3243 3 65.190840 51.383409 -16.154923
3244 2 53.789124 13.058647 71.700483
3245 3 62.455163 19.239584 75.479751
3246 3 52.574243 14.623277 89.780367
3247 2 -11.281944 2.315190 15.268607
3248 3 -15.108946 8.034142 11.462883
3249 3 -16.441604 -1.173775 8.904547
3250 2 -0.740576 -31.692220 20.721997
3251 3 -5.160831 -16.263802 28.950231
3252 3 -4.355992 -22.725577 29.567776
3253 2 64.605402 29.129806 107.120918
3254 3 67.250868 57.910571 119.307479
3255 3 70.125011 50.251747 92.374472
3256 2 -17.138960 8.613351 30.467269
3257 3 3.856705 9.609362 29.463175
3258 3 -13.204341 14.975319 23.127447
3259 2 8.921402 3.215780 84.629536
3260 3 14.201245 -15.664153 96.607961
3261 3 16.236274 -7.677728 78.982442
3262 2 37.634958 -2.630208 34.284602
3263 3 44.622149 -4.762317 32.291268
3264 3 39.811664 8.494169 28.858618
3265 2 34.342538 29.079857 44.043491
3266 3 23.282770 29.173340 35.314102
3267 3 29.111204 29.190639 51.086283
3268 2 -17.691264 26.326509 67.703725
3269 3 -13.640108 13.116743 73.167497
3270 3 -4.224634 9.053636 69.890517
3271 2 21.440218 8.690610 90.793925
3272 3 26.849126 5.323408 101.581471
3273 3 32.834269 17.480276 90.417072
3274 2 81.234464 -6.988220 14.249231
3275 3 83.430007 4.417156 28.464415
3276 3 79.269480 2.242683 29.366461
3277 2 55.237105 -18.736087 91.048434
3278 3 48.120764 -28.629625 84.752586
3279 3 55.213487 -25.976774 85.220790
3280 2 64.899994 -1.505768 31.471036
3281 3 65.647846 -6.175884 14.377094
3282 3 65.675664 -7.384635 8.513005
3283 2 56.043702 49.977713 26.462692
3284 3 65.337385 43.584245 32.751234
3285 3 52.946517 46.514135 14.585823
3286 2 -1.153253 4.538119 56.201548
3287 3 -2.290556 23.340617 48.449908
3288 3 15.122257 16.511161 49.081439
3289 2 -43.727656 19.411858 12.910081
3290 3 -39.077693 11.916818 35.363700
3291 3 -40.535417 9.405797 35.918540
3292 2 56.446256 -14.653034 76.463496
3293 3 63.087106 -23.277288 72.097537
3294 3 64.601970 -6.726474 63.049840
3295 2 -15.845142 26.100772 89.603498
3296 3 -18.339902 14.973197 89.564500
3297 3 -12.130653 13.711842 78.261815
3298 2 64.508745 4.897667 46.902798
3299 3 64.603421 12.831438 40.913225
3300 3 53.176901 -6.124772 53.735621
3301 2 -6.230566 16.633837 9.507580
3302 3 -3.049437 17.276556 15.503232
3303 3 0.439189 21.357574 18.303793
3304 2 -10.969709 64.277106 38.359341
3305 3 -15.853489 66.128395 28.855393
3306 3 -9.328048 59.397561 27.226124
3307 2 5.828637 58.381136 33.751662
3308 3 8.018286 53.860400 41.359058
3309 3 15.646669 51.273568 45.043445
3310 2 62.822138 29.660246 54.657907
3311 3 59.587075 34.247511 56.650036
3312 3 74.745862 40.691156 53.569027
3313 2 -43.418585 -3.004793 42.473088
3314 3 -46.251941 -1.957504 36.136610
3315 3 -53.211917 -8.057397 38.408191
3316 2 86.072465 31.878520 36.676578
3317 3 79.504767 20.021490 53.509107
3318 3 73.636964 25.936448 53.955459
3319 2 11.171098 14.798189 72.537241
3320 3 11.529752 27.081293 69.863757
3321 3 8.309665 15.966611 71.187871
3322 2 108.893200 64.382491 31.341989
3323 3 105.490201 75.899728 46.586699
3324 3 102.256500 61.149608 42.034686
3325 2 -44.350870 46.694015 31.334713
3326 3 -43.636302 29.114885 45.068376
3327 3 -38.984386 45.322898 39.318505
3328 2 140.086913 64.686630 47.656682
3329 3 132.507156 68.538726 65.028460
3330 3 132.901621 71.909303 63.442696
3331 2 -60.631910 45.773215 23.484160
3332 3 -71.682325 32.740337 19.164598
3333 3 -61.530560 28.287892 24.879986
3334 2 9.913944 63.778212 -27.544729
3335 3 7.638562 57.176382 -47.734729
3336 3 0.662434 72.455851 -18.887568
3337 2 14.984925 75.049307 -48.047555
3338 3 17.535047 77.157160 -50.902807
3339 3 5.834101 78.449559 -60.227934
3340 2 0.835827 44.870525 28.696619
3341 3 7.657395 54.645842 18.547436
3342 3 9.698656 48.649208 25.601014
3343 2 30.459480 63.472115 51.527482
3344 3 27.662180 53.501959 67.947684
3345 3 28.376059 55.412313 55.933126
3346 2 -18.821325 42.551558 -2.493909
3347 3 -20.248618 46.055528 12.804166
3348 3 -6.611010 43.033392 22.352380
3349 2 7.043556 28.625295 68.313038
3350 3 3.684913 9.852071 81.738774
3351 3 6.683207 29.655865 75.418358
3352 2 26.777115 63.302230 19.031748
3353 3 20.410368 65.127995 2.225103
3354 3 29.008557 80.882712 24.251179
3355 2 13.949199 37.278049 91.812977
3356 3 9.817679 28.802168 95.013045
3357 3 17.932420 36.570199 91.590560
3358 2 -43.254870 75.712320 -19.812105
3359 3 -35.861913 65.812788 -28.083164
3360 3 -41.584403 67.994702 -34.388565
3361 2 7.565687 6.007188 26.190314
3362 3 6.055820 -26.462942 11.932526
3363 3 13.589397 -22.697199 32.714526
3364 2 -23.882004 55.304879 82.735163
3365 3 -15.084151 69.369732 92.666784
3366 3 -15.631677 63.771875 99.157930
3367 2 46.812691 24.527204 59.869340
3368 3 44.209495 40.904680 54.091268
3369 3 36.799667 27.633592 47.281681
3370 2 60.221221 45.630162 20.688790
3371 3 36.713520 34.266624 12.591009
3372 3 44.554879 40.344542 15.122353
3373 2 -63.426454 80.103960 -0.770285
3374 3 -63.598347 80.538506 5.000749
3375 3 -54.461470 68.979149 -14.630931
3376 2 22.146570 78.311584 109.140524
3377 3 32.990515 90.135245 93.111185
3378 3 22.041423 87.989798 102.587025
3379 2 -32.224142 65.883085 12.454683
3380 3 -40.631984 55.959637 35.392095
3381 3 -43.287957 47.037721 26.221649
3382 2 -19.889208 75.851979 -28.087579
3383 3 -6.808437 72.248906 -32.840867
3384 3 -6.645006 68.430909 -21.995115
3385 2 23.503757 38.191437 34.777999
3386 3 31.496581 42.228963 25.101400
3387 3 38.326555 45.170597 29.746160
3388 2 38.404867 99.088888 40.316335
3389 3 49.684323 99.613770 32.705101
3390 3 36.619631 115.491140 31.871385
3391 2 46.738399 83.662789 31.602922
3392 3 60.529978 66.330566 31.140469
3393 3 43.386969 73.975113 28.294492
3394 2 6.703105 112.831652 15.890951
3395 3 7.780373 120.710170 -4.195158
3396 3 -5.121235 122.823224 -3.722272
3397 2 -55.403374 101.899316 78.491654
3398 3 -61.068213 84.191616 97.354975
3399 3 -52.187187 99.836422 87.057917
3400 2 32.720886 88.718950 42.308586
3401 3 38.642349 83.812163 39.493487
3402 3 39.011458 83.733162 36.870773
3403 2 45.022781 87.481208 99.356894
3404 3 51.035003 99.883213 118.936553
3405 3 46.077664 97.344356 88.478995
3406 2 80.368808 101.135149 41.863332
3407 3 73.158558 94.640426 49.135488
3408 3 82.387991 105.831281 37.764630
3409 2 70.415058 70.963981 6.794724
3410 3 61.535379 61.453279 -2.232266
3411 3 65.657645 68.435748 8.716524
3412 2 -42.221643 34.149260 41.534165
3413 3 -49.875517 38.020034 51.351840
3414 3 -48.613017 42.098372 50.113162
3415 2 26.243215 13.034752 27.866468
3416 3 39.662830 15.329569 33.801035
3417 3 38.542671 4.957452 20.944368
3418 2 -22.729447 83.316937 85.217095
3419 3 -17.290645 98.786870 86.149423
3420 3 -15.675893 76.416332 86.180261
3421 2 36.380309 94.054430 97.129679
3422 3 30.429698 81.202253 86.149151
3423 3 34.861203 80.380100 81.880580
3424 2 -24.782392 56.958581 -24.270817
3425 3 -15.871536 66.961460 -12.840048
3426 3 -19.234796 63.277253 -13.439764
3427 2 -25.987623 61.339296 44.852781
3428 3 -32.547624 63.597486 49.974080
3429 3 -36.555707 57.653276 22.030857
3430 2 54.586415 71.492850 88.965488
3431 3 53.299897 71.956896 103.318037
3432 3 56.708723 72.853098 82.336126
3433 2 61.297951 81.245836 -10.857191
3434 3 55.827303 55.964920 -8.361630
3435 3 51.972320 61.584055 9.449496
3436 2 48.571931 25.204080 99.359478
3437 3 57.243424 33.037806 95.094920
3438 3 60.247477 17.856535 82.427955
3439 2 71.005303 93.554886 45.083139
3440 3 68.746439 95.027770 19.781179
3441 3 67.266102 87.732162 20.469134
3442 2 1.654220 1.634365 71.595793
3443 3 -5.135481 8.595802 79.504354
3444 3 1.898329 -2.484882 73.594912
3445 2 13.118373 4.407534 26.797062
3446 3 1.479849 22.700920 14.893819
3447 3 -1.017792 10.270782 19.173675
3448 2 62.561489 69.991450 54.771685
3449 3 73.977828 59.636230 72.721330
3450 3 57.419796 69.199272 61.212838
3451 2 -6.774748 -7.099606 66.458201
3452 3 -12.150743 3.277063 77.919429
3453 3 -9.067109 -1.185129 60.351788
3454 2 -23.498483 69.612654 24.972980
3455 3 -25.152731 56.415446 16.713670
3456 3 -21.585373 51.369072 11.072602
3457 2 -84.258289 69.870678 15.007367
3458 3 -81.208356 63.546795 27.832670
3459 3 -83.422966 63.058753 20.936040
3460 2 -12.508766 67.779801 -10.554032
3461 3 -13.205484 71.580374 -7.789874
3462 3 -12.329956 75.957771 -12.327289
3463 2 -70.240957 -13.377604 100.190626
3464 3 -76.611440 -23.049170 98.148583
3465 3 -79.160240 -30.563500 85.043063
3466 2 60.212470 98.387309 -6.083530
3467 3 53.812598 87.571567 -23.672280
3468 3 60.002983 94.754146 -18.083324
3469 2 17.974788 130.834482 22.250571
3470 3 21.717036 104.424459 22.802778
3471 3 23.372832 112.275928 24.305190
3472 2 -38.257246 23.953367 69.513959
3473 3 -45.523631 32.036738 71.559452
3474 3 -41.655660 32.408729 79.965716
3475 2 32.032860 123.647030 16.308261
3476 3 22.625039 129.760923 23.823290
3477 3 18.703580 121.735448 26.936879
3478 2 -10.461599 69.597906 52.449023
3479 3 -6.882209 76.023769 42.196111
3480 3 -11.698903 72.479612 64.053540
3481 2 39.316882 77.122548 1.318805
3482 3 44.575425 108.308636 17.313106
3483 3 45.696599 106.721910 4.493532
3484 2 44.923979 86.726064 58.658898
3485 3 50.593693 80.826707 35.337632
3486 3 36.070646 85.470601 45.926125
3487 2 116.606438 72.439328 -6.586584
3488 3 112.038906 79.467687 3.270444
3489 3 110.970114 84.936269 -14.031711
3490 2 51.713298 -36.710691 92.306237
3491 3 48.239874 -37.719233 97.068950
3492 3 41.298801 -42.831578 88.598008
3493 2 55.424986 -62.859847 72.486010
3494 3 57.537326 -49.888540 45.929511
3495 3 56.936429 -49.864745 54.125808
3496 2 -10.782826 39.581671 27.149698
3497 3 -14.194089 18.369875 27.205890
3498 3 -5.924318 46.040330 42.065183
3499 2 22.921029 -32.017007 16.808943
3500 3 17.161640 -19.671231 30.506853
3501 3 0.586098 -19.981174 40.331334
3502 2 33.273622 9.665985 61.642002
3503 3 32.143688 1.742369 51.207628
3504 3 32.589310 0.689668 61.571839
3505 2 -12.126823 -7.876587 58.369443
3506 3 -15.877427 -14.392611 57.276063
3507 3 -26.673658 -11.377427 69.953769
3508 2 -50.888630 61.505437 60.000647
3509 3 -60.508653 65.731312 60.902281
3510 3 -53.469346 63.719139 70.869187
3511 2 5.023636 25.223568 -8.976204
3512 3 8.843475 23.038143 -9.253520
3513 3 11.541688 22.389040 -21.549437
3514 2 62.476714 -30.363788 90.155814
3515 3 71.727192 -12.951538 82.001241
3516 3 59.340680 -30.750805 68.974490
3517 2 49.187226 -20.859385 61.628735
3518 3 48.215473 -29.311328 42.032869
3519 3 62.486494 -24.665180 76.172014
3520 2 76.474462 27.503631 74.495186
3521 3 86.347050 19.074878 84.946782
3522 3 79.316371 22.655999 72.518651
3523 2 57.799546 -35.565295 52.612870
3524 3 67.691125 -32.979525 51.660987
3525 3 63.660250 -33.894036 59.204635
3526 2 138.698660 -11.975197 13.707287
3527 3 142.578228 -16.093887 11.256629
3528 3 146.755350 -22.566856 23.279032
3529 2 32.729265 -46.151836 11.334963
3530 3 29.935428 -56.865588 9.477170
3531 3 27.647091 -51.359866 -14.610223
3532 2 -2.066388 -70.690205 108.873610
3533 3 -11.027511 -59.107011 110.707001
3534 3 -10.815062 -73.809714 106.291744
3535 2 -0.990300 13.773360 68.334991
3536 3 3.781074 9.673852 67.150348
3537 3 5.067078 20.154894 71.745851
3538 2 -8.040423 -38.060478 13.924186
3539 3 -10.392403 -40.404590 32.569499
3540 3 -18.104708 -42.008544 17.923413
3541 2 62.806793 9.490364 99.297600
3542 3 65.053796 30.448628 94.020804
3543 3 70.119982 13.744827 96.115739
3544 2 -20.284379 30.026081 108.160396
3545 3 -19.118086 43.822859 122.584099
3546 3 -16.509398 38.286933 116.906845
3547 2 60.709919 -32.248553 52.283253
3548 3 61.641279 -22.119592 43.966051
3549 3 67.916240 -26.847413 51.908233
3550 2 68.076155 -26.902320 77.766127
3551 3 60.098364 -14.166672 83.528315
3552 3 64.658394 -26.619604 69.938593
3553 2 35.918847 -4.861929 46.962272
3554 3 32.381258 -11.950039 57.319047
3555 3 22.281567 -17.079847 34.038972
3556 2 33.244579 29.589184 9.000721
3557 3 37.496744 36.499828 8.806332
3558 3 30.350707 35.505198 -5.298176
3559 2 19.536278 -10.188608 31.404730
3560 3 19.288490 -8.991641 46.071607
3561 3 5.898071 -4.616675 39.593996
3562 2 31.621633 -24.623418 53.825365
3563 3 28.903263 -31.472990 39.974612
3564 3 25.747088 -12.517436 44.152206
3565 2 55.570472 -21.474094 35.304745
3566 3 54.652361 -23.220823 40.592311
3567 3 62.896695 -32.179137 56.167821
3568 2 13.069063 -10.945534 57.524334
3569 3 15.503497 -17.905618 60.361208
3570 3 17.501213 -10.729553 58.560977
3571 2 9.157405 -16.054295 65.860453
3572 3 8.526225 1.468859 74.712769
3573 3 11.056694 -2.440708 59.112838
3574 2 31.503390 -3.181183 41.299902
3575 3 42.085813 0.805361 39.693915
3576 3 34.684023 3.377572 55.641845
3577 2 -6.783335 4.515999 86.090166
3578 3 -19.775012 10.139045 76.979618
3579 3 -15.145500 8.502691 79.755352
3580 2 61.065003 55.711666 41.706765
3581 3 47.183850 42.824686 42.577721
3582 3 58.224803 54.174639 43.698093
3583 2 54.734138 51.059480 28.335036
3584 3 47.137764 50.946096 32.855964
3585 3 51.283672 56.158953 55.126781
3586 2 29.550898 62.892307 22.359799
3587 3 21.240051 62.701136 13.313459
3588 3 23.200199 63.495956 19.069472
3589 2 55.271979 -6.412835 39.904361
3590 3 52.199309 -23.031537 50.853586
3591 3 49.504463 -8.586688 61.336616
3592 2 69.242710 -15.519629 49.237031
3593 3 57.688247 -15.787882 61.772774
3594 3 48.188666 -9.124895 58.034129
3595 2 -2.635124 15.491032 79.982309
3596 3 -3.768564 9.519986 86.613982
3597 3 -6.945967 16.317607 82.441356
3598 2 59.171062 8.363773 75.467721
3599 3 64.026706 7.222436 75.229002
3600 3 59.399804 9.425157 68.482849
3601 2 -1.270194 62.495631 64.445852
3602 3 -7.471751 50.411620 65.324527
3603 3 -1.076495 51.947032 68.328150
3604 2 75.669095 -0.678822 108.662993
3605 3 76.324261 4.965200 108.994386
3606 3 58.675736 6.095492 105.341037
3607 2 -76.382501 0.599670 70.220102
3608 3 -65.923168 6.686342 54.070291
3609 3 -72.202366 -7.010139 76.775999
3610 2 -17.882898 70.009334 0.632655
3611 3 -12.815517 61.526651 -1.115722
3612 3 -15.777917 60.189362 3.385412
3613 2 -33.085597 21.612348 78.184013
3614 3 -34.972538 21.168710 94.637419
3615 3 -28.532642 22.748854 86.772155
3616 2 33.188717 2.826613 -21.984717
3617 3 43.562632 13.319270 2.815674
3618 3 49.547983 17.516311 -6.307234
3619 2 4.057982 3.255887 89.615012
3620 3 9.625851 5.929844 75.998489
3621 3 3.458192 6.091001 81.721420
3622 2 -38.737587 40.502494 22.056807
3623 3 -33.125216 45.857483 14.966867
3624 3 -33.585042 43.258521 13.359057
3625 2 6.602870 23.603665 48.465755
3626 3 10.117451 26.633497 49.385567
3627 3 7.488431 26.833925 47.018481
3628 2 38.737382 82.149787 18.744406
3629 3 46.225322 79.964107 17.354272
3630 3 47.238857 105.248105 28.150717
3631 2 -14.778691 29.381223 98.502644
3632 3 -3.161582 35.189236 97.253117
3633 3 -2.702080 28.224026 85.563171
3634 2 72.080202 63.751597 41.804559
3635 3 67.305943 54.039282 35.888927
3636 3 79.895042 67.908083 29.120451
3637 2 37.917202 20.259840 30.342999
3638 3 31.945797 23.926278 39.273473
3639 3 41.751343 24.867088 37.947789
3640 2 150.034155 -26.099803 105.617481
3641 3 131.237827 -15.669322 100.346387
3642 3 136.867947 -18.550721 108.747410
3643 2 26.779465 3.314237 127.146905
3644 3 50.667289 6.183908 106.653204
3645 3 45.888085 0.368151 101.598281
3646 2 -3.284485 65.249340 77.969027
3647 3 -15.324433 60.905537 83.659456
3648 3 -6.715991 49.282810 81.322891
3649 2 87.106100 72.760842 24.002898
3650 3 104.848924 71.773438 31.509182
3651 3 92.858767 72.628477 23.486961
3652 2 73.868547 -11.270311 119.608934
3653 3 68.367121 -25.084321 138.632974
3654 3 60.697415 -13.446604 114.261366
3655 2 -16.970645 -30.436567 70.629112
3656 3 -10.263174 -32.203221 91.225663
3657 3 -16.667305 -28.836719 81.481202
3658 2 40.845890 31.892133 35.935614
3659 3 43.041528 22.512247 15.123718
3660 3 51.125159 35.966706 33.835253
3661 2 4.416183 9.765416 79.138396
3662 3 -5.419104 5.370411 69.699034
3663 3 -2.266205 0.250051 77.162991
3664 2 -39.168412 18.844489 79.446240
3665 3 -49.944180 10.005462 78.115815
3666 3 -41.716337 18.912724 61.208206
3667 2 103.754034 85.979686 28.267100
3668 3 98.321715 80.498625 16.432474
3669 3 96.194607 98.430839 14.834686
3670 2 40.606325 114.079149 -17.672434
3671 3 34.005646 95.756527 -6.003507
3672 3 35.146057 115.448469 0.947078
3673 2 85.005965 -7.096269 94.512759
3674 3 100.672443 -2.029647 110.247055
3675 3 82.969447 -0.865065 96.160835
3676 2 -16.517992 36.364449 29.346198
3677 3 -14.531754 37.485500 37.280688
3678 3 -11.457747 35.383203 30.974136
3679 2 -55.503929 93.618614 72.644635
3680 3 -57.432331 92.301559 72.008037
3681 3 -61.901651 100.289950 72.220642
3682 2 42.854337 -41.045531 40.632063
3683 3 50.036628 -41.088677 32.183275
3684 3 42.386657 -44.724778 49.697244
3685 2 54.190785 49.161214 33.946390
3686 3 55.771474 49.381769 48.539320
3687 3 66.309813 37.866039 34.771639
3688 2 8.101257 -11.637295 26.957220
3689 3 15.795620 -30.733244 39.816605
3690 3 7.543884 -21.976303 39.674467
3691 2 -78.690745 77.064452 9.903488
3692 3 -69.930074 68.845130 16.315098
3693 3 -67.232762 73.182753 14.263736
3694 2 46.847464 41.592434 -0.146713
3695 3 42.858488 45.874453 8.736109
3696 3 42.158220 51.301707 15.871653
3697 2 -17.179633 -19.966829 54.631216
3698 3 -23.902220 -22.984267 24.465232
3699 3 -17.094728 -28.427222 42.930072
3700 2 13.633500 99.390244 15.109400
3701 3 23.660256 91.975647 7.863404
3702 3 22.022170 85.491514 5.393669
3703 2 37.080330 33.807356 36.717987
3704 3 36.797633 33.055013 38.852772
3705 3 31.197930 30.085853 43.209768
3706 2 43.695632 9.675242 9.139972
3707 3 46.740864 -0.493001 20.695360
3708 3 40.351486 1.088682 23.629648
3709 2 9.875953 66.159012 -20.920648
3710 3 9.086283 75.321943 -9.399641
3711 3 15.793378 76.342047 -22.236178
3712 2 91.664093 104.507200 102.920411
3713 3 105.624083 109.385981 81.238064
3714 3 102.992705 104.691340 102.876062
3715 2 29.000177 46.662840 71.557902
3716 3 30.837269 48.906957 72.459555
3717 3 25.766854 53.749755 69.113086
3718 2 51.245057 4.988617 73.230740
3719 3 62.937556 8.550088 68.198033
3720 3 57.706485 5.177957 84.912180
3721 2 -4.268220 62.524181 96.467585
3722 3 15.554117 71.056077 78.151478
3723 3 12.960552 72.017630 93.745790
3724 2 12.638173 46.171083 48.948390
3725 3 18.884052 42.995824 28.933323
3726 3 20.059294 43.781648 54.242058
3727 2 0.485436 90.852355 95.027696
3728 3 5.889059 91.354575 85.205396
3729 3 19.635169 90.517929 92.738063
3730 2 -22.413274 117.813845 75.458426
3731 3 -10.509907 113.344964 73.392963
3732 3 -24.932808 109.633500 75.619371
3733 2 -20.602509 24.221350 97.888137
3734 3 -7.498105 18.417753 83.724918
3735 3 -6.734927 22.187657 94.374468
3736 2 -4.844602 51.021981 129.477496
3737 3 -14.506593 48.381327 122.894364
3738 3 -15.949422 37.866197 119.213329
3739 2 63.597869 98.357744 26.528468
3740 3 62.003173 88.903964 51.175110
3741 3 53.691340 86.525884 43.480268
3742 2 -46.634939 13.131899 43.801889
3743 3 -60.650946 16.077159 47.026025
3744 3 -50.788254 26.189222 51.045401
3745 2 -34.461673 84.073114 38.243244
3746 3 -34.103807 79.000646 37.767045
3747 3 -32.701602 89.203792 39.734508
3748 2 17.016279 16.778431 59.545780
3749 3 16.646382 11.345951 52.535290
3750 3 10.424228 13.355307 56.725655
3751 2 24.664169 46.606288 43.973824
3752 3 39.597140 41.679336 52.388809
3753 3 28.211437 52.013129 38.597542
3754 2 70.463434 44.767066 -28.845391
3755 3 70.565295 37.196123 -59.015702
3756 3 66.131272 41.220769 -27.687490
3757 2 2.675497 25.947701 128.862482
3758 3 5.070934 16.907705 141.155131
3759 3 7.029114 27.370667 145.513086
3760 2 6.248149 14.577469 14.137372
3761 3 6.821227 23.534934 9.455890
3762 3 13.144515 1.294952 4.034371
3763 2 52.205623 49.016581 118.965577
3764 3 38.276877 67.549900 114.240737
3765 3 44.926762 58.562230 104.985362
3766 2 -5.383402 29.129050 86.596730
3767 3 -13.966875 19.665615 76.540260
3768 3 -17.190818 12.744770 68.736385
3769 2 -3.842812 73.780262 -33.980741
3770 3 8.929475 57.990849 -23.119314
3771 3 -3.513421 64.485496 -24.403586
3772 2 -24.241291 110.311421 60.656348
3773 3 -29.183603 109.401338 66.312073
3774 3 -29.749243 105.201261 60.456686
3775 2 -24.096843 42.326246 36.337208
3776 3 -21.060911 46.946427 43.165745
3777 3 -25.628330 46.853939 43.939795
3778 2 -42.589227 104.869785 29.217474
3779 3 -42.562938 119.431117 13.573631
3780 3 -37.748989 115.635109 20.131748
3781 2 44.689337 91.538615 79.501512
3782 3 33.089550 81.213922 95.218989
3783 3 35.424566 83.601447 88.200374
3784 2 -48.240305 9.045494 80.904959
3785 3 -27.565206 -14.304058 70.121389
3786 3 -42.091600 3.078407 70.875235
3787 2 44.345649 40.343689 33.346424
3788 3 47.091896 24.218378 54.430902
3789 3 41.282355 33.048162 33.575958
3790 2 45.125316 44.846862 102.600071
3791 3 33.976038 55.948074 112.689805
3792 3 42.249932 59.510187 103.000390
3793 2 9.184649 67.433474 -0.440613
3794 3 2.534561 69.954747 0.715781
3795 3 9.481952 65.143746 8.718262
3796 2 63.636746 16.362246 29.644472
3797 3 57.326748 4.709366 36.684766
3798 3 59.046837 -0.815151 13.122048
3799 2 77.144080 53.584256 101.765204
3800 3 81.817251 53.413991 100.897567
3801 3 79.000996 43.882536 106.334137
3802 2 -22.887166 35.401572 44.069388
3803 3 -13.572890 40.181349 41.647844
3804 3 -9.790345 35.177015 47.616215
3805 2 -6.049312 18.970960 99.749141
3806 3 6.564871 9.567349 110.468070
3807 3 -3.725306 18.459965 114.971278
3808 2 13.203782 -6.663299 68.688041
3809 3 17.535687 -10.584499 70.868661
3810 3 8.289640 -9.997281 66.501420
3811 2 -58.864486 -18.943611 75.455866
3812 3 -65.007263 -5.823481 38.926489
3813 3 -56.810239 -17.032824 68.853452
3814 2 49.910816 48.701571 6.843186
3815 3 55.440719 47.864597 -2.866922
3816 3 55.265296 42.909921 -9.510209
3817 2 51.702782 34.494536 60.374751
3818 3 41.767016 36.366916 43.591694
3819 3 44.478554 29.271875 43.763901
3820 2 36.628781 64.996713 81.681814
3821 3 47.568031 70.364593 79.909895
3822 3 45.234711 77.279950 82.529984
3823 2 -25.959682 21.749656 70.371973
3824 3 -40.941629 10.942591 62.328572
3825 3 -38.171063 21.904694 57.877700
3826 2 64.087223 33.684583 4.889164
3827 3 83.661269 40.386432 16.891369
3828 3 68.129440 45.927109 14.722738
3829 2 -17.443985 10.925148 16.495444
3830 3 -10.572837 23.148886 19.592206
3831 3 -8.260387 22.000300 43.086209
3832 2 47.698461 47.581768 61.576830
3833 3 36.771302 48.940889 76.648543
3834 3 39.001984 52.980863 71.451297
3835 2 49.195546 45.987350 52.315414
3836 3 44.912465 55.380734 63.948550
3837 3 47.270665 45.576462 54.970767
3838 2 75.515591 39.536904 -5.894649
3839 3 71.160377 49.041051 26.860048
3840 3 69.153304 49.064522 14.850364
3841 2 -9.549980 -17.827510 149.171768
3842 3 -3.656148 -19.191022 137.741285
3843 3 -22.901460 -16.413861 152.866328
3844 2 33.993927 -10.940619 88.837051
3845 3 41.499095 4.636553 88.788015
3846 3 22.860111 14.604451 101.280524
3847 2 6.803011 58.172404 40.271599
3848 3 2.893390 57.563993 38.185506
3849 3 2.264639 59.429927 45.997794
3850 2 -29.815796 6.897293 93.087013
3851 3 -32.749944 -0.900828 93.937204
3852 3 -33.130362 6.380664 87.410336
3853 2 -12.153790 13.717303 14.457627
3854 3 -18.232300 7.184548 41.743057
3855 3 -11.245468 9.029082 45.292232
3856 2 6.025431 -20.185432 75.547082
3857 3 16.170505 -15.242975 82.367120
3858 3 -0.271401 -11.863175 94.074461
3859 2 50.879343 -1.319717 98.694468
3860 3 55.858215 5.661830 95.428730
3861 3 57.961988 5.290132 101.259765
3862 2 31.178185 35.110670 104.726374
3863 3 29.413112 14.813824 101.493955
3864 3 24.533061 29.438545 111.113244
3865 2 32.655133 -9.682951 88.453568
3866 3 19.076181 -16.439492 81.178414
3867 3 24.888569 -26.774011 94.116951
3868 2 60.359081 -28.827631 50.679289
3869 3 51.673390 -31.324227 58.347783
3870 3 56.707512 -26.383067 46.658744
3871 2 87.250205 13.228336 95.043283
3872 3 91.363489 8.921631 99.291917
3873 3 82.360549 11.097276 94.046069
3874 2 21.641746 -55.887109 105.139259
3875 3 23.334701 -55.947447 83.663547
3876 3 35.651851 -44.640812 96.454106
3877 2 104.660134 37.160828 97.310515
3878 3 108.061414 29.877554 101.508190
3879 3 106.618758 29.929789 85.400182
3880 2 -14.622057 42.833246 131.581556
3881 3 -15.854555 53.271607 123.938990
3882 3 -15.784163 55.813018 130.198682
3883 2 -18.915254 25.869470 51.386227
3884 3 -32.607364 24.582164 45.708480
3885 3 -24.834586 19.639350 48.653518
3886 2 0.994451 -3.218293 37.309535
3887 3 10.587638 12.471852 17.415020
3888 3 7.762872 -2.566411 35.234964
3889 2 -35.040640 48.265657 98.318745
3890 3 -39.450393 47.237367 98.568646
3891 3 -29.565811 49.287641 117.893994
3892 2 11.050049 74.003115 -5.542823
3893 3 3.386850 75.212491 4.031106
3894 3 5.643755 80.635106 1.832244
3895 2 12.838637 -33.631766 60.216638
3896 3 3.902059 -21.166336 56.179261
3897 3 13.174381 -30.051864 65.275400
3898 2 39.646704 28.762596 34.969842
3899 3 36.286533 16.149645 45.914087
3900 3 44.135296 28.822048 48.825843
3901 2 115.763794 32.947099 -2.745752
3902 3 109.861585 32.425319 -10.092859
3903 3 108.147776 37.522384 -16.685459
3904 2 -52.966160 -23.073315 -42.187048
3905 3 -48.297075 -36.735075 -47.790610
3906 3 -56.554431 -27.957558 -30.604850
3907 2 76.458149 84.834902 8.905917
3908 3 65.782686 84.322366 5.444496
3909 3 53.413488 79.370144 7.208425
3910 2 58.282250 30.112075 52.664371
3911 3 48.054377 46.583930 51.682370
3912 3 61.106837 27.369311 43.642369
3913 2 38.295402 -31.486510 22.212740
3914 3 31.030336 -29.198482 3.994184
3915 3 31.417359 -3.603858 7.050829
3916 2 105.164066 -5.443282 -9.913208
3917 3 109.821066 -18.951255 -4.209515
3918 3 101.856063 -7.718995 -14.930709
3919 2 -6.814362 -23.864580 67.540279
3920 3 -20.528250 -24.868329 58.009625
3921 3 -5.768418 -5.733148 75.721787
3922 2 -43.755024 34.068817 22.802034
3923 3 -39.859088 32.951285 22.162962
3924 3 -51.330609 35.069809 10.444960
3925 2 43.081688 72.699930 13.505562
3926 3 43.518363 81.324168 13.850074
3927 3 38.616181 77.774105 21.219680
3928 2 6.770396 28.630376 100.798186
3929 3 9.331996 19.858559 122.959647
3930 3 3.849996 23.370293 109.792294
3931 2 68.960520 25.443820 62.652958
3932 3 76.711788 34.975653 71.863467
3933 3 71.091769 39.998430 72.775513
3934 2 60.629793 8.112741 114.411757
3935 3 63.420874 11.733704 124.959758
3936 3 67.075820 0.907747 119.653845
3937 2 12.013821 63.175453 66.298271
3938 3 -2.554966 72.677237 57.413252
3939 3 2.988486 80.084365 60.421277
3940 2 70.921381 -11.515558 101.721935
3941 3 59.229390 -15.815341 112.599890
3942 3 62.791618 -14.908914 92.323942
3943 2 7.320043 -69.542943 2.512149
3944 3 10.735246 -67.235161 -2.711053
3945 3 11.748076 -58.927092 17.962960
3946 2 108.365986 28.712451 55.551203
3947 3 125.539550 27.965478 65.431709
3948 3 128.153341 27.231092 60.735667
3949 2 64.471927 69.659103 85.793946
3950 3 68.566474 44.415012 84.673595
3951 3 62.764160 67.415118 84.348595
3952 2 58.265701 -70.270932 -21.085376
3953 3 75.058545 -75.310696 -20.134692
3954 3 76.202304 -69.281612 -19.230037
3955 2 74.662557 -19.329454 46.572168
3956 3 80.805913 -24.658316 49.287680
3957 3 78.773135 -12.597266 37.008424
3958 2 35.690233 3.755880 -38.274623
3959 3 46.073479 -7.598039 -18.424045
3960 3 50.246460 -6.036882 -19.834999
3961 2 -69.505128 41.344944 67.751053
3962 3 -66.940984 45.908774 67.279820
3963 3 -75.877953 55.503128 74.043248
3964 2 -38.482439 34.442659 69.666601
3965 3 -37.903010 23.397500 74.920410
3966 3 -28.878738 33.998612 66.460254
3967 2 32.625548 31.146852 120.174839
3968 3 41.040239 48.929429 118.074701
3969 3 37.129437 37.855088 113.340782
3970 2 63.648134 47.907429 79.796034
3971 3 54.598636 46.503758 80.850702
3972 3 72.362010 41.176983 79.821991
3973 2 91.469165 -6.541782 23.086445
3974 3 92.029718 -12.856085 17.214271
3975 3 82.225238 -12.258542 6.690471
3976 2 8.883106 22.364526 78.442600
3977 3 1.580644 19.794162 100.890131
3978 3 -3.539991 23.868566 90.732513
3979 2 46.410094 -19.229246 38.803215
3980 3 51.057099 -19.740448 20.431812
3981 3 55.558295 -21.702432 14.457201
3982 2 39.779684 -42.135701 96.183669
3983 3 44.378432 -52.840847 78.937835
3984 3 37.455991 -43.013376 90.550731
3985 2 74.241635 103.576044 0.906521
3986 3 87.106580 94.832342 7.796997
3987 3 77.729899 91.163434 1.139921
3988 2 46.681299 63.449328 79.101054
3989 3 28.099446 45.672200 72.860156
3990 3 45.453279 53.446726 67.830580
3991 2 68.563054 -6.249143 95.930557
3992 3 60.140476 -6.071668 88.270823
3993 3 64.908733 -9.620634 96.296556
3994 2 44.666748 28.312919 69.027322
3995 3 44.863300 35.704770 72.990909
3996 3 40.065259 37.338635 87.612096
3997 2 -5.514093 106.049067 5.033552
3998 3 -12.301587 108.735725 17.376892
3999 3 -4.740139 113.260816 17.249469
4000 2 -5.612605 37.387024 57.887101
4001 3 1.202614 24.175876 39.978131
4002 3 -5.534904 30.504362 46.360227
4003 2 28.452155 -53.683750 71.440065
4004 3 25.488098 -42.636640 72.659742
4005 3 31.304193 -40.364751 63.290423
4006 2 97.198957 -16.317261 101.854271
4007 3 92.221016 -16.114759 125.396215
4008 3 97.359295 -15.601306 125.923150
4009 2 105.592444 60.096483 13.791329
4010 3 113.632083 63.479938 20.310103
4011 3 108.394205 67.282415 -1.249358
4012 2 -20.814434 24.746669 105.446360
4013 3 -11.600774 28.047595 89.212100
4014 3 -24.445568 37.728258 86.387907
4015 2 -19.810046 91.282073 98.837552
4016 3 -23.805068 87.583859 109.830683
4017 3 -21.011596 74.172609 102.343011
4018 2 66.391209 69.584538 50.814865
4019 3 69.261312 65.916276 63.587810
4020 3 73.081243 71.439236 69.519813
4021 2 29.543814 -62.881946 110.025247
4022 3 21.413217 -59.692361 82.350564
4023 3 32.138925 -67.755322 101.452715
4024 2 15.603996 32.488487 66.035652
4025 3 9.935603 28.052729 51.014077
4026 3 17.642424 37.773603 55.054040
4027 2 104.552832 26.506767 7.490951
4028 3 98.460194 20.338915 9.774388
4029 3 93.164763 24.903662 27.589271
4030 2 5.232765 122.032335 -23.860981
4031 3 10.311872 116.293569 -8.141298
4032 3 13.551822 98.552906 -8.081725
4033 2 -26.172112 97.802932 80.088766
4034 3 -28.613039 87.311003 80.073981
4035 3 -25.433772 107.539338 56.639407
4036 2 -15.531680 -7.045204 57.426759
4037 3 -26.879852 -14.855559 52.988969
4038 3 -16.639499 -9.975442 66.994279
4039 2 70.903546 -0.446985 84.195866
4040 3 94.380545 -6.708872 89.180027
4041 3 71.700551 -7.322840 78.790535
4042 2 82.296785 5.178123 99.657464
4043 3 83.285414 3.933154 113.286119
4044 3 80.350647 3.762057 110.518905
4045 2 -55.941416 46.289053 78.296388
4046 3 -60.864115 35.919100 78.281779
4047 3 -54.950143 30.683708 81.118865
4048 2 51.743375 65.237770 54.163350
4049 3 65.805478 66.602590 52.432717
4050 3 63.689454 80.940857 38.927872
4051 2 -73.672094 8.903453 33.185309
4052 3 -62.564540 19.819764 26.223896
4053 3 -64.857981 27.611538 32.683381
4054 2 24.926085 -19.829291 98.785851
4055 3 33.123583 -11.796046 118.589513
4056 3 34.064312 -32.108232 127.305507
4057 2 59.443921 -27.607688 77.541372
4058 3 74.096796 -20.717152 77.877562
4059 3 62.996843 -29.412551 69.579818
4060 2 78.693385 1.469484 10.715724
4061 3 70.385108 17.457306 -2.747322
4062 3 82.544970 1.724390 -7.248563
4063 2 38.972655 22.351033 35.775296
4064 3 51.323541 21.766288 32.393155
4065 3 35.568821 34.970113 34.726208
4066 2 69.677162 24.664291 28.567808
4067 3 76.840481 10.625378 21.484930
4068 3 64.938680 16.281826 17.341685
4069 2 22.364382 71.692520 96.989889
4070 3 29.061151 85.245038 107.904904
4071 3 39.970630 73.231692 105.210787
4072 2 -22.131401 35.934525 9.046396
4073 3 -22.499260 41.075097 -16.329809
4074 3 -18.253053 50.844313 2.864107
4075 2 76.977610 48.645700 11.571030
4076 3 79.665684 53.732893 16.944745
4077 3 78.316206 43.473048 15.535817
4078 2 35.985842 23.377146 57.847186
4079 3 46.167573 36.239563 67.679562
4080 3 42.521508 35.092249 71.880443
4081 2 21.046838 56.231109 77.726816
4082 3 25.212655 59.774365 83.213999
4083 3 15.775767 55.148883 102.118822
4084 2 -42.685283 70.872523 55.991948
4085 3 -34.211905 72.568682 65.942729
4086 3 -26.393690 67.075846 47.408670
4087 2 22.452085 63.165270 19.649468
4088 3 24.338992 53.726595 18.444033
4089 3 14.529237 54.358207 2.400382
4090 2 -63.392049 43.406653 97.029034
4091 3 -63.024372 41.968664 104.857418
4092 3 -55.081910 39.013054 93.809236
4093 2 3.210846 6.847319 0.807284
4094 3 4.254373 10.999321 -2.342512
4095 3 -6.558457 28.320378 -8.773247
4096 2 -19.367852 35.052213 -5.194475
4097 3 -13.910451 37.021515 2.919961
4098 3 -9.232895 48.343784 13.318230
4099 2 29.666806 80.633768 52.157309
4100 3 28.477738 86.931641 50.813260
4101 3 27.602544 86.796255 59.670638
4102 2 30.474920 45.515364 -3.013274
4103 3 22.044882 51.993812 -7.523281
4104 3 36.737662 47.296072 2.960916
4105 2 30.013492 8.074461 64.899464
4106 3 31.874391 17.706265 62.722438
4107 3 30.683343 21.403699 59.438658
4108 2 63.716705 38.282068 119.194905
4109 3 69.057023 36.141071 126.565814
4110 3 74.745061 34.315277 109.799841
4111 2 -21.402059 -3.807795 34.742150
4112 3 -27.448231 -7.984857 24.012592
4113 3 -6.822216 -9.668332 20.569953
4114 2 21.152529 96.571362 88.723014
4115 3 19.085613 80.669171 81.095810
4116 3 18.928859 75.171424 78.316745
4117 2 -85.529522 23.246542 89.293136
4118 3 -94.915416 17.437684 90.874610
4119 3 -94.348016 29.097812 95.069157
4120 2 29.850036 55.530374 82.747576
4121 3 27.161839 67.638214 90.422635
4122 3 27.504188 62.820821 86.813030
4123 2 -31.490387 99.705482 45.359516
4124 3 -30.776238 102.532666 25.494447
4125 3 -25.443875 94.433815 46.558823
4126 2 22.453763 66.734042 45.735168
4127 3 15.651992 49.893038 29.969799
4128 3 16.806813 59.805929 39.796855
4129 2 31.247417 8.366380 62.919230
4130 3 27.983021 16.076779 87.038081
4131 3 28.178180 8.070787 62.783144
4132 2 34.310633 42.570484 33.248065
4133 3 27.204049 52.286840 35.932337
4134 3 33.763750 64.063239 43.368045
4135 2 10.700730 31.491414 66.550561
4136 3 15.757606 18.122214 55.436743
4137 3 19.998087 21.745153 62.639110
4138 2 -12.627593 35.431261 7.440489
4139 3 -6.968922 38.134659 18.976987
4140 3 -8.863061 33.527059 34.282433
4141 2 37.091548 13.564095 28.817080
4142 3 32.864974 21.305686 44.888684
4143 3 31.246235 16.494127 50.964656
4144 2 -9.345164 72.492053 87.202002
4145 3 -26.435648 74.242754 65.018284
4146 3 -15.956074 70.216599 59.493561
4147 2 -2.417431 76.230205 12.144050
4148 3 -3.983585 99.249513 4.238624
4149 3 -11.048562 101.584694 16.346581
4150 2 -19.137252 21.718424 3.876449
4151 3 -11.642491 15.801399 21.968467
4152 3 -11.204965 15.602368 30.037460
4153 2 71.754935 107.892085 67.558856
4154 3 78.832931 104.163432 57.352410
4155 3 73.113479 111.343031 57.899386
4156 2 -42.992906 19.738900 113.818266
4157 3 -33.263196 23.898228 90.790350
4158 3 -35.060983 22.157330 104.833744
4159 2 36.870754 17.852978 38.614663
4160 3 34.753991 22.614172 44.409006
4161 3 25.911897 25.863962 36.931594
4162 2 -31.384027 51.785358 38.761812
4163 3 -39.322113 57.186744 46.882182
4164 3 -35.584499 57.107993 42.022026
4165 2 51.670829 43.587861 43.280962
4166 3 54.844864 59.035638 47.723948
4167 3 59.281005 44.304095 51.450347
4168 2 -1.881507 69.103200 4.102023
4169 3 -6.314846 77.402938 3.505732
4170 3 -8.255151 87.559084 5.619351
4171 2 63.684564 77.858857 83.296672
4172 3 61.193551 65.508547 101.032929
4173 3 67.815208 69.740066 98.993931
4174 2 -5.369686 63.299113 79.362229
4175 3 -16.844633 57.500469 84.699007
4176 3 -4.571948 49.572638 82.853641
4177 2 2.047628 31.843600 86.723037
4178 3 4.728503 40.092503 74.436187
4179 3 11.626038 39.270265 92.160889
4180 2 39.563197 20.579963 98.018443
4181 3 36.172165 6.512635 102.592672
4182 3 31.499308 20.331175 109.532180
4183 2 -46.734125 98.295346 60.186843
4184 3 -62.776532 87.139651 54.205145
4185 3 -59.083325 93.149463 46.298130
4186 2 61.185099 25.329229 42.190730
4187 3 59.540717 27.691748 40.302879
4188 3 66.967646 30.302107 35.791298
4189 2 -23.605675 19.131028 87.007179
4190 3 -6.703063 32.193496 85.435591
4191 3 -4.316633 44.516750 66.693996
4192 2 62.921934 22.111754 65.681070
4193 3 75.540057 18.316337 85.147070
4194 3 71.293144 9.656832 72.008420
4195 2 -5.280323 90.310634 70.081026
4196 3 -3.917160 69.370830 52.218042
4197 3 -3.657644 73.078946 54.970848
4198 2 -94.953574 16.518179 50.294983
4199 3 -103.604878 16.056080 35.396256
4200 3 -90.467215 25.072247 43.105887
4201 2 -13.697753 -17.779130 14.224529
4202 3 -29.137143 -7.991174 7.165760
4203 3 -10.374639 -13.252290 11.026276
4204 2 2.290049 66.471890 115.606534
4205 3 6.576516 54.687958 97.343120
4206 3 3.005643 72.418723 130.444145
4207 2 66.742154 75.808077 84.484690
4208 3 76.633061 101.153379 84.564185
4209 3 72.145420 109.789617 78.292260
4210 2 -32.126983 73.612977 105.791905
4211 3 -29.513313 68.250856 96.844725
4212 3 -19.499721 67.053640 103.131757
4213 2 65.334757 59.495271 35.977086
4214 3 69.002666 72.521876 56.114329
4215 3 58.171466 79.978118 61.507355
4216 2 21.453746 12.124187 74.335408
4217 3 21.345278 25.053716 80.746634
4218 3 24.506112 11.368298 67.825797
4219 2 38.309417 69.810469 18.270862
4220 3 39.429611 73.854820 20.267991
4221 3 30.822344 56.935132 14.532961
4222 2 -18.578405 89.594793 81.401481
4223 3 -20.827430 96.900429 90.187924
4224 3 -15.830647 84.079295 91.070406
4225 2 -66.686057 91.075151 38.131777
4226 3 -71.328803 99.147105 44.628175
4227 3 -62.472761 89.778446 35.426435
4228 2 114.858427 81.193955 63.810605
4229 3 115.724483 87.737772 43.730690
4230 3 113.610329 82.423153 41.873658
4231 2 74.215937 21.623349 7.484620
4232 3 88.862825 30.813610 -2.481781
4233 3 82.021454 23.989233 10.054064
4234 2 -21.665487 -1.887620 51.592601
4235 3 -34.349133 -5.572024 60.413717
4236 3 -32.788475 -22.052929 44.895525
4237 2 0.083044 -50.362868 129.648156
4238 3 11.844516 -45.247698 140.196241
4239 3 5.022039 -68.430149 137.047998
4240 2 -0.057803 3.315089 77.806089
4241 3 -6.923891 -3.891514 79.789677
4242 3 6.612392 5.166582 92.107199
4243 2 44.924078 23.320966 -0.284949
4244 3 55.828262 16.664322 20.675497
4245 3 46.921556 -7.593949 5.653003
4246 2 -37.800600 -40.717126 72.160083
4247 3 -37.240232 -42.017419 80.004843
4248 3 -39.583744 -30.685320 87.673946
4249 2 19.706475 6.882363 131.586095
4250 3 11.150246 13.015054 147.987767
4251 3 19.609746 0.077496 158.259933
4252 2 7.837470 -64.816562 20.210722
4253 3 -2.178049 -59.549745 19.302101
4254 3 5.017498 -70.089818 16.361853
4255 2 -57.611052 11.124912 4.148657
4256 3 -54.345090 8.742500 14.220637
4257 3 -47.959465 -1.550336 -6.315906
4258 2 69.851837 -63.094305 127.745129
4259 3 75.276872 -71.085167 125.703529
4260 3 75.484600 -64.410547 140.858307
4261 2 -12.309386 20.220543 111.101444
4262 3 -19.703080 14.251307 88.502521
4263 3 -15.117953 17.000781 112.833433
4264 2 10.539038 15.698761 108.467156
4265 3 16.047953 3.993360 110.040304
4266 3 15.817168 8.601008 103.115455
4267 2 6.251718 -3.074839 57.463577
4268 3 0.316121 0.722308 69.590243
4269 3 3.705727 -10.071759 70.074333
4270 2 40.222640 32.558105 91.407223
4271 3 47.394964 38.653079 79.474623
4272 3 52.143196 38.570809 88.132901
4273 2 40.490783 24.925270 35.640150
4274 3 46.719119 26.090860 37.391219
4275 3 46.294244 27.006850 41.833290
4276 2 -1.702427 62.427581 115.497318
4277 3 11.534237 73.233847 105.490828
4278 3 10.328966 82.649336 103.951955
4279 2 -64.381331 -25.891889 38.154005
4280 3 -45.599794 -27.346304 38.199212
4281 3 -49.653055 -19.669923 29.793356
4282 2 -33.532161 32.183663 97.079145
4283 3 -24.052821 32.611984 119.651742
4284 3 -33.663221 23.790614 109.826974
4285 2 3.067230 53.184353 64.617457
4286 3 10.894109 50.855030 57.043115
4287 3 11.187459 63.511878 62.261555
4288 2 19.099226 69.779392 73.951229
4289 3 18.003211 66.997920 70.989202
4290 3 18.248757 59.287953 92.060608
4291 2 42.955319 23.562811 45.451025
4292 3 48.802590 20.994200 54.980473
4293 3 43.919051 16.739761 57.314434
4294 2 33.934262 6.137089 130.469479
4295 3 26.442591 12.423148 112.604097
4296 3 31.966961 19.189572 124.073448
4297 2 6.112345 6.902622 68.762586
4298 3 2.228938 1.518260 72.097878
4299 3 -9.156072 3.127243 60.087144
4300 2 51.358837 -32.339052 43.396857
4301 3 37.617866 -27.450419 44.901074
4302 3 56.440411 -39.279473 50.929259
4303 2 59.510163 0.003166 52.457154
4304 3 77.434589 -3.709025 53.818600
4305 3 79.951491 -1.209716 72.037292
4306 2 93.746812 101.890619 69.569706
4307 3 91.791245 94.027328 54.143058
4308 3 89.453439 98.377738 52.107671
4309 2 127.693576 11.089838 7.104845
4310 3 121.608494 -1.489718 -0.447467
4311 3 116.510401 22.384377 -0.336715
4312 2 -6.226780 33.609538 47.057665
4313 3 -11.589182 47.849788 58.358165
4314 3 -11.983401 34.873958 53.390539
4315 2 -12.256184 46.030418 25.163494
4316 3 -30.863370 25.060335 35.137112
4317 3 -18.109074 32.591484 22.125987
4318 2 -28.803145 40.896053 59.276177
4319 3 -32.539314 32.378847 56.689029
4320 3 -36.628628 51.947112 51.345647
4321 2 -10.292372 44.383148 44.181715
4322 3 -17.689779 30.424682 61.182019
4323 3 -9.447099 33.351679 50.763126
4324 2 55.060129 83.509153 112.250156
4325 3 45.606939 79.960515 107.802663
4326 3 48.910638 81.057105 99.581498
4327 2 37.248866 -8.362632 50.594531
4328 3 26.839259 -13.036366 29.775852
4329 3 33.596617 -12.623365 27.379340
4330 2 58.510049 -1.858403 93.331618
4331 3 53.245900 -22.915851 91.981644
4332 3 45.195465 -6.606731 67.966588
4333 2 62.687261 -18.778226 62.804811
4334 3 62.416940 -16.619583 66.695223
4335 3 63.147321 -21.380036 64.420536
4336 2 108.868235 32.763343 37.063801
4337 3 111.504969 31.920226 28.081271
4338 3 111.877009 33.990395 26.346191
4339 2 44.038188 -22.364460 91.714315
4340 3 35.132518 -26.190246 82.295241
4341 3 45.611272 -9.794514 101.743311
4342 2 110.054104 40.997673 48.831969
4343 3 116.561291 57.158692 59.555679
4344 3 115.124761 49.231106 37.725268
4345 2 24.535817 -6.080444 154.336405
4346 3 31.812168 3.876257 142.204231
4347 3 27.777993 4.959662 135.003501
4348 2 63.434826 55.643167 6.105160
4349 3 85.432248 48.673341 0.678533
4350 3 73.280762 47.977557 20.123209
4351 2 -44.119287 47.163232 -17.845207
4352 3 -41.199107 33.785705 -13.319163
4353 3 -47.282655 45.910082 -7.659547
4354 2 -32.304961 -84.440496 119.090025
4355 3 -29.619262 -72.320393 101.518412
4356 3 -23.677866 -86.086778 133.159814
4357 2 -53.475028 110.860979 79.818263
4358 3 -53.620797 110.981838 90.285571
4359 3 -51.951525 108.361813 84.259593
4360 2 52.823278 -39.815664 102.359377
4361 3 55.046395 -44.867546 93.996558
4362 3 50.313694 -59.638211 90.486778
4363 2 -32.805552 -29.772600 101.048834
4364 3 -31.616229 -23.297525 106.884266
4365 3 -37.449038 -36.359179 104.260597
4366 2 -0.308134 35.838240 17.144915
4367 3 0.418526 26.602467 16.908302
4368 3 10.907953 37.765430 15.225709
4369 2 -4.249330 67.426856 -9.647160
4370 3 -7.903099 62.158803 -17.549188
4371 3 -11.519410 71.726453 7.078106
4372 2 89.861247 -13.504464 71.345555
4373 3 99.171970 2.256156 65.664915
4374 3 94.993400 -2.248853 60.758224
4375 2 15.381953 6.832310 120.610078
4376 3 25.056293 14.320024 144.353026
4377 3 19.227534 16.810678 124.394573
4378 2 57.773333 28.506277 68.087641
4379 3 48.929757 31.462860 69.698112
4380 3 48.360549 29.765598 54.255463
4381 2 11.617021 26.483709 109.657855
4382 3 16.659973 26.943762 121.101853
4383 3 13.099945 19.704086 120.639361
4384 2 25.216983 -22.832524 78.366168
4385 3 29.371600 -6.465685 75.301909
4386 3 23.610754 -16.794816 79.816866
4387 2 -31.729100 -7.455586 49.911282
4388 3 -42.379028 -3.885630 49.065907
4389 3 -33.495266 -0.351056 58.966124
4390 2 59.676592 61.516894 -14.468779
4391 3 55.642241 45.757083 -14.803867
4392 3 49.835294 40.038338 -9.771294
4393 2 -2.667215 55.972161 89.081407
4394 3 0.241950 33.978476 91.414567
4395 3 -3.418071 57.362190 101.266002
4396 2 96.351296 -0.557332 54.158582
4397 3 105.838817 7.165761 48.591236
4398 3 92.409732 -14.647568 58.353794
4399 2 80.754652 37.742677 22.930421
4400 3 87.570739 29.056788 4.542662
4401 3 79.120544 35.138435 8.264871
4402 2 72.347823 -19.724096 86.594156
4403 3 65.665751 -13.161129 73.527116
4404 3 77.838496 -3.701609 94.821263
4405 2 140.865688 -75.662994 88.518551
4406 3 131.467506 -66.007248 96.857092
4407 3 130.257105 -70.856441 101.808621
4408 2 -12.984458 66.673313 92.691108
4409 3 -3.538180 62.200820 96.608824
4410 3 -5.088095 59.000630 103.896295
4411 2 -82.264225 -10.062657 85.837695
4412 3 -92.356300 -9.552306 81.380382
4413 3 -84.599085 -11.019204 78.715427
4414 2 -49.633926 103.868286 127.093663
4415 3 -51.350015 99.805572 141.673513
4416 3 -44.432339 77.939983 113.859017
4417 2 1.540515 47.791230 103.087058
4418 3 -14.619753 51.518847 107.415777
4419 3 -8.994126 46.248972 112.241170
4420 2 120.144231 91.861509 79.822074
4421 3 123.322062 83.862231 91.168135
4422 3 117.344597 79.716688 83.125583
4423 2 113.685155 28.188967 58.220418
4424 3 115.533752 43.955683 64.199692
4425 3 110.396847 27.106620 55.460349
4426 2 -6.223602 41.305674 80.262410
4427 3 -8.936010 42.419032 78.581777
4428 3 -4.303265 37.164977 75.483742
4429 2 -21.661561 51.410403 31.678062
4430 3 -18.781724 50.115249 46.009028
4431 3 -6.345126 42.200286 24.057549
4432 2 8.636270 60.660003 58.318470
4433 3 6.633372 73.470654 75.936611
4434 3 15.344556 55.369121 74.176234
4435 2 31.307760 5.322248 97.648413
4436 3 26.266545 -1.834637 99.900427
4437 3 25.402232 7.415214 104.783122
4438 2 98.219028 -25.358203 81.982032
4439 3 88.683519 -6.024740 89.555510
4440 3 93.962914 -27.126347 71.691244
4441 2 164.525487 -9.998444 80.278145
4442 3 152.958723 -18.809611 70.045078
4443 3 167.456576 -1.911399 87.846428
4444 2 23.621855 98.605726 126.582772
4445 3 7.280600 104.580219 134.016057
4446 3 17.783322 101.090342 128.001497
4447 2 45.223224 58.180310 -4.054274
4448 3 40.394262 69.100585 -1.977115
4449 3 52.781391 63.159249 2.291309
4450 2 -15.739407 -23.171690 55.340120
4451 3 -15.850386 -20.233865 57.395148
4452 3 -21.844318 -9.784107 52.478196
4453 2 48.518659 -5.824748 58.125904
4454 3 48.854066 0.802581 47.399767
4455 3 58.805027 -5.598296 58.611244
4456 2 35.280237 -19.642897 24.378024
4457 3 39.099046 -27.743345 35.388008
4458 3 38.215410 -31.393794 38.369223
4459 2 66.954017 41.146042 54.059236
4460 3 64.932440 43.569603 58.692106
4461 3 77.092290 53.213713 72.808989
4462 2 -31.440162 67.761544 44.892630
4463 3 -25.550078 49.272473 36.663428
4464 3 -26.411555 47.679321 31.322309
4465 2 54.597986 65.800336 47.061505
4466 3 61.390263 77.610070 48.065884
4467 3 57.271044 58.860040 52.280561
4468 2 10.806253 69.432525 8.811296
4469 3 29.403373 68.663823 17.869196
4470 3 19.749248 80.325072 19.691568
4471 2 -14.262419 -41.824621 103.780492
4472 3 -5.922177 -25.301035 85.804999
4473 3 -10.638354 -31.989111 97.472263
4474 2 63.916347 30.974308 20.240790
4475 3 63.863879 30.102393 16.718083
4476 3 63.868908 37.176707 14.028229
4477 2 -45.908033 55.962773 93.909180
4478 3 -46.467890 48.482529 101.313008
4479 3 -46.281257 54.315457 87.299063
4480 2 13.834605 6.719867 121.129005
4481 3 16.035089 -0.921076 129.005095
4482 3 20.307985 -6.084884 124.287958
4483 2 88.032025 78.611127 12.359383
4484 3 80.817326 65.636966 23.314046
4485 3 81.194228 74.287147 26.407879
4486 2 -12.996382 10.969377 -13.099369
4487 3 0.015727 1.799113 -2.657135
4488 3 -1.474491 12.891324 13.781267
4489 2 -32.011709 58.735137 48.944266
4490 3 -45.885072 35.271682 43.484669
4491 3 -36.394703 52.403765 40.715340
4492 2 37.615846 -32.858362 34.874284
4493 3 37.178793 -30.556525 28.554840
4494 3 42.080416 -26.168261 29.196297
4495 2 -48.052895 7.179063 55.627051
4496 3 -32.756948 5.780211 48.572261
4497 3 -49.470538 22.682286 43.867365
4498 2 23.691781 1.235139 99.147763
4499 3 21.192405 2.467672 99.639898
4500 3 22.166339 -1.940466 99.053613
4501 2 -11.070020 4.745342 75.399708
4502 3 -3.698134 15.764601 76.607954
4503 3 -8.878563 6.155929 59.620500
4504 2 46.633580 64.892039 77.841858
4505 3 40.170601 66.096021 83.001832
4506 3 52.344015 75.770009 55.606750
4507 2 3.558018 108.031295 90.339883
4508 3 -2.657430 120.505574 89.277276
4509 3 11.834501 101.569064 89.006871
4510 2 52.252070 86.408279 83.006085
4511 3 46.152804 72.633133 74.632402
4512 3 52.519916 92.386589 92.148351
4513 2 37.017768 -39.116852 116.249170
4514 3 37.812598 -38.508837 109.088831
4515 3 27.888481 -33.387004 115.660311
4516 2 41.039174 55.240558 137.747881
4517 3 33.157382 63.613557 140.006123
4518 3 34.103178 70.574055 134.472673
4519 2 8.121851 -2.570039 57.819095
4520 3 21.808874 -7.873086 45.014015
4521 3 7.329281 -13.574735 39.405180
4522 2 21.226584 81.505764 87.710273
4523 3 31.305132 75.251642 88.254820
4524 3 30.447686 68.548141 90.061881
4525 2 27.941741 105.159814 31.667196
4526 3 32.931420 117.222824 30.562433
4527 3 38.773205 110.113005 45.291847
4528 2 99.989520 -46.443934 54.090899
4529 3 104.092500 -47.787103 37.215015
4530 3 99.020365 -39.359281 40.556680
4531 2 12.984199 6.653425 59.695737
4532 3 15.398677 4.410638 30.422693
4533 3 18.798624 6.514413 40.258358
4534 2 22.269033 29.668471 97.820669
4535 3 19.016049 15.540073 104.900401
4536 3 19.694180 32.416097 109.568290
4537 2 -3.696370 -0.192907 111.317412
4538 3 -7.817169 -9.149368 115.993568
4539 3 -13.055577 -5.468305 135.435502
4540 2 -8.036251 42.009851 35.979837
4541 3 -15.300525 28.873886 21.396084
4542 3 -13.737843 35.298625 27.179987
4543 2 79.068951 4.271934 91.934896
4544 3 75.786886 11.571730 90.060266
4545 3 77.354303 -1.858386 98.712929
4546 2 112.477298 -34.051503 109.275904
4547 3 121.947108 -34.291545 93.529674
4548 3 129.816222 -33.552597 92.388048
4549 2 -29.419786 83.633596 112.627567
4550 3 -19.197031 88.566117 120.452445
4551 3 -24.859224 91.819644 108.660585
4552 2 10.232377 45.241014 163.860031
4553 3 15.183052 43.237692 170.731370
4554 3 12.725124 31.199292 171.152438
4555 2 16.172473 77.798249 75.509694
4556 3 13.443754 81.948027 64.521541
4557 3 16.111403 66.064320 76.023865
4558 2 51.337351 1.062887 12.412180
4559 3 49.062379 2.368584 6.546401
4560 3 42.620858 5.013706 0.427910
4561 2 -32.893159 44.085697 78.614773
4562 3 -30.822790 50.904290 86.181626
4563 3 -34.727736 55.972845 85.911488
4564 2 34.784154 63.131087 67.749725
4565 3 31.723472 57.855045 61.808256
4566 3 34.046677 60.326664 60.451921
4567 2 -34.396202 39.058688 48.063203
4568 3 -41.317323 45.547030 57.369171
4569 3 -47.170244 55.284008 58.313851
4570 2 0.054836 51.668661 109.154178
4571 3 13.348628 43.394182 122.937624
4572 3 -9.461045 32.573021 103.811306
4573 2 21.217926 76.160824 34.566431
4574 3 23.765820 93.075647 49.106249
4575 3 29.476498 79.597767 46.561445
4576 2 24.176286 9.210292 47.361817
4577 3 16.261288 -6.061277 39.206318
4578 3 28.957375 7.291950 43.380345
4579 2 -13.125543 101.302419 90.614980
4580 3 -8.014029 102.246856 77.042635
4581 3 -9.846772 95.612664 86.866928
4582 2 -30.344304 60.792866 39.470121
4583 3 -32.773103 50.302052 42.919336
4584 3 -30.840267 57.770113 41.553632
4585 2 51.977666 -4.553062 30.707952
4586 3 57.516096 -12.199887 60.065140
4587 3 63.976756 -13.811241 34.171788
4588 2 10.333160 -20.252468 60.207025
4589 3 -3.394798 -12.656981 79.337070
4590 3 1.823900 -27.583532 72.242314
4591 2 29.257479 80.456619 52.503055
4592 3 29.734086 85.689398 41.526561
4593 3 36.616100 85.666166 36.124602
4594 2 24.019975 78.912164 73.726556
4595 3 21.393711 70.900598 80.389109
4596 3 8.773829 69.386737 74.024339
4597 2 11.311847 65.209106 114.319572
4598 3 4.783304 76.511005 123.283576
4599 3 4.765839 63.271312 125.431633
4600 2 -32.961138 55.683930 27.700441
4601 3 -32.348598 49.599192 24.897761
4602 3 -40.782419 41.772983 29.122249
4603 2 -28.757483 43.310718 111.322809
4604 3 -22.176360 43.301973 119.835069
4605 3 -31.508018 50.448101 128.285238
4606 2 9.503537 68.754426 108.564710
4607 3 10.828216 61.002118 112.828248
4608 3 -0.738536 54.549158 116.867893
4609 2 -7.306539 98.713243 25.165130
4610 3 -5.220081 112.157289 30.997670
4611 3 -9.454756 103.941008 22.658796
4612 2 23.854723 45.418261 22.978396
4613 3 20.550683 45.534897 23.231520
4614 3 27.820997 52.659269 18.890716
4615 2 42.001261 73.906792 41.572141
4616 3 37.316279 90.422218 49.445429
4617 3 34.162892 79.677753 45.851771
4618 2 45.127738 139.903572 79.854618
4619 3 29.514190 118.310334 75.325610
4620 3 45.707115 116.622134 99.189768
4621 2 36.895566 47.891559 84.589994
4622 3 52.223870 57.325130 79.391798
4623 3 42.254198 51.538444 76.219951
4624 2 103.880675 113.175360 78.131462
4625 3 103.343015 122.898941 71.386310
4626 3 105.746255 116.926280 66.364425
4627 2 -20.628660 108.645176 43.422270
4628 3 -26.400096 103.713012 35.705380
4629 3 -26.407137 119.627724 43.073620
4630 2 102.022440 -12.907392 29.094618
4631 3 99.772345 -23.893008 13.306920
4632 3 100.268826 -15.586809 27.030994
4633 2 5.098166 24.417488 89.970157
4634 3 -8.284125 13.061892 95.071740
4635 3 -3.923640 23.548323 87.897973
4636 2 53.507911 -26.951756 35.331312
4637 3 49.025385 -18.760205 47.301025
4638 3 50.572118 -11.341799 49.810842
4639 2 3.655578 47.482173 106.360006
4640 3 3.848158 38.987412 121.720152
4641 3 9.774363 49.711237 106.900116
4642 2 17.140021 -12.684501 27.839905
4643 3 12.245581 -7.095389 23.520666
4644 3 16.726408 8.931073 6.225037
4645 2 90.349390 33.200527 68.995225
4646 3 84.383750 26.527611 72.370691
4647 3 80.780504 30.308748 69.299250
4648 2 -1.168929 -8.902979 80.932489
4649 3 -6.301001 -2.108093 119.932937
4650 3 6.848359 6.740568 105.569433
4651 2 -71.602785 -16.343693 47.061861
4652 3 -74.133239 -2.029422 52.786469
4653 3 -77.688157 -17.456153 54.988636
4654 2 -16.355097 -48.893952 28.833260
4655 3 0.267512 -49.368812 31.129704
4656 3 -3.058476 -47.010483 57.723787
4657 2 35.915894 45.464254 75.514699
4658 3 31.602218 48.696387 83.235818
4659 3 28.788704 39.998919 90.151367
4660 2 23.829014 37.823552 56.763975
4661 3 20.448312 34.740770 54.593683
4662 3 15.313400 26.761136 73.008245
4663 2 55.409112 -70.422769 47.132369
4664 3 57.370995 -75.217744 33.615982
4665 3 58.472763 -70.684815 27.062036
4666 2 28.522101 22.716257 49.344657
4667 3 29.877991 10.278740 46.931119
4668 3 35.800492 26.131703 44.612983
4669 2 20.500324 13.837318 78.037949
4670 3 24.589804 22.602974 73.246816
4671 3 31.917629 21.422773 77.056493
4672 2 -20.650250 39.999130 48.232736
4673 3 -24.416064 33.941765 51.727351
4674 3 -14.993509 39.095539 50.995625
4675 2 -32.986189 53.677071 87.668351
4676 3 -30.843357 56.379571 91.466735
4677 3 -36.784757 52.211123 82.497998
4678 2 54.596063 2.511244 53.437870
4679 3 58.913839 5.629947 45.022841
4680 3 59.831655 6.433267 50.206486
4681 2 33.432622 6.721730 21.875991
4682 3 38.752915 15.030465 25.330202
4683 3 36.567705 9.369592 27.325321
4684 2 -25.857069 43.436592 135.906639
4685 3 -26.928446 32.167329 146.143849
4686 3 -18.806732 21.092382 120.995285
4687 2 -37.025528 7.406210 118.995921
4688 3 -42.648542 3.182977 117.214085
4689 3 -33.174616 4.400829 121.165410
4690 2 71.723734 16.312575 84.922628
4691 3 75.393394 23.632082 77.682126
4692 3 75.488199 10.161166 81.016440
4693 2 2.702221 -33.334617 26.410855
4694 3 1.111332 -28.975215 21.715286
4695 3 14.130102 -37.272143 22.471074
4696 2 84.762137 5.002806 36.208788
4697 3 84.115099 -3.581970 28.097463
4698 3 95.407105 3.198014 33.035875
4699 2 18.432392 -9.829933 14.345918
4700 3 15.674688 -14.392463 15.452046
4701 3 11.005229 -10.194391 11.430105
4702 2 86.844875 34.682565 6.774863
4703 3 76.814395 41.311968 36.379538
4704 3 87.062456 40.570830 34.728619
4705 2 57.826704 -73.620861 9.181923
4706 3 52.034078 -65.927448 9.373000
4707 3 51.461792 -77.861382 -0.842207
4708 2 74.727017 -38.855183 66.630646
4709 3 80.772616 -26.487916 74.616917
4710 3 82.573940 -37.314863 70.810584
4711 2 -35.286890 36.243519 96.162648
4712 3 -30.372926 25.523782 106.023677
4713 3 -19.259702 34.523807 108.762503
4714 2 25.606779 -24.803015 85.373948
4715 3 34.923360 -27.034190 82.880396
4716 3 22.930180 -29.618538 75.208327
4717 2 0.403152 1.920040 139.253035
4718 3 -1.517071 6.861838 148.551172
4719 3 1.507406 1.860561 151.751724
4720 2 11.735477 57.410483 101.008490
4721 3 15.993737 35.401463 98.915705
4722 3 20.438609 39.690201 90.112208
4723 2 -22.491471 47.747989 79.684110
4724 3 -18.082837 56.342963 76.509851
4725 3 -25.299810 58.806985 82.944258
4726 2 17.580176 30.269132 65.131172
4727 3 16.981144 25.018632 67.713901
4728 3 10.493004 36.511427 70.692706
4729 2 -88.736631 79.804979 94.760404
4730 3 -88.877360 80.421250 87.472928
4731 3 -91.726954 80.747728 95.025260
4732 2 -5.779603 -3.577433 37.877360
4733 3 -2.373141 7.410892 28.370592
4734 3 3.219452 5.313057 49.080585
4735 2 3.107787 -38.954254 41.159028
4736 3 1.014977 -47.716380 31.752313
4737 3 6.818127 -45.180952 25.975123
4738 2 34.374750 12.501382 100.868958
4739 3 25.503853 8.097669 73.107529
4740 3 17.010075 5.734280 77.791356
4741 2 53.984157 -11.301436 159.303055
4742 3 45.578071 -19.303709 154.003342
4743 3 51.987144 -33.361692 138.623010
4744 2 103.841019 15.365521 61.312869
4745 3 90.201741 5.833867 61.413117
4746 3 81.611391 32.212279 71.098966
4747 2 64.123178 6.656817 21.579126
4748 3 60.283287 8.173644 42.125510
4749 3 62.346828 -4.884992 32.457476
4750 2 -70.646367 30.034331 79.923591
4751 3 -77.744705 21.745049 81.365754
4752 3 -74.275545 38.761275 69.296445
4753 2 -8.394709 32.426536 84.097666
4754 3 -0.665360 47.513706 95.148407
4755 3 2.447677 37.169493 75.217921
4756 2 13.720659 37.841208 75.826344
4757 3 21.218143 27.565353 78.146505
4758 3 10.804406 32.046535 73.350210
4759 2 22.897210 79.798072 19.067378
4760 3 27.792436 69.196384 11.618333
4761 3 34.217562 68.430445 27.738331
4762 2 24.983258 -50.936511 52.181118
4763 3 25.083583 -57.305007 57.960463
4764 3 25.072003 -48.948071 45.514605
4765 2 35.948725 18.056113 116.158434
4766 3 35.504447 4.530888 96.871231
4767 3 37.353983 12.922246 110.664212
4768 2 62.726741 -11.167028 -26.293993
4769 3 59.169425 3.279355 -25.995195
4770 3 53.213692 -10.602934 -24.162819
4771 2 30.285445 57.334127 77.590140
4772 3 38.377841 60.631860 94.799227
4773 3 38.804183 65.623088 71.548054
4774 2 90.572271 -0.140663 67.235194
4775 3 80.460889 -4.932977 87.301134
4776 3 74.821927 -0.276532 67.339571
4777 2 39.102915 -56.176355 4.965502
4778 3 48.593583 -57.719392 11.657831
4779 3 36.915799 -61.876023 -3.979397
4780 2 35.284892 1.943206 31.483618
4781 3 25.789193 2.980182 52.699750
4782 3 31.653203 2.071391 61.392770
4783 2 67.165957 -45.272748 2.245111
4784 3 62.936459 -46.234928 19.127187
4785 3 70.138082 -43.850550 8.080671
4786 2 38.700963 39.617972 47.461573
4787 3 46.327078 42.356571 47.572189
4788 3 34.931029 31.394965 52.335986
4789 2 -17.644783 56.804858 75.017900
4790 3 -21.274232 48.545461 56.376899
4791 3 -13.150147 41.913837 61.364520
4792 2 -33.699370 58.594102 93.639725
4793 3 -30.957457 49.817788 84.807429
4794 3 -28.234734 51.042360 83.833714
4795 2 -41.206409 -21.395875 72.916922
4796 3 -49.587429 -29.458677 70.280337
4797 3 -50.326050 -19.364587 69.078890
4798 2 -1.775666 71.120262 45.644346
4799 3 4.426471 60.029006 46.454185
4800 3 15.321882 75.526357 29.801042
4801 2 34.004400 -1.910413 38.152450
4802 3 32.348286 -1.057321 34.688128
4803 3 30.237549 -0.075980 27.812413
4804 2 29.078217 11.614806 70.988768
4805 3 28.545876 11.839932 77.952550
4806 3 28.871645 8.823470 67.616420
4807 2 73.686228 58.582072 125.887907
4808 3 82.643312 61.175029 110.731994
4809 3 76.563036 68.064018 122.204436
4810 2 128.502314 -23.690441 75.958966
4811 3 123.859956 -26.882630 68.577400
4812 3 134.607456 -18.178972 80.448883
4813 2 68.466683 55.425510 59.372693
4814 3 78.103400 59.684777 47.998749
4815 3 69.456391 58.196020 48.275262
4816 2 -39.105819 38.589620 107.376696
4817 3 -27.901152 52.079055 83.615033
4818 3 -35.540221 36.707102 90.495491
4819 2 15.671641 105.909925 70.423283
4820 3 4.658329 92.768224 79.006535
4821 3 14.733573 115.146117 87.747167
4822 2 -42.575096 -14.209346 107.880603
4823 3 -48.928713 -8.023776 114.541048
4824 3 -47.041994 -13.571124 119.840549
4825 2 29.460078 65.083138 142.470249
4826 3 22.184316 69.274260 139.681991
4827 3 22.618608 73.249736 134.458115
4828 2 126.753366 18.582602 72.230477
4829 3 127.569388 23.953398 68.719866
4830 3 130.366502 12.775808 79.108486
4831 2 51.035999 10.068113 147.529324
4832 3 40.980579 24.413072 144.678773
4833 3 48.487227 2.848173 127.926998
4834 2 4.883247 -43.692806 14.428245
4835 3 9.701948 -48.845716 25.585707
4836 3 10.807347 -35.769428 28.067505
4837 2 121.216400 -3.248069 114.765246
4838 3 122.673859 -3.254245 90.228652
4839 3 124.793461 -5.255578 108.430566
4840 2 21.762707 72.133239 30.161870
4841 3 31.293695 63.987366 29.610144
4842 3 13.836377 62.283247 39.614517
4843 2 -20.304691 1.353675 83.488879
4844 3 -5.800143 -13.279555 76.344441
4845 3 -12.408665 10.594754 82.796967
4846 2 20.566599 94.025861 78.669224
4847 3 13.743428 93.364080 86.351004
4848 3 11.211212 90.628236 84.708676
4849 2 32.427213 18.514438 85.159313
4850 3 48.470347 16.199382 92.156059
4851 3 47.487258 7.420185 88.205204
4852 2 -5.853862 61.518733 21.225130
4853 3 -12.117163 65.090163 29.803185
4854 3 -14.797355 52.452350 26.636921
4855 2 -18.486642 66.892494 99.629500
4856 3 -12.276508 67.678662 72.208570
4857 3 -22.076456 57.105097 77.966458
4858 2 108.675668 -9.314479 93.577667
4859 3 109.954252 -21.039673 81.193798
4860 3 114.114846 -10.075026 100.364294
4861 2 80.929990 84.402538 59.358158
4862 3 84.256819 95.566755 77.766510
4863 3 75.542750 87.389412 71.832611
4864 2 -55.830995 3.697778 66.357782
4865 3 -52.881357 4.161659 52.856703
4866 3 -53.205114 27.617309 74.674629
4867 2 -52.860201 65.703412 130.903639
4868 3 -59.307020 71.633193 130.060082
4869 3 -56.569634 55.773958 140.758216
4870 2 -27.636639 15.680589 24.229855
4871 3 -26.444713 26.505842 26.150672
4872 3 -24.413300 23.832656 28.671979
4873 2 -28.203284 100.434885 55.318495
4874 3 -26.778856 97.339802 44.006408
4875 3 -16.281377 91.224974 68.699006
4876 2 99.235235 20.358971 120.999732
4877 3 89.292689 27.833985 112.675450
4878 3 98.269296 14.392083 126.575612
4879 2 3.888695 75.478429 89.783080
4880 3 -6.006712 74.629551 84.323884
4881 3 3.757781 65.017034 83.975995
4882 2 50.519489 61.829672 97.464264
4883 3 55.898342 48.570547 109.793023
4884 3 51.650868 45.744025 110.013401
4885 2 33.208480 52.223743 71.547832
4886 3 33.417215 57.158799 56.536059
4887 3 40.368553 49.350884 63.231631
4888 2 -12.463878 -1.007267 102.606898
4889 3 -18.277743 4.276845 75.512609
4890 3 -20.429698 5.469685 82.633936
4891 2 11.371235 84.723827 99.243868
4892 3 10.510155 74.856254 96.702688
4893 3 10.628745 85.272831 107.500728
4894 2 -12.618518 28.776551 11.231443
4895 3 -9.388949 44.258595 4.238645
4896 3 -16.683361 25.124631 11.275583
4897 2 -3.943482 41.606918 4.522700
4898 3 -6.226011 45.124319 -0.394040
4899 3 -4.761413 53.588342 0.108243
4900 2 -35.722090 42.379596 56.561631
4901 3 -23.407296 44.188967 58.666274
4902 3 -24.671691 34.675691 61.223351
4903 2 -20.909294 74.563910 37.743222
4904 3 -1.170877 71.581020 39.976685
4905 3 -7.924564 65.622495 37.832932
4906 2 30.753566 50.424570 81.634130
4907 3 15.473905 41.422914 74.714120
4908 3 24.613367 53.190435 82.459005
4909 2 100.940416 39.612506 69.063331
4910 3 110.743202 32.527214 68.371396
4911 3 117.717025 33.325080 70.178567
4912 2 -22.724539 89.310230 89.628390
4913 3 -8.255805 91.885311 94.153430
4914 3 -17.155152 102.869403 79.007213
4915 2 31.321782 -7.725175 30.203203
4916 3 23.764537 1.309376 24.208142
4917 3 29.176594 -7.905272 44.668995
4918 2 14.894358 -20.468311 48.576392
4919 3 6.186025 -10.131837 34.727906
4920 3 13.831717 -12.987367 31.957730
4921 2 73.857097 25.583355 98.452529
4922 3 70.902301 30.120712 96.502362
4923 3 65.745745 18.568800 96.132078
4924 2 -3.868647 -11.343358 76.108485
4925 3 -11.784976 0.820972 61.161786
4926 3 -15.490813 -4.473669 64.575872
4927 2 81.403909 90.398416 113.838812
4928 3 81.079432 81.767042 114.759092
4929 3 75.012911 88.620077 104.485431
4930 2 63.405631 59.510343 69.830646
4931 3 56.288275 68.624950 73.765346
4932 3 62.758617 58.642182 76.800392
4933 2 82.579178 44.528615 44.758511
4934 3 72.473657 49.462234 33.802328
4935 3 75.598552 44.316812 39.653014
4936 2 28.171833 29.265326 40.956075
4937 3 20.187191 27.261962 43.621751
4938 3 13.563866 19.886189 27.524878
4939 2 -9.074381 31.592772 43.968796
4940 3 -16.012061 34.571340 38.240037
4941 3 -25.753381 19.564948 46.569737
4942 2 25.823353 120.217848 21.177633
4943 3 19.124520 130.306643 20.435786
4944 3 29.335892 141.904288 37.383041
4945 2 -16.797927 25.735176 156.954824
4946 3 -9.610869 15.509577 146.425413
4947 3 2.079305 18.513686 143.156709
4948 2 56.745162 0.293640 7.391454
4949 3 50.546568 10.492717 5.241508
4950 3 49.177973 2.757006 5.582987
4951 2 52.246927 52.198222 57.790241
4952 3 50.504933 56.956863 46.723445
4953 3 50.124598 63.331369 49.677685
4954 2 31.801579 106.068551 110.936799
4955 3 49.557399 97.286169 117.011531
4956 3 42.130557 101.968389 125.077628
4957 2 -26.951374 62.813697 89.149125
4958 3 -40.063827 64.697352 99.686839
4959 3 -43.106433 59.393053 102.033095
4960 2 44.473269 48.376861 104.712793
4961 3 47.048083 49.305354 106.459461
4962 3 55.285583 46.296347 101.951465
4963 2 -16.854333 72.108460 56.362071
4964 3 -18.270764 74.451725 47.558618
4965 3 -32.007145 71.630221 51.979432
4966 2 10.837146 53.463656 -5.283216
4967 3 11.267860 34.487711 -5.196862
4968 3 13.919274 47.613293 14.788181
4969 2 -17.637647 40.612938 86.660790
4970 3 -12.766478 29.682152 80.175434
4971 3 -10.808136 23.036899 70.638522
4972 2 -19.884814 36.171740 76.081397
4973 3 -11.094763 34.450411 65.794317
4974 3 -8.967254 37.160060 65.381857
4975 2 24.716406 -34.629692 49.116532
4976 3 18.541609 -25.569147 40.862248
4977 3 25.522360 -32.774590 40.669081
4978 2 64.403803 -5.595165 90.080904
4979 3 68.138006 -3.046074 87.822086
4980 3 62.601142 -9.206320 94.157208
4981 2 8.443239 71.552873 61.910064
4982 3 8.759312 79.859813 59.957087
4983 3 5.316161 81.673468 79.523954
4984 2 61.523528 -3.108583 110.069707
4985 3 54.424189 -24.870780 107.254481
4986 3 54.413414 -21.497668 99.260761
4987 2 6.563324 19.243791 77.121272
4988 3 12.420373 20.991100 54.791237
4989 3 12.629833 29.450311 79.720151
4990 2 -33.421525 38.415615 45.726962
4991 3 -20.658502 45.134021 49.262003
4992 3 -23.038340 40.590569 56.925504
4993 2 47.505900 95.949150 17.401513
4994 3 51.217760 95.483488 17.633630
4995 3 37.700363 90.844730 11.527857
4996 2 59.150509 82.439228 4.779669
4997 3 50.357506 73.697547 25.549216
4998 3 53.435766 71.336835 9.189481
4999 2 -25.486650 67.970322 92.678376
5000 3 -13.338706 66.708488 90.687781
5001 3 -13.918086 49.063888 86.468075
5002 2 38.617650 62.201299 64.960429
5003 3 38.614588 70.178865 49.355094
5004 3 37.108388 47.961908 58.651683
5005 2 44.277941 61.390261 79.469498
5006 3 38.483340 47.822770 74.929489
5007 3 31.665967 56.600444 66.040906
5008 2 44.232116 37.023497 36.701852
5009 3 36.395306 59.856981 41.564509
5010 3 41.400726 50.155899 39.734407
5011 2 -4.608087 65.889536 81.598532
5012 3 -16.163296 52.352797 76.720588
5013 3 0.830994 62.507202 96.739245
5014 2 -7.116946 37.333389 58.016944
5015 3 -22.442158 41.524144 72.593002
5016 3 -23.608081 49.297036 62.653124
5017 2 55.461081 52.671881 65.266626
5018 3 46.834128 57.547736 51.585953
5019 3 45.405399 38.498421 44.939550
5020 2 108.338070 0.867186 24.236197
5021 3 106.665371 22.279634 14.454839
5022 3 93.789081 12.853933 25.251546
5023 2 24.859766 83.041583 84.597283
5024 3 24.921608 72.863379 81.497094
5025 3 24.255625 74.142451 83.936250
5026 2 25.499002 115.586517 90.929896
5027 3 23.405908 116.906157 105.910744
5028 3 24.352585 125.888544 96.535834
5029 2 -40.322839 40.764605 22.512697
5030 3 -46.825386 49.791185 12.944914
5031 3 -40.996364 48.383853 21.643746
5032 2 -31.848432 70.123951 49.420893
5033 3 -32.474419 68.897642 42.549609
5034 3 -41.004444 61.131602 62.080087
5035 2 33.522016 70.692668 -1.245301
5036 3 36.274398 67.971553 -4.365608
5037 3 39.126913 60.756679 -13.054579
5038 2 -27.766900 75.583460 34.744278
5039 3 -7.958156 72.837411 34.690602
5040 3 -19.969678 68.147683 54.784017
5041 2 -40.946879 83.606267 130.187389
5042 3 -24.782401 105.058120 117.341992
5043 3 -24.693799 88.058073 115.701855
5044 2 47.428190 5.999534 135.728719
5045 3 45.928163 22.820898 140.751010
5046 3 49.540877 5.784394 148.308190
5047 2 -18.827043 24.354600 70.901621
5048 3 -25.850041 32.147417 74.006386
5049 3 -30.780549 14.839695 85.080404
5050 2 -17.824899 32.025882 2.651268
5051 3 -23.211933 20.345956 6.797944
5052 3 -12.517881 31.963473 12.048586
5053 2 -62.389640 94.632847 46.333901
5054 3 -56.463520 97.473349 38.682870
5055 3 -49.831541 109.035173 33.469349
5056 2 60.102601 2.609678 76.930859
5057 3 59.820171 -12.715054 76.346152
5058 3 56.625346 -5.427608 74.151633
5059 2 95.673562 -19.416966 47.494334
5060 3 89.298001 -21.207981 45.511178
5061 3 91.771623 -10.083056 51.576326
5062 2 59.819671 29.084131 83.052279
5063 3 61.746397 36.614614 71.180195
5064 3 47.568890 31.227359 78.704379
5065 2 60.475717 95.361656 73.674167
5066 3 48.021543 94.557783 67.806575
5067 3 47.425802 106.638225 57.756758
5068 2 -21.431704 -1.779730 85.944203
5069 3 -5.091896 -7.170455 74.597404
5070 3 -21.702767 9.354942 81.378933
5071 2 11.709746 -38.136742 72.889904
5072 3 7.621507 -25.768776 76.261712
5073 3 18.328422 -32.708095 84.918098
5074 2 -43.764453 -41.583325 46.032674
5075 3 -39.747632 -45.681484 37.183415
5076 3 -41.813237 -32.247853 34.739936
5077 2 41.070044 -74.173970 104.086569
5078 3 30.280651 -79.325129 109.360948
5079 3 43.481922 -81.585473 113.663124
5080 2 32.343382 -23.175157 -4.912023
5081 3 35.808973 -19.045225 20.202677
5082 3 34.332863 -9.937817 0.559090
5083 2 21.283797 -5.474289 156.902274
5084 3 31.531783 14.474146 170.336005
5085 3 26.433713 11.169463 161.426193
5086 2 18.207750 -21.547743 46.554800
5087 3 21.942336 -30.128357 51.981298
5088 3 24.524453 -17.290715 46.840655
5089 2 17.105309 -47.821731 70.840379
5090 3 0.845695 -40.888368 52.823766
5091 3 5.675083 -38.962715 71.020648
5092 2 -0.228411 6.397837 96.612560
5093 3 10.540801 13.907498 102.049656
5094 3 11.110680 12.883325 116.032861
5095 2 94.330641 48.509792 35.694821
5096 3 81.190968 60.054827 38.465494
5097 3 88.985639 51.741839 33.026637
5098 2 -1.093951 -38.821798 78.960743
5099 3 0.844738 -41.439896 74.066460
5100 3 -9.821561 -38.802827 85.853264
5101 2 74.613016 44.474594 65.012559
5102 3 76.470949 47.026871 49.029915
5103 3 83.101030 39.210824 60.510127
5104 2 33.331647 -20.071529 59.867905
5105 3 41.228556 -32.124847 70.282487
5106 3 30.091343 -15.934109 71.174065
5107 2 -94.559269 48.936088 169.811773
5108 3 -100.582609 47.107543 169.809023
5109 3 -107.930407 55.017218 193.252823
5110 2 15.558104 4.163097 84.893138
5111 3 3.029039 6.611059 78.168998
5112 3 6.598008 14.663506 79.248719
5113 2 48.114955 -22.077890 57.786955
5114 3 45.126524 -24.203449 52.188416
5115 3 39.248493 -19.140746 47.558191
5116 2 79.234496 30.177243 4.242321
5117 3 81.158442 26.500314 10.928805
5118 3 78.400781 32.644771 2.287830
5119 2 82.749690 8.539429 29.214046
5120 3 85.390238 17.552219 26.980983
5121 3 92.004235 18.089641 42.996446
5122 2 4.620352 21.140036 39.054215
5123 3 2.602599 28.274637 34.430699
5124 3 2.859629 16.353002 28.496462
5125 2 42.870697 56.982341 64.839736
5126 3 35.191255 55.773673 56.951804
5127 3 32.267883 52.168380 53.862248
5128 2 -33.951493 60.003893 121.710179
5129 3 -44.810585 67.768211 117.098088
5130 3 -30.615204 57.813126 118.285631
5131 2 119.435832 46.256677 73.828719
5132 3 120.858232 33.609211 67.403589
5133 3 105.823725 40.305009 60.967121
5134 2 -29.301588 -0.405227 24.059984
5135 3 -39.775881 -9.101173 17.372352
5136 3 -19.052581 -7.435739 16.250887
5137 2 88.141743 -69.254791 136.545724
5138 3 94.932637 -61.879634 127.893997
5139 3 92.889032 -57.124943 134.472322
5140 2 38.676038 -16.162956 93.245255
5141 3 42.398298 -18.663380 96.522004
5142 3 46.083971 -6.628853 97.672760
5143 2 -5.978940 -75.080290 90.302579
5144 3 -9.181896 -82.136910 87.125284
5145 3 -0.925682 -73.754902 106.270774
5146 2 3.661138 -15.823486 13.374070
5147 3 9.292467 -9.876952 25.593304
5148 3 2.354081 -22.566784 22.687280
5149 2 12.322375 56.081165 92.110299
5150 3 2.958301 63.041948 72.739790
5151 3 9.697020 59.499878 86.189201
5152 2 -76.612174 15.063198 89.228956
5153 3 -60.798478 18.179543 77.160168
5154 3 -72.641991 20.000539 85.684260
5155 2 67.472785 35.942769 41.563000
5156 3 66.453971 41.134683 45.666345
5157 3 71.266349 34.302583 41.729820
5158 2 -3.863406 -13.782125 96.026423
5159 3 -6.675889 -4.155451 100.919525
5160 3 -0.269751 -3.073176 102.751781
5161 2 -54.968889 72.782314 106.071421
5162 3 -57.088380 66.656383 135.318039
5163 3 -75.016408 59.471249 114.737587
5164 2 -45.848977 10.658386 58.544396
5165 3 -40.507765 -7.104487 77.042926
5166 3 -48.540441 -8.206952 65.860522
5167 2 62.039631 59.943870 73.236239
5168 3 64.650121 55.856852 73.952959
5169 3 55.905349 58.238630 45.734893
5170 2 -5.280868 -4.203143 77.619782
5171 3 -22.969661 5.186991 75.070008
5172 3 -4.715393 8.856890 79.966832
5173 2 59.956471 -6.551579 70.268560
5174 3 67.888247 -1.849544 58.712223
5175 3 64.546999 -9.634818 79.467768
5176 2 32.101892 98.423738 57.999691
5177 3 31.829156 94.382265 64.849257
5178 3 30.942083 78.729675 68.792819
5179 2 60.787102 -44.220467 67.563593
5180 3 71.467495 -53.966664 70.918393
5181 3 72.742542 -51.453973 74.727862
5182 2 114.833962 -76.022066 101.549965
5183 3 110.631918 -64.119978 90.198017
5184 3 116.542446 -75.181923 113.487694
5185 2 -47.602276 19.450343 106.507057
5186 3 -43.660953 33.617726 108.212854
5187 3 -52.127552 14.089728 115.186969
5188 2 -23.390635 126.635546 130.475771
5189 3 -23.903616 122.049204 119.942725
5190 3 -28.862724 127.362326 124.939028
5191 2 -21.376549 58.194214 66.110017
5192 3 -23.974421 59.520936 58.603116
5193 3 -21.370436 47.786899 54.637163
5194 2 24.468774 128.846256 86.089621
5195 3 25.979724 129.298911 72.434068
5196 3 28.642668 127.077648 100.616483
5197 2 4.534695 19.703641 64.926574
5198 3 2.299154 29.491760 75.851913
5199 3 -2.027153 33.530403 68.612352
5200 2 13.966335 74.200733 61.025779
5201 3 6.121074 64.232014 75.620381
5202 3 15.458308 68.293770 76.128703
5203 2 55.162076 -13.624916 41.564656
5204 3 48.475237 -16.118347 63.735622
5205 3 54.475551 -21.041273 49.164467
5206 2 61.394900 4.887968 59.231884
5207 3 65.289635 5.983456 35.081005
5208 3 58.223154 2.434029 40.240722
5209 2 -11.821110 -7.618977 6.868418
5210 3 -23.965384 9.569984 -5.542479
5211 3 -21.993699 -7.406397 1.527467
5212 2 4.016809 20.073813 57.382191
5213 3 -7.239847 18.221149 51.576829
5214 3 8.368241 25.702071 65.602996
5215 2 29.346174 -15.180239 119.293889
5216 3 32.108897 -19.005032 127.397803
5217 3 24.349568 -10.938008 116.024474
5218 2 46.042691 -61.470457 66.596280
5219 3 44.079421 -67.044142 53.329039
5220 3 35.562771 -56.649452 60.614771
5221 2 58.466218 -25.433860 95.167929
5222 3 61.170490 -30.164384 112.308565
5223 3 60.629069 -41.460148 130.014709
5224 2 -8.755647 -3.480084 79.392831
5225 3 -17.825685 -18.332216 85.523172
5226 3 -11.332160 -16.526973 71.401828
5227 2 32.638435 88.504623 99.566174
5228 3 34.885767 71.038379 91.843754
5229 3 21.840741 97.103832 101.088376
5230 2 41.406910 45.297553 115.194497
5231 3 31.264963 47.198651 104.281355
5232 3 37.127287 31.771194 100.991385
5233 2 21.713605 15.809637 51.954909
5234 3 20.732030 22.188784 42.793728
5235 3 19.571850 17.514228 54.615067
5236 2 8.476833 34.598374 34.143450
5237 3 8.742322 23.889964 26.479010
5238 3 2.235170 36.037422 24.493692
5239 2 27.961430 49.596988 88.523210
5240 3 18.850998 55.896284 91.069372
5241 3 24.518271 64.018424 80.138936
5242 2 -19.769226 81.231551 71.259256
5243 3 -20.635235 83.896615 67.629037
5244 3 -14.918403 78.101480 69.533804
5245 2 79.980511 7.865562 55.214459
5246 3 73.222772 0.114005 76.475549
5247 3 85.865341 3.502124 57.474952
5248 2 87.983643 52.825867 17.526850
5249 3 90.102875 37.589462 2.638951
5250 3 84.307759 50.421699 13.365145
5251 2 -26.538026 24.220449 40.706940
5252 3 -32.410387 36.611220 29.862289
5253 3 -33.629468 28.823992 30.438069
5254 2 33.670831 6.786514 74.402655
5255 3 29.774819 10.638710 85.163156
5256 3 28.253934 16.304500 82.776799
5257 2 100.541409 84.731254 18.742311
5258 3 111.088244 95.947371 32.206152
5259 3 110.825860 92.866839 19.346118
5260 2 77.618123 42.107502 74.076904
5261 3 87.688216 41.762274 87.253943
5262 3 76.220385 37.412408 82.638425
5263 2 7.552946 21.156777 77.751389
5264 3 7.166617 7.016963 66.612587
5265 3 15.264402 6.603858 85.900413
5266 2 19.522086 21.807355 78.750813
5267 3 19.868142 5.967717 80.043605
5268 3 15.536942 13.368710 84.864039
5269 2 -5.425511 28.477780 149.245796
5270 3 -10.159060 30.160840 163.668585
5271 3 -13.137992 20.018803 155.211533
5272 2 67.885920 7.410422 46.435462
5273 3 56.090303 4.184986 55.758524
5274 3 63.295299 7.727725 44.762677
5275 2 29.040058 90.822091 107.896158
5276 3 35.680534 75.917369 106.649984
5277 3 26.024137 80.119289 108.646424
5278 2 -16.513426 28.903835 94.664165
5279 3 -14.715941 34.808488 90.358709
5280 3 -15.461901 38.685117 92.705224
5281 2 69.865684 11.448400 39.596342
5282 3 66.911338 1.853805 26.360445
5283 3 68.328226 2.237054 33.768285
5284 2 38.685535 62.622602 70.275198
5285 3 42.534175 65.501260 64.251873
5286 3 31.326713 62.159115 70.464273
5287 2 88.271478 33.799929 49.610383
5288 3 81.660642 27.714267 41.699437
5289 3 88.937891 35.533753 45.041713
5290 2 5.874503 16.235041 68.632285
5291 3 6.035150 6.342891 72.835629
5292 3 11.217395 11.080152 71.021829
5293 2 3.126181 44.459994 118.490824
5294 3 -3.577346 54.306365 92.651068
5295 3 0.000112 37.906914 106.087133
5296 2 16.630980 15.248850 102.038428
5297 3 12.469212 15.812490 96.122040
5298 3 11.820423 14.442929 93.623225
5299 2 67.047870 39.622160 141.457231
5300 3 60.370115 63.034471 108.086488
5301 3 76.181290 49.359326 117.308899
5302 2 -43.529271 72.966719 9.112881
5303 3 -33.525044 56.871833 29.537600
5304 3 -40.297622 61.780395 31.044004
5305 2 6.628334 -21.935460 45.513012
5306 3 6.635068 -28.735645 62.076175
5307 3 8.391652 -8.340371 50.402386
5308 2 7.671262 -16.037616 139.073656
5309 3 22.352667 -0.528993 134.587978
5310 3 6.500079 3.248062 122.140713
5311 2 46.689326 107.424583 37.382979
5312 3 53.631757 102.445028 25.904365
5313 3 46.904270 113.203694 49.321872
5314 2 33.857286 65.227070 101.627185
5315 3 32.854402 67.504949 86.450832
5316 3 40.643117 64.296644 82.559848
5317 2 -11.101606 -19.797681 11.743212
5318 3 -0.975876 -21.057379 8.952367
5319 3 -13.152612 -15.875192 12.086931
5320 2 34.226018 85.672126 73.821776
5321 3 27.633877 92.301049 78.180576
5322 3 24.690282 81.397829 81.199786
5323 2 -1.726911 14.312203 92.652147
5324 3 -13.468053 19.872836 105.573612
5325 3 -12.480779 35.960518 96.284909
5326 2 7.069630 67.038683 67.107314
5327 3 7.126343 70.119280 72.437731
5328 3 6.504593 72.798404 58.353872
5329 2 18.618077 23.966238 47.045909
5330 3 27.304490 32.104255 77.143811
5331 3 11.191460 20.781579 61.335279
5332 2 -2.791326 70.208271 114.330292
5333 3 -10.778947 58.804275 123.373971
5334 3 -1.731692 74.621322 122.009586
5335 2 49.924469 33.480276 51.920557
5336 3 49.832675 35.222596 46.400283
5337 3 42.241236 26.506716 42.108219
5338 2 19.818691 16.662209 60.423215
5339 3 15.441439 7.957793 68.218150
5340 3 19.454319 11.856530 73.343531
5341 2 74.810341 47.031725 98.660969
5342 3 64.238089 48.115899 101.635544
5343 3 68.688514 55.723811 94.187524
5344 2 31.121787 52.713062 55.069473
5345 3 44.009476 37.590157 49.542974
5346 3 47.414956 61.034401 55.413092
5347 2 -38.812937 64.425143 82.622584
5348 3 -24.869524 55.978148 86.916332
5349 3 -26.223381 54.693648 106.182833
5350 2 -14.417534 48.492406 72.492191
5351 3 -22.881583 44.005067 91.784912
5352 3 -7.946120 52.736731 71.843816
5353 2 -28.749854 5.239731 101.644244
5354 3 -25.185935 5.673562 113.537855
5355 3 -18.039061 11.430118 104.677006
5356 2 -2.981115 18.374645 68.708398
5357 3 -4.134893 27.889861 58.620680
5358 3 3.465691 25.616718 72.416147
5359 2 60.224648 67.279682 82.094168
5360 3 71.502954 57.535994 98.027706
5361 3 60.635875 56.105396 98.290791
5362 2 25.859412 93.924852 87.004024
5363 3 45.747135 74.757750 87.030387
5364 3 33.090296 78.597580 83.297811
5365 2 -0.027089 112.902824 108.797774
5366 3 -8.471747 110.892749 107.184032
5367 3 -17.036285 108.384764 101.616769
5368 2 16.311354 43.685123 101.190036
5369 3 9.041777 35.686402 104.052037
5370 3 15.380494 32.590109 96.557108
5371 2 -42.073957 47.137275 77.114330
5372 3 -37.485859 38.050241 58.072795
5373 3 -33.424736 50.164550 72.769530
5374 2 6.739177 110.535980 95.947694
5375 3 4.431864 116.084609 76.547470
5376 3 -11.902650 93.911753 91.247713
5377 2 6.985954 -7.342031 67.735619
5378 3 4.302248 9.838419 63.113513
5379 3 9.687729 4.785077 84.763468
5380 2 5.498685 15.274353 96.085321
5381 3 -3.854854 26.269494 66.730041
5382 3 10.938454 23.414524 95.729295
5383 2 97.245361 73.996703 -11.858430
5384 3 92.439460 75.225274 16.169940
5385 3 91.339960 69.719023 8.289924
5386 2 -39.384780 103.248499 107.054335
5387 3 -28.726316 104.574381 98.395956
5388 3 -36.739548 104.084004 103.651496
5389 2 44.882099 -9.259882 67.360232
5390 3 45.797655 7.006965 66.489311
5391 3 38.552713 11.406853 63.055533
5392 2 -39.596895 103.190890 22.452674
5393 3 -48.466816 88.677032 25.711283
5394 3 -50.748765 114.489284 35.939595
5395 2 18.318627 95.761658 183.854549
5396 3 21.345625 104.416408 149.890960
5397 3 8.976248 99.557339 160.538767
5398 2 -5.924898 12.315374 82.016030
5399 3 -1.682725 25.681535 76.306822
5400 3 3.590834 14.187276 78.170391
5401 2 112.247767 26.106372 60.069869
5402 3 114.412695 31.384861 64.073948
5403 3 115.490823 37.638566 74.581941
5404 2 -46.288097 6.487824 37.539265
5405 3 -45.105612 11.300844 40.477326
5406 3 -59.788483 10.221987 19.598064
5407 2 8.175190 54.878829 88.446889
5408 3 11.910640 52.618503 77.326912
5409 3 14.647291 61.250184 83.090506
5410 2 2.084238 51.357633 53.513337
5411 3 -2.495512 62.609994 60.740986
5412 3 -12.887785 62.629197 47.823331
5413 2 11.846056 43.693733 54.332492
5414 3 17.259415 51.530781 75.062576
5415 3 20.295540 45.104749 68.630504
5416 2 -9.542715 -5.910419 95.448081
5417 3 0.178500 3.081266 92.155395
5418 3 -1.857400 -13.827331 97.421761
5419 2 30.355656 41.152762 53.165250
5420 3 36.936132 56.027037 42.546154
5421 3 36.389383 58.571060 46.709825
5422 2 21.895037 49.366023 57.312607
5423 3 23.327704 52.959512 48.946635
5424 3 12.922969 39.548897 52.169258
5425 2 1.384234 16.014853 64.541750
5426 3 -6.291256 26.305943 55.984062
5427 3 -4.441066 7.612319 69.221171
5428 2 5.533060 56.408171 83.156332
5429 3 8.450285 59.185469 76.075880
5430 3 4.173794 49.841997 73.896898
5431 2 -55.595720 40.049652 84.934317
5432 3 -50.929149 56.860422 62.047455
5433 3 -47.223550 42.668884 89.994735
5434 2 -47.420234 -12.928990 42.472031
5435 3 -51.147760 -20.297066 40.433026
5436 3 -52.423257 -25.012940 56.049464
5437 2 26.877557 76.508865 37.743699
5438 3 23.280021 72.304360 23.581640
5439 3 20.521670 72.701040 37.095766
5440 2 -36.527494 67.945672 41.503374
5441 3 -43.915769 57.248454 63.269061
5442 3 -43.006451 59.802120 51.570618
5443 2 -3.233951 12.750367 109.265894
5444 3 5.941180 6.948089 117.929393
5445 3 3.096434 15.014452 101.833383
5446 2 89.286514 133.084405 116.640264
5447 3 80.618484 126.977954 100.659051
5448 3 89.444047 125.912643 102.094946
5449 2 -58.997351 54.686787 34.490680
5450 3 -49.789099 56.829675 32.161926
5451 3 -49.918489 62.934948 25.398186
5452 2 34.202087 36.462410 50.523517
5453 3 45.823252 34.522222 40.920544
5454 3 42.813607 51.944946 53.944709
5455 2 -32.016580 30.309654 58.295348
5456 3 -28.240709 37.950050 55.208158
5457 3 -34.830343 32.189537 56.705301
5458 2 -3.594981 22.401981 136.721707
5459 3 -6.813418 34.591332 151.431670
5460 3 -10.882847 46.045176 133.083166
5461 2 55.612211 43.170443 83.883007
5462 3 53.368169 47.807333 78.893251
5463 3 55.472389 58.277165 81.309569
5464 2 18.852479 73.088848 38.412001
5465 3 18.655756 62.022957 49.739446
5466 3 17.730091 50.683790 27.899752
5467 2 -7.272188 80.253190 103.861624
5468 3 -12.215043 78.071782 87.327414
5469 3 -6.607761 81.470677 101.972279
5470 2 -55.663872 56.536780 114.237572
5471 3 -52.324754 71.428201 121.144089
5472 3 -51.224373 59.926598 110.667496
5473 2 -2.601926 21.122881 129.908759
5474 3 -13.889634 36.775301 111.075122
5475 3 -17.534125 4.956023 118.455701
5476 2 45.831448 37.101569 87.920701
5477 3 33.301567 31.487833 83.458604
5478 3 42.760683 32.381330 83.988671
5479 2 59.825187 79.874531 164.878068
5480 3 52.392536 80.214236 142.583017
5481 3 57.066185 85.094279 165.878806
5482 2 46.559120 37.610290 37.846792
5483 3 51.251621 26.803158 66.709615
5484 3 50.269585 38.072697 51.398502
5485 2 33.116190 70.065217 37.476322
5486 3 32.194979 82.501269 62.967560
5487 3 39.478842 87.921896 46.722407
5488 2 62.349706 72.871970 74.143219
5489 3 60.851362 74.428581 78.080508
5490 3 64.638822 84.927747 80.590021
5491 2 66.597941 51.440483 53.576364
5492 3 71.733274 57.388722 49.758854
5493 3 68.384854 60.413059 49.557080
5494 2 17.544208 67.407847 75.282009
5495 3 16.004686 49.941770 93.401928
5496 3 21.156786 56.145232 77.394671
5497 2 66.948141 121.079330 -55.420762
5498 3 69.885420 114.775368 -59.545026
5499 3 74.446935 123.126541 -36.724830
5500 2 -39.447268 45.112636 87.491961
5501 3 -35.934970 44.175138 84.773441
5502 3 -45.153101 59.347113 77.356665
5503 2 -3.016993 104.343108 56.966448
5504 3 -14.001503 104.688861 71.726546
5505 3 -7.788796 92.431555 57.108983
5506 2 22.756423 17.285278 59.953069
5507 3 20.503069 20.779790 83.527083
5508 3 21.368803 22.272192 67.591225
5509 2 65.567560 30.976944 97.960487
5510 3 64.180040 35.987394 94.653357
5511 3 67.147257 25.560059 103.116608
5512 2 28.297081 87.686549 124.570888
5513 3 28.711095 79.074527 116.044559
5514 3 32.803102 80.919806 107.795200
5515 2 -31.322552 85.606154 145.256284
5516 3 -32.845698 86.480682 138.122618
5517 3 -32.531444 79.734378 133.113888
5518 2 -17.388011 89.070671 93.368305
5519 3 -16.699843 96.792706 98.772814
5520 3 -17.041108 96.135919 101.252791
5521 2 -16.474296 156.396837 71.925248
5522 3 -13.364383 148.835883 66.097710
5523 3 -3.904828 146.036265 63.521180
5524 2 40.722937 34.446891 107.015467
5525 3 35.311233 49.634590 96.112233
5526 3 48.561646 42.321584 94.513280
5527 2 29.589013 133.090927 25.497986
5528 3 38.592684 130.247475 24.338070
5529 3 26.532644 136.997410 21.465974
5530 2 73.242782 70.778386 90.425998
5531 3 65.404530 89.276773 88.761334
5532 3 66.677500 73.214249 80.322208
5533 2 72.213905 103.041507 86.264807
5534 3 67.689032 104.713173 107.259786
5535 3 56.089690 94.166622 98.393954
5536 2 116.579582 53.837818 -7.576440
5537 3 103.025076 35.242381 0.213137
5538 3 106.639297 50.764966 -0.925475
5539 2 116.249398 60.383346 113.880652
5540 3 124.797615 58.534243 130.452670
5541 3 118.013549 53.100790 125.472864
