ITEM: TIMESTEP
601000
ITEM: NUMBER OF ATOMS
5541
ITEM: BOX BOUNDS pp pp pp
-19.1 19.1
-19.1 19.1
-19.1 19.1
ITEM: ATOMS id type xu yu zu
1 1 53.926543 -2016.664652 -2432.414242
2 1 139.342204 -2062.945641 -2349.238303
3 1 63.768849 -2015.647182 -2472.180952
4 1 83.732108 -1991.697758 -2420.236695
5 1 73.275554 -1964.703829 -2481.072911
6 1 172.519887 -2029.459726 -2447.202486
7 1 147.973997 -1955.640373 -2409.258658
8 1 161.819333 -2009.543817 -2490.799774
9 1 152.195465 -1960.428993 -2448.717003
10 1 138.553322 -1899.365426 -2497.971147
11 1 49.348303 -2109.811326 -2452.439380
12 1 25.952063 -2034.199571 -2454.721194
13 1 78.635192 -2000.781527 -2441.830082
14 1 103.441462 -1954.710601 -2516.789838
15 1 172.660590 -1932.160580 -2388.860795
16 1 173.979786 -2005.480989 -2576.021935
17 1 47.604063 -2006.502839 -2489.761754
18 1 71.520160 -1980.181061 -2420.983326
19 1 97.165784 -1976.350311 -2458.517820
20 1 67.141039 -2080.971840 -2524.104691
21 1 40.792879 -1885.218387 -2424.492253
22 1 131.211612 -1939.762600 -2551.265332
23 1 186.890544 -2050.886576 -2431.516455
24 1 98.605938 -1962.722650 -2533.421778
25 1 51.489024 -2016.031424 -2536.806562
26 1 142.023030 -2058.484826 -2468.700515
27 1 38.643747 -2079.962519 -2567.606178
28 1 61.870176 -2025.435821 -2478.675368
29 1 42.071977 -1952.695243 -2605.220237
30 1 80.102160 -1937.704184 -2568.783841
31 1 196.866713 -2075.982889 -2667.220979
32 1 90.916444 -1853.761940 -2497.233373
33 1 69.744670 -1988.002266 -2551.575321
34 1 65.088686 -2002.655547 -2627.024269
35 1 106.334565 -2006.002679 -2489.285847
36 1 3.817841 -1929.503601 -2469.068663
37 1 96.424717 -2130.795427 -2408.106532
38 1 80.376949 -2058.010939 -2434.386657
39 1 211.609626 -2106.001984 -2482.700206
40 1 58.155348 -2088.106663 -2520.488449
41 1 102.855643 -2040.052855 -2554.550034
42 1 69.649695 -2015.976567 -2412.835192
43 1 77.062105 -2003.350322 -2522.733064
44 1 142.413725 -1983.058928 -2396.317505
45 1 72.394936 -2037.456450 -2548.488127
46 1 113.732372 -2053.890213 -2476.837872
47 1 35.893117 -1988.029512 -2530.911458
48 1 107.942976 -2157.816724 -2455.518899
49 1 149.571038 -2109.406527 -2419.784406
50 1 125.575786 -1919.560972 -2510.999244
51 1 118.044196 -2080.237413 -2389.684922
52 1 147.370916 -2003.893297 -2498.798965
53 1 58.125669 -2056.495619 -2436.786414
54 1 115.164035 -2006.178197 -2424.590711
55 1 176.897354 -2047.726275 -2335.728837
56 1 160.934980 -1984.116538 -2486.374903
57 1 107.035476 -2001.951163 -2537.483814
58 1 144.649516 -2033.710114 -2519.579443
59 1 87.560983 -2009.989972 -2444.100087
60 1 122.690104 -1983.367879 -2475.198769
61 1 289.317681 -2101.722404 -2459.582116
62 1 288.350799 -2044.576434 -2418.329230
63 1 300.909588 -1968.299703 -2417.613303
64 1 226.235820 -2025.388870 -2368.561685
65 1 328.142035 -1970.140638 -2454.117158
66 1 248.714514 -2124.431766 -2466.380026
67 1 310.054711 -1961.312179 -2341.425253
68 1 291.466197 -1968.930377 -2261.941430
69 1 245.475840 -2053.244335 -2504.145832
70 1 266.321849 -2003.898041 -2323.569742
71 1 302.087254 -2069.602685 -2411.611917
72 1 352.382483 -1977.035598 -2418.126704
73 1 378.800018 -1931.702505 -2335.990556
74 1 300.997885 -2042.941426 -2356.868459
75 1 249.134037 -1907.139316 -2419.563281
76 1 325.651274 -1920.086676 -2322.984453
77 1 290.705934 -1939.690471 -2296.297210
78 1 280.075880 -1927.501136 -2316.666731
79 1 225.484394 -2082.291815 -2390.090122
80 1 236.778440 -2009.138288 -2443.631561
81 1 294.473627 -2013.275192 -2345.422044
82 1 198.948218 -2026.401597 -2522.257157
83 1 229.932151 -1964.979696 -2260.234424
84 1 255.822885 -2020.147163 -2456.488574
85 1 301.529295 -2066.409785 -2356.298965
86 1 214.654019 -1941.192898 -2422.136189
87 1 259.754083 -2052.441549 -2338.010356
88 1 267.988675 -2025.712418 -2426.733178
89 1 311.601071 -1973.357500 -2504.180078
90 1 300.433789 -1985.925604 -2384.744142
91 1 282.600633 -1963.185347 -2364.662320
92 1 284.449600 -1975.456664 -2533.182053
93 1 331.473567 -1996.505840 -2510.737082
94 1 254.901236 -2058.815185 -2409.611602
95 1 261.755166 -1926.324811 -2344.762062
96 1 349.768940 -2084.141143 -2326.222066
97 1 201.131590 -1986.442306 -2361.314882
98 1 260.402286 -2019.806709 -2292.942391
99 1 242.836734 -2058.429361 -2411.426219
100 1 264.523144 -1982.230233 -2320.058896
101 1 310.809723 -2011.359452 -2385.946308
102 1 268.183214 -1971.391768 -2453.505890
103 1 308.290048 -1947.969143 -2358.538562
104 1 254.398938 -1918.939421 -2412.469110
105 1 308.160930 -2013.169735 -2469.596825
106 1 270.318346 -2031.683687 -2376.947034
107 1 332.563379 -1925.098008 -2372.638187
108 1 345.035301 -1844.513600 -2351.324824
109 1 173.174622 -1982.859812 -2340.328482
110 1 354.194894 -2055.536168 -2446.817657
111 1 279.570377 -1968.510861 -2318.069062
112 1 273.358585 -2073.663567 -2358.781682
113 1 286.095202 -2030.220427 -2492.939288
114 1 213.857002 -1890.234220 -2362.070221
115 1 318.097942 -2106.014877 -2490.989310
116 1 256.307706 -1982.294699 -2333.249368
117 1 222.768268 -2001.600856 -2349.962053
118 1 275.951275 -1943.469283 -2395.456621
119 1 236.215625 -1951.613914 -2424.834274
120 1 266.294561 -2077.795240 -2301.426936
121 1 147.462283 -1885.535123 -2335.336037
122 1 233.389005 -1896.099546 -2395.982717
123 1 178.523987 -1907.960955 -2547.396966
124 1 112.283991 -1871.047630 -2373.893938
125 1 190.394159 -1925.322301 -2335.952177
126 1 129.484837 -1776.728645 -2505.088788
127 1 197.422601 -1933.038050 -2419.597232
128 1 90.292275 -1881.779178 -2457.490133
129 1 212.865125 -2009.753150 -2488.139774
130 1 171.799988 -2010.524433 -2398.064662
131 1 177.313191 -1879.478344 -2342.316692
132 1 159.374002 -1943.568050 -2399.730631
133 1 174.754346 -1870.203123 -2476.047843
134 1 193.556738 -1933.217217 -2479.863069
135 1 105.313101 -1855.279328 -2421.812915
136 1 181.976355 -1877.892720 -2357.356766
137 1 164.925475 -1960.875391 -2452.265196
138 1 168.301685 -1848.344958 -2482.916608
139 1 211.672287 -1897.997649 -2467.716521
140 1 181.765398 -1936.075744 -2537.268593
141 1 185.831396 -1937.145274 -2433.358232
142 1 214.283822 -1960.275977 -2509.740984
143 1 132.797178 -1925.271215 -2392.483827
144 1 159.634137 -1938.394823 -2582.983992
145 1 182.655087 -1821.204095 -2463.012070
146 1 240.892642 -1925.550122 -2478.371874
147 1 212.647809 -1847.292821 -2570.002540
148 1 202.460559 -1835.575792 -2487.169065
149 1 186.693157 -1830.228628 -2458.445490
150 1 181.583466 -1772.258950 -2318.877838
151 1 159.940046 -1943.565861 -2404.058224
152 1 149.259705 -1981.970058 -2596.503053
153 1 105.062198 -1912.395254 -2452.839266
154 1 141.432016 -1833.017215 -2417.072594
155 1 215.602623 -1959.105126 -2461.006884
156 1 194.942896 -1878.939505 -2364.082640
157 1 160.395916 -1971.742440 -2487.888240
158 1 119.394487 -1822.095431 -2428.134918
159 1 159.717381 -1991.255861 -2437.418054
160 1 171.474038 -1906.651319 -2387.760777
161 1 125.097238 -1936.034510 -2492.239304
162 1 149.734100 -1971.322923 -2465.758867
163 1 89.345015 -1884.820035 -2396.028182
164 1 156.205175 -1977.090212 -2444.235449
165 1 260.127288 -1884.396869 -2424.738177
166 1 227.417011 -1983.035209 -2378.094583
167 1 166.234280 -1963.781355 -2534.991503
168 1 162.367271 -1998.061299 -2447.563992
169 1 224.424778 -1991.696420 -2402.708444
170 1 174.129955 -1913.861799 -2426.286646
171 1 160.216203 -1875.659515 -2497.588237
172 1 124.935730 -1905.294002 -2451.062439
173 1 248.340323 -1919.943755 -2501.941663
174 1 117.062283 -1928.962450 -2424.555727
175 1 242.537578 -1954.342049 -2332.381252
176 1 237.049864 -1898.233011 -2449.475738
177 1 190.718088 -1922.802769 -2447.845787
178 1 179.744274 -1875.489835 -2434.774586
179 1 120.506079 -1882.127660 -2421.743094
180 1 222.098668 -1969.298929 -2418.263542
181 2 -171.703535 28.704208 425.841349
182 3 -225.996050 39.948275 375.960437
183 3 -141.575003 -17.586035 275.504183
184 2 -204.022341 -177.145014 275.441152
185 3 -231.004564 -173.794309 190.269087
186 3 -191.680548 -161.298638 255.044544
187 2 -325.410026 414.492902 54.951515
188 3 -310.262072 317.966103 33.490338
189 3 -264.640729 358.670130 129.551165
190 2 -54.724248 418.743898 -363.224775
191 3 21.011351 301.262646 -368.474327
192 3 -1.296274 333.959246 -389.863602
193 2 -320.174754 70.380117 152.940578
194 3 -326.558876 -98.675796 305.275245
195 3 -316.243876 -57.943184 270.976776
196 2 -286.171054 -351.246289 -174.331295
197 3 -254.282542 -346.936574 -196.252901
198 3 -288.318535 -350.857029 -132.225210
199 2 -33.266536 194.286064 72.500033
200 3 -90.158680 253.772385 139.313852
201 3 -131.698729 121.370150 114.437838
202 2 134.234781 137.416683 81.759196
203 3 215.303455 97.507604 168.488351
204 3 195.774312 138.620931 81.498883
205 2 -101.029419 102.231720 -255.560983
206 3 -65.202579 93.566297 -196.380476
207 3 -107.100840 127.335733 -126.930700
208 2 129.208384 191.500579 18.813678
209 3 118.200306 235.399209 14.684966
210 3 153.527047 167.391784 -24.688642
211 2 226.232541 58.639814 -33.956620
212 3 115.025599 -70.668767 15.209458
213 3 176.652971 -63.319366 30.048765
214 2 611.614291 305.408459 168.797334
215 3 562.881173 236.646750 253.310285
216 3 563.161003 317.861467 222.980486
217 2 395.769330 84.977237 326.921718
218 3 413.630488 24.552286 310.406558
219 3 448.744214 80.622297 285.546460
220 2 -403.533795 -50.129231 22.258378
221 3 -375.145102 -64.590817 -23.422822
222 3 -404.569845 -163.505007 -7.315376
223 2 -246.151778 -273.198929 -98.212559
224 3 -280.584689 -269.766380 -151.118898
225 3 -287.749188 -331.069384 -91.950155
226 2 -11.452299 -180.638259 229.385891
227 3 165.727261 -214.263232 313.472072
228 3 77.825413 -86.514459 284.921887
229 2 65.915154 -60.812810 99.241913
230 3 54.059679 -26.326986 52.154582
231 3 62.162075 20.174471 -18.871284
232 2 121.151065 402.604247 247.781355
233 3 62.634155 403.373188 67.732666
234 3 143.701676 489.023542 -36.989262
235 2 -95.243104 100.452416 52.006657
236 3 -86.535671 123.431539 72.227091
237 3 -161.903652 86.214485 73.873243
238 2 -200.322510 6.676083 125.185413
239 3 -241.399972 -25.219855 7.298377
240 3 -166.783602 -20.054052 140.980337
241 2 -169.684556 -207.758703 -148.997264
242 3 -218.452430 -183.778324 -142.970488
243 3 -207.218888 -229.695550 -193.355556
244 2 -71.217994 -112.679747 -105.653327
245 3 -105.918761 -233.268952 -122.088286
246 3 -155.284096 -248.111587 -230.306681
247 2 108.351812 59.781762 37.028150
248 3 134.566056 44.671009 -5.876027
249 3 76.910629 55.267663 -131.021032
250 2 537.801507 -294.580349 -218.541051
251 3 505.957711 -266.248321 -432.818770
252 3 556.756619 -283.142896 -183.840372
253 2 -216.493597 -456.459113 -245.679107
254 3 -314.166402 -310.176447 -220.495402
255 3 -187.097326 -437.944613 -245.181224
256 2 -191.358123 29.204865 274.958787
257 3 -108.726795 98.661320 172.825419
258 3 -186.613404 39.461556 209.087243
259 2 -332.027905 453.324582 -37.774415
260 3 -426.735703 404.572806 36.628011
261 3 -280.034865 425.264194 -66.899311
262 2 359.075842 378.635575 -395.248958
263 3 317.139269 350.058363 -346.460758
264 3 340.661088 391.437126 -405.489923
265 2 -281.261807 -177.339963 -479.380438
266 3 -415.750857 -225.429015 -368.926505
267 3 -372.724324 -154.897589 -283.428989
268 2 -685.157527 372.260783 32.401349
269 3 -733.951679 416.902051 -152.501633
270 3 -684.132224 371.599549 7.250353
271 2 -261.937508 -24.195592 99.073568
272 3 -289.680437 -48.678005 297.385362
273 3 -260.536510 54.306365 195.022952
274 2 -228.707307 -156.219449 13.496471
275 3 -246.157102 -182.258458 14.475379
276 3 -132.144862 -125.855810 -23.653436
277 2 -44.578059 176.355774 -375.979197
278 3 -98.084194 268.335960 -371.482696
279 3 -45.021376 289.546864 -330.859272
280 2 -389.213079 612.094192 49.086840
281 3 -349.751047 670.079317 -32.876119
282 3 -351.661886 668.886146 103.807662
283 2 -67.527148 48.671376 -250.334182
284 3 -56.123877 120.708574 -299.451487
285 3 -41.975411 71.973758 -153.886970
286 2 -210.052830 -89.165873 413.198856
287 3 -144.256705 -148.814598 473.766526
288 3 -186.137642 -42.771673 375.357878
289 2 -81.690016 -0.373178 329.423993
290 3 -56.837798 46.952946 454.279624
291 3 -104.133257 74.034672 230.627545
292 2 221.065699 -193.037885 393.346906
293 3 212.079115 -191.773299 470.505036
294 3 255.209216 -165.734488 368.032655
295 2 252.396720 208.176622 -470.181184
296 3 172.916805 86.440687 -422.042447
297 3 252.586133 201.200061 -553.285899
298 2 -99.482258 150.552903 220.127887
299 3 -127.128288 224.982830 287.512269
300 3 -160.882959 242.367377 277.389027
301 2 -402.173347 -10.478377 -16.079082
302 3 -451.078918 39.151782 -62.269497
303 3 -452.201145 2.491239 5.713865
304 2 -434.658887 3.400559 -25.416563
305 3 -465.136812 -45.871576 1.260777
306 3 -529.696431 20.466523 -45.166277
307 2 -290.249685 257.612515 289.126297
308 3 -252.119063 260.946009 241.150175
309 3 -228.680488 291.806099 298.113762
310 2 -86.899102 116.654283 8.757721
311 3 -45.505119 115.580655 -62.510532
312 3 -151.501761 -17.735558 -66.922090
313 2 -185.631412 -274.807269 82.231491
314 3 -177.337179 -221.896573 81.609179
315 3 -133.966873 -258.851893 78.017223
316 2 262.897164 -317.076638 160.977558
317 3 216.738593 -254.500001 62.909773
318 3 212.957157 -233.575866 70.192009
319 2 -88.549647 83.347733 219.767525
320 3 -140.843322 157.656649 197.946646
321 3 -97.087942 51.723985 192.336566
322 2 -110.012849 -89.641205 111.956257
323 3 -128.631300 -161.627065 17.478338
324 3 -175.578704 -104.072533 103.980463
325 2 -267.036241 80.972007 94.967294
326 3 -224.580756 22.496289 181.417796
327 3 -200.839130 -23.917818 250.186611
328 2 -234.930906 153.165896 -267.769436
329 3 -283.374679 223.962607 -219.618078
330 3 -233.302559 208.677239 -291.473184
331 2 12.138155 -70.425445 -209.606192
332 3 -11.673440 -183.639478 -319.419462
333 3 -55.264292 -131.996212 -264.076951
334 2 64.202013 281.015557 -61.545184
335 3 113.697030 303.703724 -57.180014
336 3 229.998756 296.411415 -79.821948
337 2 -708.354604 320.533559 154.098691
338 3 -631.749241 289.018241 202.078190
339 3 -640.559293 343.592346 258.069261
340 2 -232.547571 266.246891 275.644638
341 3 -191.464735 202.264254 324.739026
342 3 -236.037851 194.831397 390.273365
343 2 -27.954248 76.959060 239.359638
344 3 -41.161768 56.936645 203.123222
345 3 -88.018421 117.932864 199.104418
346 2 163.018938 80.113261 8.586426
347 3 126.674855 112.798530 79.764864
348 3 110.412777 66.820494 82.064876
349 2 47.184698 -291.509144 176.982998
350 3 121.134666 -315.820338 208.602682
351 3 157.668044 -293.066124 203.499452
352 2 433.327252 36.954519 -59.925150
353 3 428.330152 99.313349 -59.834931
354 3 459.358369 149.990025 -34.681597
355 2 -308.587309 388.448055 337.565612
356 3 -313.572133 328.284521 328.274413
357 3 -312.529230 394.659917 368.961219
358 2 66.818330 -268.395835 -90.869225
359 3 40.715006 -292.433169 -245.094593
360 3 -32.315394 -247.594185 -203.642115
361 2 200.129594 283.240339 4.575622
362 3 181.602681 228.293547 -10.307176
363 3 173.646416 242.846069 -0.496258
364 2 -166.684656 290.929541 522.899811
365 3 -180.827101 302.777267 437.804745
366 3 -230.582083 272.135967 407.146285
367 2 249.858040 120.871130 42.876835
368 3 219.367728 149.585394 -12.654770
369 3 185.630990 189.711825 -29.267566
370 2 558.973565 -255.554388 73.326491
371 3 458.594655 -154.098254 110.563392
372 3 519.746770 -217.792572 -58.128571
373 2 438.326719 257.296373 39.472100
374 3 325.016875 323.476896 -5.677996
375 3 428.110863 187.572233 8.377630
376 2 -292.377447 422.612659 80.888957
377 3 -332.143047 381.428085 9.950172
378 3 -304.553072 379.730739 -2.234021
379 2 66.524425 -42.868741 31.890320
380 3 0.735544 21.898233 114.027370
381 3 11.720612 99.477639 6.496870
382 2 10.268450 190.417623 202.410745
383 3 85.835644 108.515795 173.992546
384 3 77.236703 162.624861 214.574583
385 2 94.559389 285.581161 101.430333
386 3 73.342622 373.549620 143.538005
387 3 32.510243 189.010178 134.177150
388 2 -333.078746 82.704626 346.476355
389 3 -286.588161 109.060397 350.349889
390 3 -264.154872 76.264266 298.891152
391 2 -58.465534 -40.572450 -93.050006
392 3 -13.170589 16.960983 -153.471363
393 3 67.006464 -11.092058 -178.883445
394 2 -110.411813 452.193019 86.577743
395 3 -243.406824 415.619114 81.565268
396 3 -171.040801 404.466163 231.588916
397 2 226.060409 416.024946 -189.319500
398 3 256.767088 482.426646 -204.585035
399 3 243.021192 311.329798 -153.538657
400 2 -35.645613 198.284594 372.685921
401 3 -6.472252 212.474934 363.238196
402 3 -14.892120 237.047870 426.351761
403 2 -180.658900 47.281564 188.969514
404 3 -245.786091 177.923290 98.735440
405 3 -249.285565 93.510900 124.839702
406 2 175.768729 129.720966 -3.657020
407 3 92.967512 45.806244 -25.928626
408 3 61.518062 169.836451 -40.908283
409 2 228.490678 111.441897 -37.141475
410 3 232.379330 34.833334 -61.832911
411 3 281.420034 53.538240 -68.938300
412 2 282.168711 -84.641481 -411.801519
413 3 292.909420 -12.764533 -340.827557
414 3 225.139672 -13.084149 -394.224629
415 2 -702.469552 64.085631 234.189687
416 3 -604.594615 130.779374 246.041062
417 3 -670.956020 21.870373 258.432132
418 2 -495.082291 591.019656 90.447946
419 3 -429.042178 607.074528 35.750259
420 3 -469.333913 594.589683 167.204775
421 2 -269.362683 486.860094 142.717078
422 3 -288.816002 443.209780 140.477334
423 3 -188.280119 487.908581 223.937872
424 2 282.243623 -123.008291 255.827229
425 3 290.137844 -121.585185 315.213324
426 3 286.676504 -121.278803 212.815026
427 2 -522.319644 658.932996 391.315371
428 3 -512.502925 594.727312 372.838812
429 3 -532.945138 625.238843 435.426097
430 2 167.468519 131.074573 35.842107
431 3 214.892893 158.923728 104.563842
432 3 181.211112 183.481353 -3.176749
433 2 48.802901 -130.110896 82.813998
434 3 3.858946 -157.758959 135.174909
435 3 17.073666 -79.736146 167.536242
436 2 -309.528850 419.083714 334.959934
437 3 -315.460417 423.584212 395.803125
438 3 -282.876793 367.981933 338.974660
439 2 -54.193620 117.953291 -378.672595
440 3 -135.559539 131.549890 -450.679558
441 3 -109.860091 93.820322 -341.110533
442 2 -208.956682 402.891030 83.930682
443 3 -133.060385 510.652487 145.696413
444 3 -144.395202 437.788602 112.186673
445 2 140.465356 281.735146 47.388117
446 3 159.127956 216.245946 -24.565186
447 3 126.358186 237.572859 71.614706
448 2 193.737732 490.028879 -427.966114
449 3 281.602717 573.059018 -408.979919
450 3 286.850732 576.691747 -360.382361
451 2 264.734964 344.397808 -163.028913
452 3 344.043104 424.870525 -139.591221
453 3 356.706582 384.003143 -158.169707
454 2 -153.554758 -23.839394 -70.189678
455 3 -141.269303 49.020063 -176.056844
456 3 -139.934799 48.869379 -167.059139
457 2 181.120978 436.109745 -23.629070
458 3 203.185412 496.781801 93.193987
459 3 193.601910 360.014098 171.309794
460 2 -413.045245 173.951156 -297.587199
461 3 -415.194649 185.131398 -403.781699
462 3 -458.561997 174.115286 -293.574650
463 2 -364.643427 296.137890 389.617812
464 3 -344.040198 333.697063 244.896926
465 3 -402.519781 245.644828 399.680127
466 2 -103.626965 -207.931591 -233.280361
467 3 -160.843099 -203.212591 -104.102155
468 3 -138.814667 -218.085164 -141.996624
469 2 -43.725376 76.651093 64.875080
470 3 -50.645394 111.763468 150.179527
471 3 -74.508311 -12.140530 92.573358
472 2 -151.478774 353.580040 280.875000
473 3 -82.514173 399.350439 190.207348
474 3 -248.567873 159.950717 224.042494
475 2 27.149591 132.992039 313.844502
476 3 21.835117 141.169032 362.274056
477 3 81.332750 267.037453 324.719209
478 2 -205.968085 568.968518 85.729490
479 3 -251.393434 517.761828 152.544604
480 3 -217.741517 619.699010 74.512563
481 2 -110.382282 316.114829 89.144456
482 3 -29.874214 279.107724 0.500580
483 3 -13.885511 278.564110 194.822806
484 2 -56.893403 297.935675 -354.447770
485 3 -68.381403 314.052216 -282.882006
486 3 -94.799855 337.243523 -292.342592
487 2 62.952957 185.782430 -242.720650
488 3 3.634973 232.352452 -265.525928
489 3 -20.939703 212.043421 -208.224951
490 2 301.449971 363.659416 -58.273020
491 3 288.907697 344.578283 20.873920
492 3 403.442906 339.838834 -165.533974
493 2 180.643145 246.850893 -72.514189
494 3 297.152593 222.309719 64.913594
495 3 267.648772 293.440620 33.473330
496 2 -585.466014 190.034840 90.968469
497 3 -566.749665 184.804217 43.799063
498 3 -640.543468 244.977178 216.267676
499 2 -461.629327 334.271177 340.521984
500 3 -470.698749 308.162016 289.809214
501 3 -408.252396 359.094542 157.463464
502 2 201.581691 49.916016 555.124232
503 3 168.926076 111.983519 537.421871
504 3 232.224896 34.818307 439.190580
505 2 134.717101 -238.159106 3.780837
506 3 89.389841 -171.171813 -63.175901
507 3 57.438993 -104.625779 -154.151512
508 2 159.104957 455.519868 42.756004
509 3 132.795699 394.065369 64.894067
510 3 195.191851 332.926875 -11.799715
511 2 -139.687619 402.171685 412.953633
512 3 -204.804494 367.765698 424.694648
513 3 -193.156902 367.735988 450.474252
514 2 -349.384522 258.949641 53.712434
515 3 -380.396815 367.306437 31.757136
516 3 -307.171768 304.119896 6.218205
517 2 499.830150 234.586007 401.146486
518 3 451.219445 329.921171 410.536863
519 3 479.561376 289.385120 387.766071
520 2 208.138093 209.876902 177.099188
521 3 179.073774 169.157169 132.757401
522 3 125.017224 148.395932 141.738888
523 2 -132.134656 -151.749983 21.104235
524 3 -69.609621 -79.661561 156.370569
525 3 -144.331629 -152.030197 137.632438
526 2 68.846575 36.896433 374.368349
527 3 153.252333 14.120236 355.182247
528 3 66.223630 96.651193 226.617561
529 2 81.507182 208.068231 71.563922
530 3 39.674278 231.724926 153.227272
531 3 140.040275 272.395458 95.049769
532 2 -35.161032 817.732011 -170.309004
533 3 -49.325268 726.424144 -222.460068
534 3 -119.899291 735.308797 -83.833288
535 2 109.177954 450.793039 -365.171727
536 3 164.560552 489.493263 -437.701723
537 3 147.846580 398.307425 -318.440008
538 2 15.292449 232.473296 88.897512
539 3 -94.566048 140.782182 106.404825
540 3 -59.442042 140.463424 144.418096
541 2 -68.767518 257.202486 457.427156
542 3 -120.255684 342.380443 380.952034
543 3 -162.453809 242.216581 321.736230
544 2 -204.628614 604.519844 148.065614
545 3 -185.015180 550.827922 187.849384
546 3 -128.533623 439.201657 130.489103
547 2 -229.467448 -189.769252 35.482260
548 3 -221.980917 -198.119324 19.619654
549 3 -287.133942 -210.909699 42.126518
550 2 321.709624 416.214270 -79.964137
551 3 220.475412 407.610622 55.073769
552 3 266.252877 405.383042 9.490150
553 2 11.928103 -31.637686 161.895264
554 3 40.835164 11.205759 -15.406787
555 3 -43.028248 -82.382953 -7.786668
556 2 -30.142119 451.956014 9.162903
557 3 -113.500232 485.241628 -112.116190
558 3 -45.141114 451.458713 -4.509545
559 2 53.659159 379.935359 -324.580225
560 3 105.971454 372.241808 -160.775404
561 3 157.529830 470.123887 -263.984305
562 2 -163.419138 588.306543 117.718112
563 3 -170.513655 442.045528 44.216264
564 3 -189.425173 544.448873 130.778343
565 2 -121.329068 662.930020 100.350206
566 3 -100.678720 659.148167 124.850468
567 3 -75.243764 590.497480 166.774066
568 2 22.824786 236.666227 195.359678
569 3 153.361472 145.047500 203.660702
570 3 19.754407 53.675163 156.577071
571 2 -32.036353 559.872282 145.461181
572 3 -40.843120 636.472620 98.229190
573 3 -0.368007 561.501694 74.451829
574 2 -507.617540 392.763487 -82.460249
575 3 -460.668016 394.382226 -6.223500
576 3 -523.730033 324.801827 -45.315888
577 2 -425.491949 412.163423 165.862809
578 3 -382.475448 412.393464 35.116288
579 3 -422.762377 346.929899 241.163460
580 2 14.187633 -30.948826 7.405016
581 3 -18.203882 -42.523155 -89.285827
582 3 3.804693 -65.781183 -35.608566
583 2 -409.652432 -220.004963 434.578351
584 3 -388.121911 -181.158397 393.250993
585 3 -431.309854 -222.621422 411.075210
586 2 -283.342141 115.814482 40.813817
587 3 -255.107784 118.618456 99.804257
588 3 -212.297951 162.390350 106.316838
589 2 409.288468 438.219187 120.640653
590 3 437.710709 430.874058 143.718767
591 3 493.395644 388.779721 262.534153
592 2 204.170363 -12.716822 121.790573
593 3 228.871031 -82.092658 4.295030
594 3 248.893746 -68.376911 -43.546815
595 2 -24.080577 419.992413 -133.685673
596 3 -82.918203 402.517795 -63.225813
597 3 -32.402092 439.317484 -57.562804
598 2 258.260056 49.776640 -69.454367
599 3 357.967640 102.026774 -79.979286
600 3 292.425980 -4.592528 11.187200
601 2 169.626784 638.677788 -156.911244
602 3 167.262677 630.028314 -85.429122
603 3 187.433145 522.854594 -86.613455
604 2 109.668925 221.288508 44.174554
605 3 95.800024 362.382074 205.656477
606 3 105.294071 318.798142 62.741863
607 2 375.222550 571.926846 547.952416
608 3 403.765898 488.549016 386.804995
609 3 400.380505 429.204689 426.022324
610 2 -415.378638 156.763777 -539.204245
611 3 -417.386451 124.578528 -502.174590
612 3 -302.887454 55.260916 -516.596309
613 2 76.745670 409.488533 254.361848
614 3 38.777234 321.562555 205.635885
615 3 50.713049 350.391276 229.918057
616 2 208.042093 509.287112 -112.160862
617 3 177.210350 426.068988 -115.104059
618 3 145.037227 468.007542 -48.963060
619 2 -133.501057 215.209105 -159.785063
620 3 -241.830168 166.228064 -88.945799
621 3 -176.948864 126.128703 -195.708538
622 2 138.338519 350.840319 304.853106
623 3 127.224901 391.568430 308.155983
624 3 18.310829 328.824546 368.276254
625 2 37.783482 569.046790 -36.636470
626 3 47.394277 485.367337 -99.975897
627 3 42.010627 511.007689 -37.243310
628 2 28.265063 483.164449 209.492720
629 3 128.845138 459.318476 215.929714
630 3 59.024195 451.430798 178.153686
631 2 -157.246590 602.124318 136.788549
632 3 -179.279003 657.580301 34.976439
633 3 -221.136178 613.156181 -24.359090
634 2 227.290432 365.861635 60.829978
635 3 254.651554 308.258472 91.894695
636 3 290.554187 227.932674 87.564283
637 2 -45.979802 571.075893 22.585455
638 3 -73.462974 554.283187 12.644642
639 3 -46.033176 529.713125 19.604037
640 2 -155.482568 603.600836 -187.848400
641 3 -145.720388 607.502134 -208.824208
642 3 -183.408784 533.015921 -212.100846
643 2 299.414427 79.516869 -24.963587
644 3 277.461670 139.482413 -2.522364
645 3 329.394835 180.913973 62.896493
646 2 112.684360 -27.151860 263.580237
647 3 120.546123 39.235561 288.343206
648 3 162.304635 -27.988848 197.157558
649 2 -528.864682 580.551507 67.382503
650 3 -478.457565 534.480093 126.873654
651 3 -538.002730 567.250860 16.552865
652 2 25.043336 562.435055 -440.280979
653 3 28.401585 599.729156 -286.451640
654 3 13.640896 536.796497 -325.281796
655 2 -131.781480 357.716153 -155.559287
656 3 -70.337980 322.685513 -88.455518
657 3 -135.135936 342.829121 -148.276724
658 2 -218.178640 671.070637 98.933575
659 3 -152.351184 745.948816 40.682173
660 3 -144.335203 662.300623 60.608834
661 2 -504.431740 270.309917 106.988287
662 3 -592.700076 331.125897 139.164153
663 3 -479.973359 324.662495 166.986666
664 2 -61.706748 269.761590 -311.363477
665 3 -48.009671 317.642708 -273.323073
666 3 -114.328111 424.718057 -201.070886
667 2 245.226478 26.315390 38.846834
668 3 238.677545 44.493788 -104.068610
669 3 266.436226 153.749391 15.785860
670 2 103.591114 648.427079 225.327306
671 3 144.760146 704.003481 226.417913
672 3 157.088517 639.144621 300.263369
673 2 -339.299485 256.705124 -176.090537
674 3 -331.545278 287.726880 -205.307807
675 3 -323.612997 332.448275 -149.466085
676 2 83.065898 449.219912 31.931860
677 3 159.467710 404.580864 -44.062412
678 3 156.645749 348.228132 77.212691
679 2 -328.108908 173.626940 304.470122
680 3 -248.904768 165.315305 201.973255
681 3 -345.594397 171.495938 344.388358
682 2 -73.082448 421.851441 -261.191341
683 3 -57.159594 522.204884 -334.818348
684 3 -109.612972 461.492172 -347.816295
685 2 27.724066 326.221086 131.967538
686 3 28.331340 238.249328 89.893624
687 3 -38.625977 250.112348 170.254448
688 2 -238.697589 -320.314603 -160.723149
689 3 -192.113777 -338.670492 -176.809213
690 3 -292.602873 -335.250014 -230.406265
691 2 -433.521869 49.205996 573.135107
692 3 -345.687821 -47.195177 538.419961
693 3 -390.127406 43.593618 576.363088
694 2 198.085286 -123.826524 111.832667
695 3 213.012386 -170.350204 10.628108
696 3 106.504707 -33.231817 2.334905
697 2 -398.577959 184.564385 292.354573
698 3 -436.295664 337.143844 255.871236
699 3 -376.514079 339.378205 285.542031
700 2 -448.207064 -83.063079 98.320710
701 3 -411.398460 9.707191 145.430930
702 3 -446.427611 -23.700993 118.409747
703 2 1.324794 71.314652 423.717187
704 3 45.859777 24.028532 403.161746
705 3 27.753520 24.717604 356.735993
706 2 -183.780313 -312.971603 373.387935
707 3 -224.791367 -296.149218 348.375038
708 3 -170.943013 -213.350838 240.445079
709 2 -219.697958 39.502324 146.324030
710 3 -219.377850 72.491867 218.000182
711 3 -217.115055 -28.671323 204.336293
712 2 230.665570 215.556995 -339.256651
713 3 260.524157 221.991143 -223.704987
714 3 298.874586 272.113267 -474.557010
715 2 -102.919059 -35.254033 -206.794370
716 3 -87.954096 42.840489 -15.401440
717 3 -5.949234 -67.307518 -197.161907
718 2 82.091830 -242.068675 248.495677
719 3 136.895888 -330.795463 267.878547
720 3 136.484808 -313.718376 299.063177
721 2 309.147581 93.846565 133.592664
722 3 340.234170 162.425503 22.625007
723 3 215.000195 155.656996 118.325589
724 2 -64.918448 278.317648 -103.821910
725 3 -111.786743 263.087152 -138.421788
726 3 -205.441087 264.226622 -132.461180
727 2 -581.894241 -106.019556 -16.278372
728 3 -593.721978 -45.942413 -71.700929
729 3 -540.429450 -101.447392 11.367132
730 2 3.946016 86.013789 -115.830836
731 3 -34.104633 6.635945 -48.558262
732 3 -6.084832 28.035966 -181.667331
733 2 -180.922843 -197.012999 339.561831
734 3 -141.537584 -220.952889 253.422656
735 3 -184.610805 -197.284198 339.275644
736 2 56.188716 71.833244 254.824728
737 3 -73.782761 167.126546 358.610098
738 3 -16.474324 163.895696 271.874360
739 2 -236.775534 91.848144 479.564316
740 3 -178.367880 180.628421 556.123061
741 3 -278.300892 94.279697 558.769407
742 2 31.174387 -534.740194 589.195302
743 3 -33.966727 -433.436756 559.622172
744 3 36.866323 -491.661592 458.894327
745 2 717.183362 290.330097 166.426555
746 3 713.640972 193.990341 40.933513
747 3 760.290896 312.161868 93.520914
748 2 -229.491210 -260.561372 230.969307
749 3 -262.997444 -299.798824 308.799339
750 3 -249.138872 -301.140967 273.971325
751 2 206.164088 105.361560 246.200725
752 3 306.227191 219.975846 299.997111
753 3 248.343330 73.753389 162.705654
754 2 114.264541 -92.477503 146.461994
755 3 83.514323 -133.605418 192.689603
756 3 66.817732 -204.872230 195.612263
757 2 -292.180516 -38.706071 168.961213
758 3 -225.490325 -161.729679 76.054052
759 3 -294.431405 -60.456072 164.453503
760 2 166.574146 223.499393 268.381043
761 3 206.808779 265.510289 251.822172
762 3 179.248729 260.476273 272.916311
763 2 393.936484 -71.154628 111.187696
764 3 305.185939 -113.257403 132.383292
765 3 347.492981 -6.714940 138.614356
766 2 -210.063109 -130.266132 397.136410
767 3 -208.856676 -213.549117 346.171201
768 3 -136.655502 -208.350758 462.967139
769 2 162.882659 -72.978693 166.252712
770 3 104.018624 -114.665001 153.898804
771 3 118.087919 -36.128196 96.053399
772 2 -463.737959 399.720298 76.758331
773 3 -460.279281 441.243350 58.470347
774 3 -488.847304 322.266361 11.179337
775 2 150.202455 96.464750 252.545608
776 3 159.955576 -33.737953 305.697346
777 3 74.751489 92.645251 385.057174
778 2 -35.208977 231.894150 171.973060
779 3 -99.011475 154.603400 229.387275
780 3 -49.459593 124.519847 244.212054
781 2 -174.232738 18.111108 106.217669
782 3 -110.532217 1.239755 80.800827
783 3 -141.986675 60.641138 51.613509
784 2 -82.020662 20.625781 139.547672
785 3 -143.155713 28.782629 82.815852
786 3 -61.416213 -14.808927 177.658755
787 2 -407.746179 71.487977 162.637411
788 3 -461.940955 94.739125 162.475672
789 3 -477.592046 174.853788 33.674996
790 2 276.312574 -104.879645 56.322453
791 3 227.744539 -150.248149 64.583861
792 3 194.870473 -154.477038 6.137998
793 2 -44.045460 -152.019843 236.226794
794 3 33.658642 -94.038261 233.588862
795 3 27.558920 -125.402175 149.782141
796 2 345.844076 1.780952 336.398393
797 3 338.858365 71.677035 332.182913
798 3 332.077671 42.803155 343.121611
799 2 232.002526 103.997865 -159.875200
800 3 325.520431 155.880788 -136.173537
801 3 275.461696 127.543774 -86.690251
802 2 335.722877 250.771819 -56.617393
803 3 343.324475 267.324601 -79.130008
804 3 239.972818 370.338475 -114.243619
805 2 -207.764719 -369.507638 143.835206
806 3 -231.983894 -390.542339 229.421725
807 3 -206.333574 -386.878502 160.820313
808 2 -107.385353 639.008694 -30.245480
809 3 -115.615347 565.619258 -117.207934
810 3 -80.995772 624.046949 -69.431321
811 2 -181.869425 129.714558 -67.772816
812 3 -238.647179 70.880444 -0.302241
813 3 -307.405896 214.651655 56.874010
814 2 48.022514 -2.882387 292.154630
815 3 25.763869 -102.994808 121.819099
816 3 25.554022 -140.157400 218.181691
817 2 -624.339324 263.682202 391.078082
818 3 -530.006137 354.863798 406.713887
819 3 -595.585093 312.642688 515.697550
820 2 -445.459743 568.743069 348.404560
821 3 -352.237395 486.837014 295.530742
822 3 -380.146393 538.951187 320.245607
823 2 245.417369 -8.405113 23.251846
824 3 199.706867 -81.657549 63.476011
825 3 286.756297 -160.178827 284.924397
826 2 209.017306 -86.006051 -184.111409
827 3 274.626052 100.855869 -181.638029
828 3 295.282501 15.509002 -65.328359
829 2 153.493942 -122.066400 710.156937
830 3 111.903379 -155.934916 763.103271
831 3 74.089629 -187.617132 699.039701
832 2 -101.111961 104.041698 53.309347
833 3 -73.307387 163.674489 140.614403
834 3 -117.501832 140.634540 -24.383349
835 2 -35.772235 147.300425 209.875113
836 3 -57.796409 105.267688 169.379117
837 3 -1.362579 193.062865 251.304638
838 2 -4.371600 454.104836 -54.982930
839 3 2.893356 450.821471 -77.941431
840 3 -16.691305 475.898413 -94.458878
841 2 173.407469 214.814022 -130.233476
842 3 191.291083 240.184407 -255.589214
843 3 224.177708 221.760707 -148.185480
844 2 55.130903 -260.212312 279.684624
845 3 -32.439224 -415.361143 278.667030
846 3 57.207191 -190.019880 114.400151
847 2 -147.169539 557.739729 331.230213
848 3 -119.253738 520.252624 370.161319
849 3 -79.766562 610.232337 374.166450
850 2 -337.906918 258.582397 465.855461
851 3 -236.686374 252.858714 489.002926
852 3 -325.524033 295.339574 477.206222
853 2 277.938332 434.815100 45.677589
854 3 263.083594 355.498942 9.740010
855 3 213.814850 280.927707 -38.825236
856 2 -78.513035 194.651834 -150.055765
857 3 -57.348489 23.150925 -213.847874
858 3 -155.895028 73.949231 -174.431137
859 2 -127.199428 -147.676557 -400.669263
860 3 -119.885339 -258.159520 -479.165476
861 3 -107.015624 -156.487409 -321.465611
862 2 -43.766308 -16.177328 18.987337
863 3 51.066322 -20.502605 57.184114
864 3 54.856086 54.432967 -18.480161
865 2 226.917326 -108.553806 344.540843
866 3 203.413982 -82.541504 313.502407
867 3 194.755973 -1.456160 419.551747
868 2 130.667901 72.580709 -93.700005
869 3 133.092636 -17.639079 -161.721184
870 3 100.484226 -15.651343 -197.174712
871 2 175.312884 324.967159 38.457672
872 3 190.269293 290.139253 119.059045
873 3 199.263371 285.394239 136.593957
874 2 -163.379106 253.529450 124.019993
875 3 -123.212039 260.333261 150.258593
876 3 -137.663685 239.238610 99.333664
877 2 384.251817 525.275116 217.269272
878 3 377.750286 567.744877 65.396946
879 3 372.684264 616.095413 153.644751
880 2 -25.417105 542.970591 -355.365079
881 3 51.639720 476.522245 -281.044454
882 3 1.386751 467.886668 -177.249306
883 2 -104.457617 -28.667256 -186.417985
884 3 -91.834873 143.409269 -209.256292
885 3 -137.107390 -63.242098 -110.178953
886 2 -325.805588 19.491595 232.916536
887 3 -323.163795 88.957323 323.317930
888 3 -243.997838 75.250254 260.718116
889 2 5.133295 250.830523 75.833060
890 3 -32.269837 366.265765 -10.081721
891 3 -92.004356 335.358892 -45.947583
892 2 -220.449742 -374.917352 79.414365
893 3 -204.707964 -401.848457 123.386518
894 3 -224.480823 -380.645414 96.972023
895 2 -90.466599 555.537783 614.275142
896 3 -106.929681 509.945883 384.539271
897 3 -127.371512 453.061153 398.943424
898 2 186.065832 569.156565 83.938086
899 3 177.217560 593.073390 38.118704
900 3 195.591148 600.954500 77.409783
901 2 59.401597 296.379912 -81.062106
902 3 76.114136 231.337795 -4.985712
903 3 150.387862 384.886238 -67.913971
904 2 418.519176 401.152116 37.065362
905 3 448.649902 423.838276 48.703905
906 3 478.437916 400.392145 24.277725
907 2 404.026057 94.899689 -406.879965
908 3 462.827942 19.048395 -370.856150
909 3 449.134132 112.335248 -439.759902
910 2 45.859722 -43.771222 462.187959
911 3 103.619098 -95.989054 496.849152
912 3 33.200444 -112.738861 494.330418
913 2 497.481177 113.886275 428.487216
914 3 422.799497 269.161096 417.375994
915 3 440.100996 178.432345 383.277099
916 2 239.150805 435.885573 -502.885387
917 3 272.189448 434.974015 -520.444489
918 3 375.498584 461.095127 -426.441818
919 2 152.664412 -34.624857 287.679017
920 3 176.289712 119.727266 171.177551
921 3 170.522834 79.082950 88.636895
922 2 69.621850 -226.936961 540.897363
923 3 115.791187 -198.501863 409.326688
924 3 221.598281 -196.591095 492.016092
925 2 -173.894043 128.262381 -111.480971
926 3 -226.216423 164.902463 -66.595799
927 3 -260.651331 229.253500 -23.830789
928 2 229.576349 -192.371587 -178.014203
929 3 282.321321 -102.468443 -85.038517
930 3 260.883385 -194.230858 2.676160
931 2 -421.943298 352.342168 -170.103175
932 3 -359.482747 235.928546 -87.244485
933 3 -402.719054 274.284803 -187.726877
934 2 -144.427210 -9.414516 -167.405514
935 3 -156.678216 1.556042 -214.407182
936 3 -149.437967 6.619079 -208.074016
937 2 159.649358 237.628962 -160.337803
938 3 89.648299 235.478316 87.301886
939 3 57.906636 235.282972 22.847161
940 2 -169.876803 156.006619 548.775732
941 3 -210.960674 244.887214 442.462255
942 3 -212.561413 165.416109 607.770836
943 2 -96.741606 375.462349 107.211378
944 3 -117.393605 410.874860 92.448274
945 3 -47.294857 393.634662 212.532290
946 2 359.596800 92.872153 87.482210
947 3 397.373889 -23.938226 174.605014
948 3 309.220965 72.642507 179.384766
949 2 -192.833983 24.656072 326.226069
950 3 -239.182435 54.209703 313.999662
951 3 -179.534146 0.999832 380.200016
952 2 358.616928 94.399697 65.589259
953 3 316.102947 4.918789 48.012378
954 3 427.981154 50.704396 152.299897
955 2 295.485052 -9.402271 -106.383397
956 3 215.614369 -13.069337 -161.763734
957 3 207.764198 69.944298 -183.346530
958 2 -32.857068 140.957791 -114.029376
959 3 -106.854719 228.714128 -14.824861
960 3 -81.244851 292.909017 -110.494053
961 2 -174.345858 35.277599 156.736780
962 3 -174.452914 40.161909 240.220761
963 3 -238.123534 36.858529 292.186607
964 2 -179.485856 55.508746 747.491342
965 3 -199.855881 101.134130 728.802920
966 3 -190.480426 147.360003 575.365551
967 2 -51.181710 429.605170 -135.894308
968 3 -60.430074 527.820039 -60.114733
969 3 -112.719657 495.447321 -146.244340
970 2 -374.145756 64.927492 29.935579
971 3 -379.184417 114.709518 8.543380
972 3 -349.587813 26.811184 37.915063
973 2 150.849561 386.950646 -180.931199
974 3 58.385375 391.484502 -239.357658
975 3 142.537370 448.760074 -198.887752
976 2 -467.639257 512.512245 -110.284534
977 3 -362.182887 452.359536 -130.307283
978 3 -344.277629 488.928819 -171.878562
979 2 -172.171274 377.431426 134.855362
980 3 -245.854816 371.791792 119.499967
981 3 -196.040193 289.041534 101.173024
982 2 -298.999665 215.221041 229.432187
983 3 -285.648074 274.616819 206.350889
984 3 -270.220069 314.539453 262.083285
985 2 -404.098532 301.958546 290.731707
986 3 -417.330988 285.003367 280.996357
987 3 -403.565593 282.111117 320.053193
988 2 -99.237654 15.137959 197.915278
989 3 -127.585377 -5.464428 311.169740
990 3 -37.845550 -55.421736 75.464284
991 2 189.411168 136.613045 176.512165
992 3 215.828838 249.738354 129.460475
993 3 282.029289 297.204744 239.569988
994 2 87.791888 279.324750 -157.862449
995 3 90.257980 256.431796 -114.651208
996 3 62.189584 270.721193 -87.264644
997 2 184.992979 149.812926 95.724922
998 3 212.808479 81.319310 13.110745
999 3 256.193575 53.158487 69.727159
1000 2 -265.106397 274.411911 363.856550
1001 3 -241.733539 257.331038 447.542199
1002 3 -178.681567 259.771478 462.346718
1003 2 -352.493758 386.843577 -125.685772
1004 3 -341.945123 346.971315 -115.257199
1005 3 -373.037530 418.212721 -86.329095
1006 2 -126.715519 3.919332 -170.597681
1007 3 -200.280950 -19.847319 -188.844165
1008 3 -146.514520 23.045483 -128.863887
1009 2 -256.332433 383.969329 -193.403512
1010 3 -188.995149 441.570181 -19.529522
1011 3 -186.519092 503.833761 -167.304307
1012 2 -516.536891 470.546140 236.245227
1013 3 -500.512645 416.847012 350.401517
1014 3 -485.815717 449.536222 258.831926
1015 2 -72.355709 442.217944 -254.785014
1016 3 -51.838220 439.409926 -217.668967
1017 3 -82.001589 432.085414 -308.789867
1018 2 106.971238 420.113287 103.652659
1019 3 76.488130 402.063734 46.654368
1020 3 146.387334 367.613260 80.062052
1021 2 -141.623983 98.593327 580.566723
1022 3 -8.374135 64.011639 606.363744
1023 3 -48.477730 5.010851 548.808466
1024 2 -193.046764 548.466149 -211.354769
1025 3 -262.863470 487.491193 -190.872360
1026 3 -205.702897 528.468168 -203.342680
1027 2 213.743414 -181.257864 -61.819349
1028 3 255.597926 -173.675001 40.142269
1029 3 265.947485 -246.447204 101.566516
1030 2 261.780113 -8.977976 80.902385
1031 3 331.717358 18.005764 147.010397
1032 3 254.261192 28.819181 84.166984
1033 2 369.793553 636.408762 319.273128
1034 3 375.609830 600.930173 490.950800
1035 3 337.588064 639.912315 451.571207
1036 2 664.388867 333.750491 167.023930
1037 3 684.231783 336.864268 219.971527
1038 3 694.496151 404.373387 239.500498
1039 2 -249.956792 481.897172 -94.965812
1040 3 -284.615746 434.737984 -8.790854
1041 3 -352.420892 645.600907 -210.663752
1042 2 -99.078758 294.190708 27.273700
1043 3 -57.475377 206.623337 12.150074
1044 3 -88.931553 261.552234 17.705358
1045 2 123.765114 291.723326 40.095334
1046 3 146.252263 256.977660 33.745682
1047 3 192.556948 224.929250 -77.653141
1048 2 -81.925407 528.710129 350.456503
1049 3 -33.223472 579.758329 375.227498
1050 3 -110.705657 572.813195 416.123048
1051 2 -276.252283 223.178583 181.319983
1052 3 -332.424060 265.049721 22.397419
1053 3 -264.442492 169.855927 175.926397
1054 2 157.498216 266.809328 182.661553
1055 3 218.433348 278.111570 198.303466
1056 3 203.328322 186.889636 244.442091
1057 2 -180.803289 321.842374 510.148489
1058 3 -127.252697 311.139197 555.947991
1059 3 -134.607583 190.674120 517.229781
1060 2 91.586340 342.236337 372.073766
1061 3 115.109755 232.039776 192.784315
1062 3 138.041163 294.310274 276.474024
1063 2 194.545595 206.275494 127.348186
1064 3 130.169954 202.408664 192.447276
1065 3 90.699910 189.192067 186.952778
1066 2 411.286199 575.923505 187.302881
1067 3 383.934888 577.922564 106.499224
1068 3 356.152469 570.608209 98.402793
1069 2 462.082519 392.270290 -21.072266
1070 3 485.313366 300.871531 -83.833020
1071 3 478.617370 315.164896 50.060441
1072 2 254.116199 287.845808 62.304451
1073 3 302.108798 292.246141 54.169384
1074 3 308.525680 194.443870 1.023902
1075 2 784.974137 3.060510 -175.153337
1076 3 836.625943 48.533996 -166.907797
1077 3 859.475599 46.397320 -158.178583
1078 2 343.890198 83.310574 120.241256
1079 3 293.915644 -31.597528 60.889891
1080 3 335.008340 -15.498225 142.701007
1081 2 -444.525745 263.953918 -11.100574
1082 3 -341.304857 322.187025 -47.860505
1083 3 -342.419863 297.205930 121.867258
1084 2 106.991685 223.252445 110.074439
1085 3 120.711582 144.316623 117.782702
1086 3 74.289709 183.575878 23.000040
1087 2 -234.536699 420.956304 370.861082
1088 3 -222.116839 447.675522 317.396274
1089 3 -166.741130 433.309237 339.021527
1090 2 71.233428 165.249987 -212.077671
1091 3 126.375539 163.906537 -202.254767
1092 3 76.858143 231.478434 -198.420849
1093 2 60.771591 541.269779 -446.345802
1094 3 82.725447 463.776859 -510.612046
1095 3 -51.028594 418.621321 -367.269135
1096 2 358.991119 -1.872984 -30.140919
1097 3 300.145726 -47.099649 -104.972274
1098 3 332.944719 3.470792 -43.815057
1099 2 41.426266 312.856490 -309.450697
1100 3 -79.806995 365.101603 -134.072357
1101 3 -24.403474 386.954416 -193.239827
1102 2 394.174630 221.756207 -377.597376
1103 3 428.931668 211.847727 -468.956137
1104 3 470.672148 253.916795 -549.021485
1105 2 -216.353584 484.085373 9.564536
1106 3 -313.140778 591.032793 32.163859
1107 3 -155.193260 539.757440 51.628388
1108 2 -90.082597 -84.424204 164.275979
1109 3 -7.363666 -133.855118 237.255939
1110 3 13.220917 -159.781037 175.939166
1111 2 527.867157 264.827602 318.465477
1112 3 487.953803 333.408699 328.648264
1113 3 511.977945 286.004174 338.766377
1114 2 199.958090 540.583215 172.782011
1115 3 187.595098 523.452031 15.567599
1116 3 265.094463 516.205821 58.883640
1117 2 -374.900202 567.191137 196.311049
1118 3 -392.132680 579.952032 257.345953
1119 3 -423.785067 528.401664 127.480263
1120 2 -311.072351 419.296665 -43.770136
1121 3 -352.259457 487.095121 72.033731
1122 3 -295.114414 484.523682 -70.910448
1123 2 -19.821044 310.722296 139.858611
1124 3 3.233194 296.240671 226.249910
1125 3 23.654447 262.165134 212.690274
1126 2 -300.832288 596.913201 -13.045905
1127 3 -233.338352 647.193768 -107.646002
1128 3 -275.754027 608.719389 -37.885333
1129 2 428.184641 544.029539 324.132740
1130 3 447.061341 520.455571 225.896781
1131 3 303.260286 527.677970 356.944239
1132 2 49.676355 53.589053 -9.029461
1133 3 88.160909 60.702811 -49.788632
1134 3 108.460243 21.050537 -102.862301
1135 2 180.878974 61.091816 92.999063
1136 3 178.378329 -70.006240 83.348562
1137 3 188.628942 20.055272 84.339595
1138 2 -296.272631 362.741229 -60.182238
1139 3 -232.976634 257.993352 165.846156
1140 3 -231.343653 271.361430 113.691890
1141 2 111.996224 494.513596 -369.498693
1142 3 68.722393 488.707536 -453.707707
1143 3 113.884797 495.452977 -315.446363
1144 2 169.468567 193.110332 156.698115
1145 3 179.887048 226.415332 78.777900
1146 3 98.471477 204.232966 140.462536
1147 2 166.974540 386.915402 29.539255
1148 3 136.504934 186.753360 -0.911228
1149 3 214.546039 336.550938 123.255723
1150 2 -192.596872 -47.531952 -92.288522
1151 3 -151.927668 -51.121965 -13.083454
1152 3 -177.656573 -90.498924 -67.551450
1153 2 302.271096 133.531190 -118.381528
1154 3 408.780352 113.233692 -130.729689
1155 3 364.753018 164.125874 -171.656773
1156 2 -320.477706 241.164871 -43.676365
1157 3 -362.079775 264.600876 -13.094131
1158 3 -361.917231 223.751921 -78.721293
1159 2 -210.954216 501.582007 410.491619
1160 3 -106.014515 449.201637 318.716753
1161 3 -136.191806 481.061575 364.646763
1162 2 -196.247280 78.484076 -324.433939
1163 3 -182.370787 119.950557 -419.160140
1164 3 -123.694765 107.265090 -398.357003
1165 2 -60.749030 410.760220 402.883826
1166 3 -36.312501 418.945750 419.876276
1167 3 -56.568629 432.800867 421.365810
1168 2 -175.428904 -101.149525 355.693397
1169 3 -115.597993 -68.421711 364.218942
1170 3 -158.336723 -12.357852 334.530452
1171 2 -203.963920 453.818022 449.558382
1172 3 -209.535717 531.542139 224.485852
1173 3 -249.020279 544.948851 321.051708
1174 2 73.264739 360.387363 -7.487785
1175 3 89.091277 256.968796 47.706229
1176 3 92.627677 337.795256 135.604861
1177 2 -260.116396 610.093491 166.978548
1178 3 -235.743477 712.034870 169.087284
1179 3 -177.334492 658.993570 207.014413
1180 2 445.084982 50.829149 104.177195
1181 3 564.892930 177.243522 30.302623
1182 3 465.122783 67.121733 88.640761
1183 2 -198.098317 230.585046 -231.929529
1184 3 -228.779114 236.582421 -279.746855
1185 3 -214.068530 177.215576 -226.894091
1186 2 198.384528 327.938775 61.561229
1187 3 145.617322 426.272907 190.474953
1188 3 125.064688 421.258687 151.476425
1189 2 361.073326 903.445493 329.255159
1190 3 328.458471 1031.202712 190.768336
1191 3 425.608468 937.000618 248.410762
1192 2 130.385693 636.375677 523.220170
1193 3 174.364885 701.390959 595.941030
1194 3 188.016518 732.360747 612.240729
1195 2 -302.418803 -178.616165 39.337160
1196 3 -367.863441 -134.499658 8.957815
1197 3 -356.305920 -89.307668 -62.220757
1198 2 141.910243 34.130551 53.069237
1199 3 140.116764 -47.134520 137.510860
1200 3 181.640421 15.865780 131.925302
1201 2 -580.725868 263.945084 -184.606598
1202 3 -593.318502 235.938231 -83.714136
1203 3 -570.559756 302.875486 -161.586524
1204 2 148.198882 -41.830954 -24.236635
1205 3 150.992002 12.802959 -62.122538
1206 3 192.261946 -57.209920 26.030637
1207 2 -295.122401 -133.743139 -218.711194
1208 3 -210.818023 -110.038170 -257.644644
1209 3 -251.370040 -194.022849 -300.434853
1210 2 267.244113 442.439471 320.583809
1211 3 257.981237 396.613151 350.678883
1212 3 260.913188 382.838586 289.879367
1213 2 -292.892267 161.378688 161.873048
1214 3 -306.746329 145.831418 115.238246
1215 3 -261.215526 181.372534 146.513354
1216 2 370.199518 -96.073871 249.597503
1217 3 429.572624 -64.012940 333.897152
1218 3 371.956613 -38.585843 309.210868
1219 2 425.681925 74.761912 -144.549217
1220 3 359.079490 44.461298 -259.505703
1221 3 436.084680 86.639217 -210.384411
1222 2 170.348014 192.980701 -15.770622
1223 3 229.597277 196.835443 -48.618373
1224 3 213.505773 103.236799 -51.919003
1225 2 98.294846 403.735749 287.608938
1226 3 161.812468 294.452891 297.042363
1227 3 168.451793 325.108133 277.565388
1228 2 78.611177 287.336708 53.490489
1229 3 -28.358802 307.176200 49.583902
1230 3 98.177535 200.116086 2.823359
1231 2 200.396827 -198.205441 120.519618
1232 3 232.715806 -142.174081 47.788697
1233 3 225.910289 -148.544509 -10.608388
1234 2 -229.826972 38.638352 226.396398
1235 3 -233.676652 85.393355 225.864675
1236 3 -168.672145 -32.505319 240.140976
1237 2 -65.385466 -8.188427 328.096908
1238 3 -62.674116 39.044181 444.548776
1239 3 -77.768862 -57.074929 346.495434
1240 2 364.703890 -27.961009 133.568225
1241 3 321.796023 18.599769 218.675810
1242 3 305.878094 -75.714932 232.187361
1243 2 -40.497110 174.732793 106.983702
1244 3 62.998671 39.152968 35.251489
1245 3 75.392734 142.033471 67.041336
1246 2 35.703270 253.101784 375.941690
1247 3 46.931191 284.039933 422.495904
1248 3 40.927938 220.977717 287.633073
1249 2 -353.704307 289.279663 -112.657702
1250 3 -305.641973 351.680325 29.302703
1251 3 -349.402813 303.816540 -26.985591
1252 2 272.760595 137.866479 -452.954766
1253 3 190.207372 38.167658 -366.394523
1254 3 306.659285 171.835221 -428.519371
1255 2 10.021838 -84.321051 455.672545
1256 3 -12.600271 -86.108619 426.997534
1257 3 -56.700434 -75.476461 401.711736
1258 2 -51.423677 -24.456019 544.889209
1259 3 -27.451010 -19.893263 606.504752
1260 3 -32.125738 -8.063231 625.381345
1261 2 158.981718 412.116077 359.402267
1262 3 188.777805 468.212313 350.620465
1263 3 139.636959 367.052130 386.117594
1264 2 495.353219 196.690257 -308.260488
1265 3 436.044894 254.072852 -285.163506
1266 3 458.538403 222.609806 -196.904081
1267 2 147.347375 237.198103 328.796210
1268 3 172.141172 131.224807 432.120065
1269 3 83.928694 139.828265 348.358726
1270 2 97.569444 260.954128 49.062048
1271 3 153.994687 288.306316 -22.842667
1272 3 125.939809 306.897354 26.415905
1273 2 -536.981815 -364.376131 554.593708
1274 3 -516.853548 -429.127011 508.350258
1275 3 -569.939753 -392.308347 553.600747
1276 2 -25.709966 391.354445 313.094347
1277 3 -34.381659 437.494399 280.945338
1278 3 -17.582175 326.022336 204.333544
1279 2 -255.581537 -90.830507 366.349747
1280 3 -170.750088 -122.406216 284.726078
1281 3 -249.534508 12.694793 392.250984
1282 2 291.410019 -42.688996 -350.865996
1283 3 311.868945 -127.695771 -374.694071
1284 3 319.366198 -101.352867 -383.776083
1285 2 -182.266072 315.364103 206.340852
1286 3 -45.489515 295.824439 173.623253
1287 3 -124.400588 274.728875 197.905850
1288 2 435.719560 46.315506 141.435237
1289 3 414.919080 139.626078 196.529056
1290 3 463.809910 26.612117 108.103113
1291 2 -243.887553 -151.646517 69.131870
1292 3 -293.364739 -126.035874 117.254189
1293 3 -316.862006 -204.643102 66.462085
1294 2 -41.149800 252.683986 -241.715437
1295 3 -44.893478 333.099413 -204.539939
1296 3 -23.823774 263.042725 -311.025294
1297 2 -302.765386 -26.031487 -219.231976
1298 3 -287.518733 70.332626 -145.828641
1299 3 -263.044156 7.704199 -238.237490
1300 2 153.913181 136.055542 376.570082
1301 3 187.475223 89.260094 342.034214
1302 3 100.115613 88.725595 364.808770
1303 2 -129.787903 266.338284 77.848925
1304 3 -58.011316 187.284127 121.904854
1305 3 -113.978669 289.276531 64.815560
1306 2 134.016947 198.743231 -103.270637
1307 3 214.513858 244.517932 -109.291434
1308 3 172.876256 203.275643 -98.215077
1309 2 421.034021 211.533424 347.880716
1310 3 401.487721 260.333018 282.738107
1311 3 448.312342 241.009924 347.993862
1312 2 -835.330157 264.843369 128.995851
1313 3 -787.551250 284.570958 235.720792
1314 3 -827.431129 293.215292 254.628955
1315 2 159.006393 101.348632 358.767048
1316 3 158.069560 54.353715 313.208545
1317 3 157.403436 49.888528 511.864131
1318 2 251.053306 -10.725300 403.708618
1319 3 265.847208 21.286677 159.396762
1320 3 286.435351 30.168805 252.689034
1321 2 69.213981 -31.197557 10.470790
1322 3 18.233039 -53.976554 -114.282745
1323 3 -1.623069 -59.002087 105.266216
1324 2 156.839611 -146.026725 -87.883681
1325 3 26.573334 -199.597302 -30.348275
1326 3 37.807100 -208.691318 -73.371170
1327 2 -130.656947 62.182613 190.859321
1328 3 -116.998017 -42.535771 274.342776
1329 3 -232.620388 97.374476 233.458223
1330 2 -9.635889 -179.198535 -7.970585
1331 3 15.290193 -197.888751 25.559001
1332 3 24.672478 -209.524027 2.933441
1333 2 -33.255129 337.100816 249.690204
1334 3 -5.336242 283.984255 231.275514
1335 3 -46.405685 298.014920 263.821364
1336 2 98.911441 368.468865 220.964857
1337 3 17.415908 319.966622 252.646613
1338 3 88.203597 397.123072 201.641881
1339 2 64.428962 171.686751 175.339171
1340 3 30.428853 265.178836 124.865977
1341 3 95.980563 234.788498 203.916055
1342 2 195.500398 -75.428210 241.589972
1343 3 230.908991 -160.858078 199.661531
1344 3 218.476338 -161.374264 88.954897
1345 2 307.036730 306.774108 -409.701418
1346 3 329.003562 331.050119 -215.971999
1347 3 298.432779 256.406101 -346.167781
1348 2 483.755765 110.663772 376.544619
1349 3 463.616849 153.504800 425.648972
1350 3 526.072174 148.046735 418.640601
1351 2 -179.736611 -1.386281 391.317622
1352 3 -150.270665 28.601194 332.208413
1353 3 -166.788286 1.994095 375.874231
1354 2 40.636876 122.783563 35.211003
1355 3 -35.030139 98.041297 29.824145
1356 3 -22.095156 126.937997 -28.744068
1357 2 -262.130445 -3.727057 229.860322
1358 3 -230.720691 11.784400 188.219027
1359 3 -285.925217 -48.006751 287.242136
1360 2 34.121265 136.546093 71.973186
1361 3 -76.605456 68.428932 98.716841
1362 3 -54.204183 159.339702 73.651513
1363 2 224.376845 -198.190495 -40.848292
1364 3 216.070534 -99.925664 21.444432
1365 3 251.812633 -172.857421 77.269213
1366 2 -120.122080 475.837018 628.975925
1367 3 -136.361905 390.500359 621.890242
1368 3 -187.926240 424.199256 579.186423
1369 2 75.048543 349.017143 109.749689
1370 3 6.102387 295.788648 158.287186
1371 3 53.277465 346.822770 67.310698
1372 2 -157.786973 -14.257882 -118.293596
1373 3 -79.010841 -19.163807 -90.083735
1374 3 -119.634141 25.398764 -185.001206
1375 2 -149.968145 231.228369 150.903019
1376 3 -166.394757 330.917477 149.207767
1377 3 -226.687564 363.526166 114.305835
1378 2 591.900246 224.592353 155.336857
1379 3 563.054760 191.618032 187.300777
1380 3 574.119522 186.664811 120.930990
1381 2 -5.135006 217.157808 142.542396
1382 3 4.417148 164.196604 179.638367
1383 3 43.329664 186.273148 193.662175
1384 2 164.003148 160.497280 -386.120227
1385 3 167.874558 222.155563 -335.258532
1386 3 177.707053 12.974061 -383.336157
1387 2 399.444461 -97.030160 -173.357025
1388 3 425.953768 -125.133743 -179.538057
1389 3 509.909690 -105.967208 -143.088856
1390 2 -57.478273 83.178969 133.221914
1391 3 -63.065735 108.723728 171.049367
1392 3 -129.321002 48.467570 81.944548
1393 2 6.094982 261.078301 632.008872
1394 3 -69.244273 226.364884 674.238075
1395 3 -34.055443 333.048205 678.673279
1396 2 -206.473859 7.745638 177.435121
1397 3 -257.131324 26.113240 171.013506
1398 3 -306.592708 22.681454 179.906268
1399 2 -56.606578 69.387920 128.346636
1400 3 -132.062209 76.410638 196.904198
1401 3 -96.884552 88.282055 154.082675
1402 2 151.592507 163.616348 66.339727
1403 3 67.726424 204.525314 52.129622
1404 3 89.370713 83.890610 135.383173
1405 2 217.190420 280.907820 260.808105
1406 3 176.591579 250.198800 273.049993
1407 3 211.333321 270.303562 331.636410
1408 2 -167.575516 -121.268130 -443.562618
1409 3 -158.662981 -23.355404 -284.157168
1410 3 -186.242245 -34.192523 -483.313866
1411 2 -116.919802 534.044947 56.553953
1412 3 -108.548907 518.352028 -28.108701
1413 3 -84.057353 582.425526 43.233278
1414 2 -139.985000 531.603260 -289.870172
1415 3 -40.099576 364.689293 -347.541586
1416 3 -111.070900 474.375400 -268.578194
1417 2 82.321959 235.852129 -109.165077
1418 3 78.510622 280.583847 -146.418100
1419 3 45.178931 365.176256 -114.769031
1420 2 -152.850031 252.294118 464.417850
1421 3 -177.674333 275.612715 324.878706
1422 3 -186.510921 401.924007 318.394162
1423 2 476.986657 129.171468 -116.395523
1424 3 461.051546 146.728638 -118.498254
1425 3 536.975723 144.985231 71.145022
1426 2 -189.771337 49.453680 -421.787924
1427 3 -213.771691 166.960256 -450.708380
1428 3 -220.466356 253.795617 -375.642194
1429 2 -569.717605 -137.526056 173.380345
1430 3 -561.166973 -105.018407 314.955738
1431 3 -510.168940 -90.973837 163.772376
1432 2 -392.074111 -174.935953 -54.858727
1433 3 -331.528244 -256.551880 -7.746063
1434 3 -398.023426 -232.208286 -73.418213
1435 2 -301.432522 227.613794 54.882942
1436 3 -395.105181 275.950676 175.760793
1437 3 -316.876155 131.101196 184.813411
1438 2 7.503737 322.836613 -325.163631
1439 3 88.296153 313.139108 -276.532953
1440 3 83.706934 336.514478 -293.520661
1441 2 -221.008884 177.450133 60.235634
1442 3 -233.092095 229.151008 55.881842
1443 3 -255.039577 57.898852 -45.733312
1444 2 -378.357056 164.081660 -350.738494
1445 3 -418.613492 273.794420 -355.375929
1446 3 -349.954387 193.816739 -332.892837
1447 2 -164.981212 84.670893 63.419558
1448 3 -154.510867 171.237221 128.047589
1449 3 -114.456674 64.836719 121.108551
1450 2 -130.066266 388.588421 32.020578
1451 3 -75.165049 337.629560 92.283754
1452 3 -35.177061 285.094623 134.460476
1453 2 143.837696 324.131106 174.496130
1454 3 119.954800 316.952312 305.751631
1455 3 103.646707 298.843827 172.007131
1456 2 -216.576940 185.017746 135.328870
1457 3 -223.527647 177.665456 -6.558722
1458 3 -200.057692 217.549729 97.829562
1459 2 239.950336 158.181029 23.044232
1460 3 316.353345 107.379670 216.066995
1461 3 188.228720 154.450232 138.806780
1462 2 -35.843172 291.121419 320.649017
1463 3 -62.747790 265.991444 355.940170
1464 3 -95.945205 290.607879 270.279799
1465 2 607.152791 724.143866 159.124664
1466 3 593.646619 673.456554 216.680293
1467 3 702.757192 738.172555 289.234036
1468 2 -679.460014 105.893155 247.251772
1469 3 -571.618633 146.340898 335.306199
1470 3 -574.342930 75.760309 242.414376
1471 2 -26.164393 -96.481483 282.218359
1472 3 -25.584718 -154.856978 313.329920
1473 3 -5.643903 -152.663486 241.639441
1474 2 -316.214666 171.813342 402.133837
1475 3 -359.635899 231.790076 518.574875
1476 3 -394.162333 276.808471 445.546645
1477 2 -513.528080 423.957021 -49.062810
1478 3 -501.229031 588.173475 -64.635137
1479 3 -560.123330 610.991882 5.379960
1480 2 -372.195871 556.991617 257.316726
1481 3 -381.665564 657.525079 350.341290
1482 3 -336.131927 583.788316 326.619644
1483 2 -333.501744 601.956949 297.811283
1484 3 -322.874500 630.229193 255.861623
1485 3 -329.606781 544.496737 248.565332
1486 2 -68.892384 314.449109 -117.628993
1487 3 -97.319309 350.556759 -141.105997
1488 3 -109.328521 325.767269 -93.966134
1489 2 -205.792501 -224.555073 30.638104
1490 3 -240.509777 -153.169895 -86.115507
1491 3 -263.087861 -119.443357 -100.789277
1492 2 226.307774 -0.503072 -393.922575
1493 3 196.629972 -33.777283 -420.651482
1494 3 116.436235 8.474650 -316.886779
1495 2 176.437207 250.931920 387.256250
1496 3 194.611979 271.479643 295.981112
1497 3 111.320277 303.241210 250.588932
1498 2 23.523927 -42.355045 297.690074
1499 3 3.485603 -136.492620 199.456588
1500 3 15.247283 -0.502519 176.642656
1501 2 184.790440 505.109461 -321.700095
1502 3 132.917188 409.327611 -389.574279
1503 3 178.792872 493.939908 -306.979864
1504 2 314.461462 410.885686 196.952098
1505 3 259.005825 469.528244 126.468352
1506 3 299.171548 421.473402 212.780282
1507 2 -6.277631 296.420234 239.700478
1508 3 -13.144512 285.838721 130.226959
1509 3 -28.560592 305.056693 182.432770
1510 2 -491.338114 399.026435 -108.250397
1511 3 -419.657923 538.698917 -57.591764
1512 3 -475.394475 487.201916 -148.858968
1513 2 164.206476 -140.877156 303.082848
1514 3 243.448504 -145.113480 428.090946
1515 3 210.146818 -126.133592 285.995408
1516 2 -305.469790 183.971722 371.892275
1517 3 -306.411751 231.196486 391.547899
1518 3 -293.153585 114.781130 252.084463
1519 2 -210.056207 82.735023 288.178709
1520 3 -254.194886 58.501409 339.735867
1521 3 -288.230534 153.926658 311.690669
1522 2 116.150692 341.757493 415.573667
1523 3 103.613034 411.156018 387.045458
1524 3 138.994795 328.658242 388.505875
1525 2 -80.292457 437.458182 26.083781
1526 3 -11.389093 346.318352 -8.516593
1527 3 -76.632325 513.477443 -10.246003
1528 2 374.578809 428.960234 200.530017
1529 3 311.477844 264.233570 103.824444
1530 3 386.122673 341.782823 137.291736
1531 2 157.451467 475.761544 11.696934
1532 3 120.032220 447.783624 -68.501853
1533 3 91.420450 494.438608 -91.514980
1534 2 85.800665 146.336497 264.875160
1535 3 53.981723 88.357978 154.639816
1536 3 -6.741274 84.798176 115.989324
1537 2 480.338796 411.038063 185.289318
1538 3 389.558327 393.067451 136.877172
1539 3 437.034355 385.935456 132.710949
1540 2 312.819163 257.618719 61.772202
1541 3 341.577166 232.551477 44.912452
1542 3 378.393140 321.560913 10.267079
1543 2 657.134198 107.399663 265.372287
1544 3 684.828961 67.418189 318.507658
1545 3 725.245327 86.492085 329.991734
1546 2 -122.117790 12.715377 487.109225
1547 3 -50.464449 42.088588 443.012338
1548 3 -120.475515 67.248437 461.709285
1549 2 135.063474 177.183130 -334.687451
1550 3 108.723409 67.965217 -229.536710
1551 3 149.081312 101.464922 -270.679476
1552 2 -23.513877 186.554078 318.884922
1553 3 -51.755167 58.518111 211.350458
1554 3 18.877548 117.942983 208.335483
1555 2 -176.418871 69.162250 42.994331
1556 3 -244.413121 127.825547 -35.129301
1557 3 -312.679079 80.171368 -86.710188
1558 2 -46.816278 230.566101 140.077412
1559 3 67.852183 156.535059 200.392736
1560 3 -15.570220 188.949376 240.853545
1561 2 420.846679 168.831372 99.949167
1562 3 485.107783 126.974867 69.865100
1563 3 566.476265 76.193213 129.251933
1564 2 462.627782 342.172935 327.885211
1565 3 376.847988 377.760629 232.961226
1566 3 349.663141 318.644518 349.992590
1567 2 306.564185 -148.365859 -148.657696
1568 3 387.819449 -150.123428 -70.034914
1569 3 384.131770 -146.192558 -193.101291
1570 2 152.883022 368.405403 509.506406
1571 3 160.336484 441.154040 420.933523
1572 3 65.755762 432.499731 398.580183
1573 2 551.690054 176.311195 -36.695132
1574 3 489.536448 348.792028 26.296583
1575 3 528.797852 312.296578 82.252955
1576 2 -194.645457 53.937915 -225.326285
1577 3 -164.109542 3.002863 -207.214904
1578 3 -183.953986 68.454551 -176.700957
1579 2 291.233597 249.238148 258.042118
1580 3 226.322490 323.800929 309.153945
1581 3 293.999356 285.399378 259.888822
1582 2 562.186381 53.088247 216.823977
1583 3 588.411939 69.612434 258.267598
1584 3 575.128013 92.886353 187.834585
1585 2 -279.850925 297.837486 466.400820
1586 3 -185.567099 212.877346 296.004306
1587 3 -251.207718 246.503292 419.053403
1588 2 -286.521432 572.382062 16.718592
1589 3 -201.103726 506.709773 81.425496
1590 3 -247.386312 542.417764 49.779915
1591 2 -247.621007 543.887653 -204.502297
1592 3 -154.179876 459.908828 -187.606940
1593 3 -188.189702 496.603820 -193.887907
1594 2 -242.467895 501.706104 446.184706
1595 3 -299.304416 544.882865 418.205916
1596 3 -287.388456 571.493220 525.800459
1597 2 53.144748 287.186885 114.103484
1598 3 -41.812165 172.319797 166.367196
1599 3 21.306736 242.003965 176.216919
1600 2 -278.999135 261.539995 296.371513
1601 3 -239.969370 306.948258 158.003860
1602 3 -242.771932 313.902089 136.033929
1603 2 14.638732 890.546239 354.155335
1604 3 -54.713414 864.096441 459.646603
1605 3 -39.934327 822.428615 336.286354
1606 2 -174.423839 -170.223370 150.842719
1607 3 -159.726480 -94.173321 82.643075
1608 3 -226.417890 -117.611743 73.275799
1609 2 -3.101092 345.968441 147.629342
1610 3 3.052502 373.769200 198.725881
1611 3 37.860713 386.598697 89.966577
1612 2 208.853308 230.845221 315.044491
1613 3 192.021557 267.480643 163.653040
1614 3 201.892765 214.661021 284.455096
1615 2 -79.674124 280.603491 -112.339115
1616 3 -143.860328 349.284860 -136.990284
1617 3 -157.310594 292.396815 -55.739405
1618 2 170.402713 -107.422250 37.913303
1619 3 153.748222 7.823208 42.872801
1620 3 94.684304 -42.889123 61.647440
1621 2 214.313131 15.851294 154.958542
1622 3 201.256542 46.554968 177.101772
1623 3 209.906133 -18.738877 182.894948
1624 2 -59.182740 218.233329 -203.463429
1625 3 -64.308946 175.226005 -210.464972
1626 3 -21.410012 180.218879 -215.241385
1627 2 -350.208309 68.939173 252.149007
1628 3 -275.422407 -67.359441 239.399180
1629 3 -263.031412 30.429729 175.965275
1630 2 -380.053265 753.576015 221.046063
1631 3 -376.725011 629.194633 89.714596
1632 3 -288.949976 587.529543 216.647855
1633 2 -421.264183 34.713010 327.744628
1634 3 -506.168647 -10.138941 305.512497
1635 3 -459.701085 84.602489 324.203262
1636 2 158.655041 560.868770 234.066060
1637 3 126.437461 606.161785 220.882415
1638 3 147.035574 574.554937 127.963892
1639 2 -411.580921 240.400141 220.339786
1640 3 -438.788742 262.806086 182.131102
1641 3 -391.378505 201.640301 273.725455
1642 2 285.125436 395.235004 -164.643790
1643 3 248.138339 356.175867 -72.103149
1644 3 277.834333 325.068206 -127.709160
1645 2 397.710661 223.654872 394.676906
1646 3 424.161645 164.132898 382.856953
1647 3 397.818358 221.339290 408.765424
1648 2 -73.080241 648.938855 -187.099573
1649 3 -47.574884 612.612658 -147.994265
1650 3 -53.492018 624.275500 -214.971916
1651 2 45.266134 315.397704 -237.576863
1652 3 90.033201 343.116756 -242.437324
1653 3 150.311051 323.010489 -318.008644
1654 2 381.313949 213.382280 339.459977
1655 3 433.149130 143.834502 324.558568
1656 3 397.251993 225.565883 352.047595
1657 2 160.523567 -129.287097 -143.712893
1658 3 145.809298 -87.420262 -205.048505
1659 3 204.406426 -129.562356 -217.272993
1660 2 437.390897 375.813660 -47.539694
1661 3 422.587578 318.605169 49.267045
1662 3 397.886565 314.721570 -137.054183
1663 2 -212.953352 237.075526 227.240196
1664 3 -200.386058 262.885118 153.520165
1665 3 -183.604557 246.196348 241.149732
1666 2 -351.369139 452.396330 378.563717
1667 3 -292.814915 486.832574 423.534736
1668 3 -334.784765 357.519318 292.940102
1669 2 -50.514717 680.607068 143.266423
1670 3 -51.736365 592.592630 78.375542
1671 3 -134.095055 631.913585 36.236028
1672 2 -8.422108 289.095783 274.337776
1673 3 34.274869 346.818117 157.402583
1674 3 -62.953545 377.702062 408.856317
1675 2 -178.549072 256.167166 72.553253
1676 3 -110.959739 287.735729 13.001884
1677 3 -169.190269 279.669005 -17.514181
1678 2 14.715664 381.576843 111.173193
1679 3 33.488025 367.683625 111.630233
1680 3 -31.322953 353.727491 -28.728536
1681 2 -349.316315 332.148112 76.099951
1682 3 -358.309986 276.768727 64.008906
1683 3 -365.309403 207.238898 112.171957
1684 2 -301.793057 423.885896 635.155223
1685 3 -359.684633 349.506234 634.150748
1686 3 -328.608964 256.258376 595.893203
1687 2 -21.238085 511.968600 -234.774674
1688 3 -91.006476 627.209501 -213.528290
1689 3 -37.824677 628.943093 -224.417131
1690 2 252.632771 134.666418 -63.721196
1691 3 232.872976 91.070817 -106.421767
1692 3 217.593538 128.896689 -99.500895
1693 2 5.978101 133.905626 192.072891
1694 3 32.685365 192.477332 137.231621
1695 3 -39.300605 138.856666 174.861769
1696 2 -7.516303 381.062513 -111.109206
1697 3 91.192681 354.697464 -60.732367
1698 3 -23.251102 393.909829 -150.095731
1699 2 632.531120 703.268019 96.580261
1700 3 575.647295 702.911144 148.176094
1701 3 606.979943 602.693080 82.621172
1702 2 171.442325 224.251260 115.455949
1703 3 206.992066 252.657166 135.374685
1704 3 136.662499 131.820929 55.298089
1705 2 -190.594335 -272.180151 24.935994
1706 3 -216.968682 -194.075395 -27.976001
1707 3 -261.946456 -219.738021 22.283877
1708 2 -114.007509 -310.615364 269.701061
1709 3 -62.727811 -378.698840 422.309320
1710 3 -113.709118 -294.358762 289.236195
1711 2 -87.666650 -244.811436 -51.780670
1712 3 -84.397576 -261.831112 27.714974
1713 3 -120.219140 -312.429692 -63.206060
1714 2 406.280989 217.307403 474.845288
1715 3 312.199308 246.359612 562.300144
1716 3 324.145932 214.040413 460.511805
1717 2 -110.219973 233.915012 323.988705
1718 3 -80.711924 296.278864 383.686432
1719 3 -47.716684 363.862728 445.984542
1720 2 -461.890225 417.583538 44.184250
1721 3 -352.387269 408.281100 134.704021
1722 3 -360.545814 320.852332 175.990830
1723 2 305.026083 -39.967106 81.826724
1724 3 389.590791 -10.743083 17.763219
1725 3 360.179286 25.660576 52.622882
1726 2 65.172574 -175.080607 -11.709287
1727 3 145.433862 -163.118454 -109.493462
1728 3 161.510687 -47.142700 -117.463546
1729 2 27.202721 51.576867 -43.385243
1730 3 -28.557699 45.826536 -55.280146
1731 3 -3.611329 36.178935 -145.325205
1732 2 257.065233 257.139282 289.691436
1733 3 182.354970 293.654514 231.606612
1734 3 149.364407 225.191539 159.535768
1735 2 171.924558 99.401549 161.058829
1736 3 175.033461 34.997119 32.768691
1737 3 78.887229 66.210635 32.152428
1738 2 11.788415 -79.228034 40.534693
1739 3 62.919143 -154.294678 60.678872
1740 3 74.716966 -48.424641 -12.777386
1741 2 85.641030 -356.559609 -424.013718
1742 3 26.447016 -310.055816 -452.782095
1743 3 90.992281 -243.185186 -453.998396
1744 2 83.886295 -175.259409 263.956634
1745 3 28.786021 -247.120176 51.943568
1746 3 36.966246 -104.477864 134.959153
1747 2 -141.534170 -51.223317 540.215867
1748 3 -157.951353 -63.762768 434.558903
1749 3 -127.154688 -53.870755 443.615636
1750 2 -36.614023 266.171326 340.523830
1751 3 -24.394532 237.347470 255.944637
1752 3 -45.033411 264.233084 234.866514
1753 2 -222.462657 8.109640 -147.887152
1754 3 -271.018515 -41.789940 -109.296306
1755 3 -194.678488 42.435297 -158.001741
1756 2 -44.258450 313.239851 11.479203
1757 3 -18.269436 179.834925 37.417904
1758 3 -0.849386 267.910194 -18.370980
1759 2 104.236575 -208.461931 -45.418037
1760 3 24.128736 -252.496168 -48.925714
1761 3 12.412884 -147.770428 -23.226781
1762 2 34.365831 108.006763 225.546475
1763 3 13.702115 104.395358 177.235178
1764 3 74.067290 95.314812 163.326702
1765 2 -15.883439 -171.588122 604.044843
1766 3 -22.539289 -137.052625 512.134817
1767 3 5.881900 -253.757971 512.699735
1768 2 9.787712 150.909352 112.149280
1769 3 -17.637336 154.571395 139.898033
1770 3 10.327097 135.094419 49.544150
1771 2 161.014477 342.019980 129.971431
1772 3 93.223499 229.244910 224.723805
1773 3 107.782817 316.275387 112.294292
1774 2 -93.367195 -211.878547 -229.719216
1775 3 -17.898786 -69.250664 -275.916518
1776 3 -56.759262 -168.553073 -171.990823
1777 2 400.538982 367.389757 -299.829748
1778 3 407.963541 364.631213 -344.708213
1779 3 358.559197 485.591691 -321.039376
1780 2 42.053129 222.344993 133.867770
1781 3 75.073902 177.935955 105.872198
1782 3 67.747013 282.259694 163.314275
1783 2 -552.645132 351.293255 -32.781199
1784 3 -587.831305 436.876466 -70.335889
1785 3 -519.092087 380.888333 -33.104602
1786 2 86.621574 -158.369411 300.173768
1787 3 58.386690 -126.000691 314.596170
1788 3 149.332806 -144.646146 186.981322
1789 2 -319.764525 267.381511 372.972402
1790 3 -294.347323 159.842173 343.932379
1791 3 -262.108654 185.940220 281.832072
1792 2 214.207640 -31.375663 171.734590
1793 3 239.025163 0.179838 238.218011
1794 3 223.643919 -53.153462 158.287269
1795 2 -22.180311 306.710250 -14.252036
1796 3 -4.832089 207.673862 -41.033497
1797 3 -22.839998 292.116388 -9.736362
1798 2 -81.692573 242.622384 525.421940
1799 3 5.645855 185.771681 442.640794
1800 3 -22.596188 374.765628 353.598868
1801 2 117.599197 456.621236 158.317161
1802 3 37.698865 375.985316 162.228059
1803 3 116.245300 341.908289 108.807535
1804 2 221.997787 -270.163820 219.187273
1805 3 271.467442 -217.592818 168.190604
1806 3 259.164523 -150.669794 203.698141
1807 2 -126.423142 275.409038 75.111750
1808 3 -81.392025 268.261687 231.932543
1809 3 -140.155752 322.062441 66.729778
1810 2 368.570579 -23.850827 285.474867
1811 3 432.023130 -89.503241 290.209376
1812 3 357.423017 -115.193228 401.224537
1813 2 -308.522848 -234.152564 280.929396
1814 3 -427.220770 -213.336516 202.193661
1815 3 -391.987465 -168.969594 310.353749
1816 2 -26.007633 163.637527 22.700215
1817 3 -13.451062 75.532989 114.643446
1818 3 29.071031 115.085399 -26.313838
1819 2 -430.781599 -63.084323 547.910789
1820 3 -432.689627 -54.627852 564.315589
1821 3 -364.185154 -39.129217 445.231785
1822 2 -50.973963 329.824958 369.210391
1823 3 -16.507374 305.781268 240.691373
1824 3 -115.727839 382.632903 299.164126
1825 2 -368.422213 -194.725895 211.348557
1826 3 -294.834929 -174.481223 242.543907
1827 3 -343.542115 -163.276639 266.686437
1828 2 559.879708 -451.908289 246.504754
1829 3 528.156551 -455.400895 243.285500
1830 3 594.606795 -428.486424 159.035680
1831 2 -187.331762 115.435470 227.537730
1832 3 -176.758588 119.048851 285.868405
1833 3 -197.472275 68.154700 232.201052
1834 2 220.012961 165.947362 355.514711
1835 3 207.301402 188.463249 405.793036
1836 3 234.716027 171.405244 306.975626
1837 2 96.000726 127.109463 -143.699313
1838 3 18.372419 93.210760 -93.479129
1839 3 54.936831 8.843348 -101.957345
1840 2 -352.083208 -329.245690 554.905321
1841 3 -273.335664 -319.543715 616.627331
1842 3 -330.290259 -284.025352 663.130655
1843 2 207.130649 -1.452819 254.112621
1844 3 246.150764 -31.867438 227.012575
1845 3 201.388014 -67.341925 262.691786
1846 2 473.171881 -39.920699 136.100290
1847 3 472.367543 75.835068 267.784296
1848 3 487.071817 32.476139 125.319880
1849 2 -218.576815 56.411010 424.631691
1850 3 -178.950243 35.635188 500.645557
1851 3 -110.224977 88.944795 507.742385
1852 2 429.543413 292.022060 -7.657584
1853 3 479.159084 141.585044 120.093199
1854 3 504.173920 270.857256 8.539098
1855 2 -351.326124 -229.371927 114.645734
1856 3 -301.585132 -297.715533 152.923667
1857 3 -374.144967 -349.422414 187.758048
1858 2 -39.751009 308.085477 228.062460
1859 3 -1.652219 281.477159 254.560204
1860 3 -63.083625 429.900254 224.087202
1861 2 -630.675328 179.744414 199.506112
1862 3 -562.902055 195.074574 246.889362
1863 3 -563.075051 226.592811 182.977040
1864 2 10.258605 -16.224511 -31.490741
1865 3 31.159253 -54.683082 168.585748
1866 3 41.957635 -9.162094 -1.668921
1867 2 -307.324427 191.535108 169.932881
1868 3 -325.788136 216.549378 133.339793
1869 3 -320.472776 230.667453 214.627705
1870 2 -133.420808 502.681428 334.871993
1871 3 -55.978508 452.308632 275.245287
1872 3 -39.035128 544.962535 283.055569
1873 2 256.396373 71.560433 86.788111
1874 3 223.376365 143.983086 63.218254
1875 3 250.614605 60.628549 177.560592
1876 2 -290.705419 242.555181 262.136279
1877 3 -279.949476 124.920563 404.295235
1878 3 -240.757019 199.434524 394.285766
1879 2 -235.071141 367.796532 668.438625
1880 3 -223.842135 427.101115 640.719266
1881 3 -250.222694 154.019814 612.710805
1882 2 -74.343536 -232.663578 442.478862
1883 3 -109.892962 -164.012800 479.543059
1884 3 -86.733428 -232.021577 574.425952
1885 2 37.557709 11.487041 233.758581
1886 3 12.742014 -35.713164 167.615704
1887 3 -3.658071 43.994770 179.630599
1888 2 301.850907 -7.437432 -96.600921
1889 3 330.428741 -23.909581 -69.562255
1890 3 275.742685 21.962762 -128.576502
1891 2 -88.913743 112.805014 140.593073
1892 3 -104.752890 31.387990 252.540220
1893 3 -164.591418 52.987526 307.920890
1894 2 602.824847 -131.068614 -431.638782
1895 3 619.228263 -235.544577 -439.507298
1896 3 484.549849 -114.662310 -374.623881
1897 2 -515.184084 -17.568866 301.292551
1898 3 -526.647096 30.796907 326.464558
1899 3 -534.601685 -3.137541 256.865101
1900 2 -211.400509 -217.243591 -361.160138
1901 3 -220.226263 -160.976900 -369.086113
1902 3 -178.575842 -23.436735 -384.446988
1903 2 -404.134817 20.492892 -44.506932
1904 3 -290.182514 73.606915 -68.143465
1905 3 -221.572857 70.744260 4.369595
1906 2 313.703023 -18.780948 240.315751
1907 3 346.146362 66.047976 207.734363
1908 3 360.858450 -7.831925 204.737932
1909 2 104.936057 -145.133261 -221.467347
1910 3 120.813763 -162.575053 -212.460673
1911 3 100.357832 -266.424508 -282.304375
1912 2 -25.193946 396.983649 6.620436
1913 3 1.201490 378.741397 -40.466369
1914 3 -10.818039 402.829757 10.853484
1915 2 218.310146 308.221434 94.295988
1916 3 207.065868 342.494019 138.584455
1917 3 207.153069 374.216906 127.524234
1918 2 -60.271363 154.417710 378.785101
1919 3 -132.938427 89.515693 278.949932
1920 3 -49.956758 106.706515 429.055233
1921 2 557.530440 415.441588 464.282488
1922 3 602.217760 440.316405 412.029164
1923 3 599.605326 507.992710 556.756435
1924 2 -41.822197 278.609844 211.854596
1925 3 -61.638811 242.727780 165.449093
1926 3 -76.178002 223.574031 237.670180
1927 2 -524.707268 164.199858 333.201632
1928 3 -441.334670 206.459481 207.992041
1929 3 -486.830962 239.044466 255.359551
1930 2 -328.248799 83.181444 126.927865
1931 3 -275.649214 88.273510 272.714246
1932 3 -314.507611 80.164800 183.009866
1933 2 -365.502759 78.378000 -96.528710
1934 3 -378.711107 71.808195 -54.929891
1935 3 -342.811777 190.735864 10.237302
1936 2 -183.138938 275.939790 -238.144069
1937 3 -245.990146 306.832857 -232.359011
1938 3 -274.912985 346.603737 -197.495182
1939 2 124.751975 -210.369157 183.499741
1940 3 75.103205 -213.666616 20.835163
1941 3 71.255798 -234.411189 2.511614
1942 2 433.792994 279.467548 -38.108188
1943 3 423.052088 261.949005 -152.373523
1944 3 479.534557 246.949721 -32.321082
1945 2 138.106326 430.834588 669.791432
1946 3 134.902963 472.303421 656.344997
1947 3 60.408526 584.057371 567.927809
1948 2 -348.485749 311.913399 -90.390034
1949 3 -319.853093 203.023678 -7.474488
1950 3 -329.025947 307.383252 -61.305727
1951 2 -200.753125 -233.085300 523.459562
1952 3 -242.991196 -208.430170 558.787268
1953 3 -199.672754 -228.994024 572.724925
1954 2 -207.753035 6.896503 269.234195
1955 3 -246.826653 34.556924 362.524225
1956 3 -160.572205 21.266164 294.631940
1957 2 572.239299 430.032744 399.372537
1958 3 513.721458 437.362791 469.663121
1959 3 511.102861 327.358002 455.899280
1960 2 -219.479631 353.367636 346.882256
1961 3 -111.402409 318.311879 440.235575
1962 3 -159.270253 291.679416 363.763479
1963 2 -16.679467 347.841974 9.755586
1964 3 3.859194 390.874871 61.061866
1965 3 -12.380261 322.861761 82.846579
1966 2 84.670512 47.718616 223.872074
1967 3 45.789243 51.867962 352.565941
1968 3 66.721048 -35.595593 416.453002
1969 2 -167.635811 22.093282 254.134634
1970 3 -325.913162 42.721928 265.998852
1971 3 -275.589585 104.184809 227.036618
1972 2 35.036759 151.020997 262.101866
1973 3 44.684853 317.402663 109.106619
1974 3 -0.497821 274.897870 206.168144
1975 2 -48.712586 74.123168 634.816892
1976 3 -94.197822 117.974881 539.116514
1977 3 -8.489976 12.226212 622.652150
1978 2 -171.274842 -242.977769 173.803904
1979 3 -232.396169 -227.865350 145.634960
1980 3 -150.490324 -226.296374 60.769231
1981 2 -138.159648 28.139877 650.953182
1982 3 -116.621337 24.144822 615.855717
1983 3 -113.567823 22.437559 605.573679
1984 2 85.785622 553.265351 244.378544
1985 3 47.549839 544.196847 326.406306
1986 3 123.658095 427.922177 217.283222
1987 2 -233.290924 379.737125 174.682695
1988 3 -224.596137 375.583102 324.907749
1989 3 -193.752353 335.741735 299.107332
1990 2 -121.347802 395.578012 487.750570
1991 3 -94.202124 523.530820 368.349139
1992 3 -160.547900 484.339771 361.854686
1993 2 135.312799 325.951636 190.479271
1994 3 138.968629 229.706481 136.410113
1995 3 187.108378 308.642502 89.338010
1996 2 36.441208 403.794955 179.260568
1997 3 52.998698 403.844916 250.396204
1998 3 144.518142 386.808942 175.647222
1999 2 667.164881 243.440222 86.461161
2000 3 681.038687 252.759247 100.845127
2001 3 647.728990 212.253438 117.348312
2002 2 133.878942 186.141023 480.057272
2003 3 139.554936 206.882449 456.763226
2004 3 114.311561 186.377298 559.264799
2005 2 113.720688 162.091738 185.230051
2006 3 114.551963 225.984381 82.038223
2007 3 114.928958 146.976262 91.915679
2008 2 82.201549 357.451993 149.855201
2009 3 56.165798 380.458234 -0.552739
2010 3 77.452473 398.627414 147.883081
2011 2 277.242406 -45.637605 316.756313
2012 3 367.136526 -20.726020 283.053078
2013 3 328.713699 -21.100087 333.592403
2014 2 20.277172 397.670000 408.831444
2015 3 6.485201 410.268422 188.203915
2016 3 -78.535966 455.207907 347.859238
2017 2 -24.842594 165.534049 292.668806
2018 3 19.187240 250.664811 291.612408
2019 3 8.183641 164.934802 289.938191
2020 2 -76.474101 -136.320858 273.876963
2021 3 -29.866307 -54.611135 203.589349
2022 3 -101.805138 -9.613964 61.641443
2023 2 -183.734895 545.992899 332.333147
2024 3 -171.910992 474.916095 351.355471
2025 3 -248.070406 442.744651 317.036391
2026 2 -151.732302 569.053419 347.753215
2027 3 -158.115524 594.605069 349.159051
2028 3 -137.380675 569.685552 388.341986
2029 2 46.566257 761.364379 558.056838
2030 3 94.150983 714.503012 617.271444
2031 3 -36.262171 669.654996 505.679704
2032 2 -322.105609 222.245678 40.174326
2033 3 -318.820075 230.651002 145.396702
2034 3 -287.831224 198.318970 23.322763
2035 2 -336.760533 465.688524 297.522366
2036 3 -324.406538 506.397811 331.691285
2037 3 -388.671192 404.523787 339.259776
2038 2 -431.957613 364.059380 12.698878
2039 3 -489.003932 368.080001 28.298433
2040 3 -437.070669 330.077531 36.358759
2041 2 48.034411 354.936323 -0.861314
2042 3 39.207393 452.492543 37.146679
2043 3 65.040451 396.639424 77.033317
2044 2 326.360167 232.058843 339.706049
2045 3 252.687248 204.787390 334.271057
2046 3 317.343151 253.314751 355.525634
2047 2 -23.074687 517.366243 42.495880
2048 3 11.950012 541.903372 42.852667
2049 3 42.499520 427.287489 146.071168
2050 2 268.997265 63.322668 -271.674836
2051 3 219.466847 84.783603 -144.248583
2052 3 267.682173 97.671826 -145.590780
2053 2 -178.117495 564.858070 211.841882
2054 3 -250.780480 526.383903 260.124211
2055 3 -152.560157 558.472818 170.777656
2056 2 -532.464359 128.133928 354.445433
2057 3 -516.171771 41.940088 280.665868
2058 3 -565.764788 30.348185 211.098684
2059 2 -153.859755 496.719220 184.337762
2060 3 -136.399127 439.002056 72.499374
2061 3 -177.492525 432.139420 27.236805
2062 2 -382.135127 -1.995929 -77.048405
2063 3 -331.693204 28.091223 58.823275
2064 3 -299.885299 85.282623 -27.376191
2065 2 -123.117740 374.636453 40.668549
2066 3 -63.033166 351.252659 -19.658892
2067 3 -82.725043 373.205821 127.359801
2068 2 -277.857335 -208.701505 153.131812
2069 3 -355.223577 -136.757996 263.431442
2070 3 -244.953603 -273.277657 189.725223
2071 2 -1.158108 442.815503 191.148238
2072 3 -71.951075 558.258985 115.925518
2073 3 -1.441643 405.615911 168.911052
2074 2 60.224019 475.713316 312.490551
2075 3 109.917129 470.797437 319.894102
2076 3 136.151425 505.279597 265.614429
2077 2 -184.359076 549.264861 168.168278
2078 3 -231.462516 482.358288 280.561358
2079 3 -283.919918 502.567366 332.878395
2080 2 235.683081 511.353404 196.616000
2081 3 132.537241 528.332150 298.219269
2082 3 289.374524 537.997939 274.090707
2083 2 5.488654 343.330346 -93.296863
2084 3 104.845751 313.656874 -0.698535
2085 3 45.507506 336.405737 -38.922398
2086 2 -193.470626 434.967538 -188.710796
2087 3 -232.362941 389.575513 -77.316462
2088 3 -191.929762 414.812709 -179.962982
2089 2 -153.117437 -206.422976 -15.894985
2090 3 -172.055257 -123.584199 55.364781
2091 3 -174.701919 -111.078584 84.226685
2092 2 208.773367 340.241230 -208.029621
2093 3 149.004674 278.959634 -215.865440
2094 3 207.320641 330.782311 -182.953951
2095 2 213.624255 337.688887 513.855367
2096 3 111.203958 488.941530 452.702482
2097 3 128.260397 326.887977 515.314492
2098 2 -290.272290 -23.290512 -16.058930
2099 3 -215.092698 -57.393116 -13.343612
2100 3 -272.443596 -18.441303 -51.453295
2101 2 7.961332 407.738186 246.261505
2102 3 10.384857 490.542997 164.754054
2103 3 -12.216220 373.333658 266.395804
2104 2 154.357391 398.070512 34.316770
2105 3 210.995181 403.191892 65.844824
2106 3 172.747199 322.182312 -9.555967
2107 2 -21.666402 169.300165 92.563344
2108 3 73.817996 279.680530 17.587826
2109 3 46.389006 138.473137 73.939674
2110 2 -666.273506 502.326013 -87.260981
2111 3 -586.989154 528.972707 -41.734155
2112 3 -672.509923 460.247853 -81.918349
2113 2 8.036201 494.079118 293.034409
2114 3 20.908761 438.829791 301.004188
2115 3 21.518002 378.175493 309.707939
2116 2 -20.674044 427.983268 2.013762
2117 3 63.540680 459.900283 -1.131413
2118 3 29.813269 422.691903 33.386716
2119 2 39.242105 65.757406 168.072034
2120 3 46.558128 115.069480 173.722431
2121 3 76.040993 169.122944 262.802940
2122 2 351.359029 589.800272 -151.593827
2123 3 392.987967 606.452552 -19.292916
2124 3 452.288034 549.636514 -79.363838
2125 2 -82.199358 793.757166 56.895799
2126 3 -17.381940 717.813471 20.532433
2127 3 -133.222497 770.368781 19.974029
2128 2 247.530710 228.169845 126.959989
2129 3 255.605839 263.934381 22.111034
2130 3 218.559655 259.199964 -56.856029
2131 2 360.081301 605.612180 187.960648
2132 3 420.896472 545.246916 247.480463
2133 3 410.677214 506.552561 304.107970
2134 2 -353.230628 -257.443338 322.503600
2135 3 -354.464324 -207.731016 347.953194
2136 3 -349.569991 -196.415395 264.546701
2137 2 -617.795470 478.981507 -62.109963
2138 3 -565.391090 463.777497 -36.066860
2139 3 -630.840929 457.346146 -42.809434
2140 2 -1.656970 867.328507 155.860213
2141 3 57.408679 790.629524 172.826046
2142 3 35.934597 776.409443 32.952040
2143 2 145.586928 611.197930 634.425051
2144 3 159.307323 650.332602 645.061694
2145 3 149.458547 610.829682 706.470505
2146 2 -13.241027 379.703037 20.795864
2147 3 -2.937967 393.475655 26.027388
2148 3 0.377995 435.988050 -93.201864
2149 2 297.475314 120.344089 180.120197
2150 3 340.053089 101.760250 -19.660741
2151 3 259.699335 226.534761 126.321015
2152 2 3.366641 354.566889 196.784372
2153 3 -19.589886 492.080576 120.971981
2154 3 37.787130 428.676705 270.837872
2155 2 175.497786 645.691342 173.654298
2156 3 227.788860 653.260399 76.921020
2157 3 238.425669 591.742589 181.697339
2158 2 203.308725 831.621125 297.254613
2159 3 138.058147 851.881989 252.448847
2160 3 209.099737 875.791881 349.345894
2161 2 225.920346 591.005242 -42.809512
2162 3 215.463669 699.829662 -48.238115
2163 3 221.602829 591.553630 10.374507
2164 2 47.423651 201.975479 409.594164
2165 3 2.710376 234.196550 338.234155
2166 3 44.738896 294.354093 237.297695
2167 2 348.133962 109.938551 145.594873
2168 3 366.896531 7.171022 153.414040
2169 3 281.601977 44.178384 48.909946
2170 2 -96.948421 349.300794 -23.513475
2171 3 -128.223634 277.699685 -14.413180
2172 3 -61.404794 354.271227 131.756921
2173 2 -48.980713 -235.281710 -216.917189
2174 3 -118.927726 -135.260344 -322.272062
2175 3 -92.845546 -180.535083 -233.446242
2176 2 -141.290761 60.039448 261.086320
2177 3 -139.172995 106.389764 226.325083
2178 3 -200.744498 57.344458 396.695672
2179 2 -374.932247 366.328862 184.859300
2180 3 -390.681125 307.645283 204.222668
2181 3 -406.840035 344.837303 242.685303
2182 2 -217.148801 25.391068 156.534107
2183 3 -215.726481 15.525956 132.383781
2184 3 -242.708728 83.228341 170.823342
2185 2 -327.982798 -256.322204 272.905793
2186 3 -247.253792 -334.889642 117.922335
2187 3 -233.370643 -290.382020 236.416182
2188 2 59.267164 23.252841 277.165484
2189 3 17.231648 -1.452188 212.219589
2190 3 -2.890553 -153.813812 331.631760
2191 2 320.144628 -86.881665 175.628844
2192 3 322.727211 -104.727754 257.378539
2193 3 297.197456 -132.180564 258.608143
2194 2 636.926014 -93.036496 258.227244
2195 3 512.265515 -154.593777 176.195515
2196 3 561.371986 -163.196482 273.490786
2197 2 322.315651 -145.471465 284.730672
2198 3 315.982383 -188.570927 304.692742
2199 3 313.459355 -284.365320 315.084568
2200 2 -356.153976 -240.482351 132.515591
2201 3 -246.348783 -345.374912 -53.217266
2202 3 -301.399712 -212.791184 116.925084
2203 2 100.647467 128.650721 271.402900
2204 3 115.773062 220.150665 200.239384
2205 3 14.009035 119.702339 227.784466
2206 2 294.228826 -298.106192 391.216876
2207 3 334.491350 -164.386004 494.824555
2208 3 243.109095 -176.567327 555.784066
2209 2 629.015500 -29.896872 235.890216
2210 3 707.395730 67.488517 213.785365
2211 3 636.331549 19.851975 274.764583
2212 2 -662.751083 119.919030 352.595021
2213 3 -607.791507 88.529444 247.889685
2214 3 -595.347958 53.231186 391.581777
2215 2 -18.263357 292.130710 86.782696
2216 3 -1.209670 285.775988 22.557027
2217 3 13.485668 305.439993 149.299343
2218 2 -474.454216 -406.172130 35.364989
2219 3 -417.114707 -419.164525 96.468715
2220 3 -502.225936 -370.665262 68.417760
2221 2 97.368723 117.165193 162.340559
2222 3 91.068770 150.301743 109.508986
2223 3 52.477888 107.989506 154.103655
2224 2 -206.047804 -125.866438 218.051514
2225 3 -285.986941 -62.187939 337.160265
2226 3 -241.941957 -137.338982 262.067472
2227 2 326.320849 -172.776641 257.222603
2228 3 432.381471 -156.037697 336.798279
2229 3 343.778409 -140.688942 216.002672
2230 2 55.328629 219.881503 366.216525
2231 3 111.568215 200.833470 273.677315
2232 3 124.809693 276.670051 381.145962
2233 2 -549.184482 11.755932 429.265435
2234 3 -467.140927 0.287121 523.330659
2235 3 -597.632790 58.261352 512.349669
2236 2 295.097525 -41.900776 148.857350
2237 3 249.382783 -127.759569 105.293229
2238 3 349.057558 23.337584 104.969152
2239 2 60.311919 -1.601682 199.961814
2240 3 87.862302 -76.897841 238.399945
2241 3 43.365929 -144.774546 209.248271
2242 2 302.062727 -67.031097 -123.163347
2243 3 371.760397 -38.389149 24.498055
2244 3 359.259412 -113.999874 -8.374641
2245 2 530.180288 -84.541505 470.595782
2246 3 456.913852 -72.541388 468.240014
2247 3 508.517936 -91.224206 470.747972
2248 2 -53.354279 -370.743229 -129.288701
2249 3 -6.975324 -252.321866 -281.890632
2250 3 -54.115848 -355.044167 -182.193186
2251 2 -257.902211 -142.568526 -91.706998
2252 3 -204.913054 -211.220612 -151.728119
2253 3 -298.579649 -137.850682 -64.098312
2254 2 22.278178 348.790174 275.382088
2255 3 -34.498408 289.317400 174.526151
2256 3 63.044212 363.538207 152.172867
2257 2 -392.223590 112.296819 295.427486
2258 3 -331.944144 123.016212 194.782379
2259 3 -268.337972 228.905778 272.649148
2260 2 -65.788732 25.790225 245.863963
2261 3 -59.906373 106.589184 139.692813
2262 3 -69.251341 33.959120 226.065430
2263 2 145.303265 222.776338 352.525310
2264 3 210.188563 248.228249 363.272147
2265 3 106.143568 215.519911 324.721368
2266 2 -225.874894 160.369914 -252.512777
2267 3 -195.824824 168.594641 -144.662382
2268 3 -192.707330 148.473839 -140.238489
2269 2 47.434038 136.240404 192.017130
2270 3 54.684397 140.219631 90.024114
2271 3 44.222082 21.232725 198.635172
2272 2 97.264970 171.461667 99.580373
2273 3 133.020497 184.443450 138.107450
2274 3 82.494437 182.715756 148.760091
2275 2 3.580356 46.984803 102.009330
2276 3 50.296987 -11.257976 182.807598
2277 3 -22.998631 -92.204845 268.238614
2278 2 -189.706728 -113.667934 43.335547
2279 3 -224.594412 -98.096664 44.807842
2280 3 -207.856196 -170.183991 5.463403
2281 2 -42.322937 -225.587854 70.344134
2282 3 -63.128963 -175.838358 92.937226
2283 3 -43.134337 -278.589790 -11.063198
2284 2 2.752628 434.749934 -42.525235
2285 3 27.918430 446.407120 -101.293544
2286 3 -8.952593 431.833084 -134.353441
2287 2 483.470316 375.697286 -128.214820
2288 3 544.977444 352.177323 -153.407650
2289 3 421.621535 363.843844 -20.202908
2290 2 -525.254356 498.289640 -239.971196
2291 3 -422.908010 559.301209 -219.615292
2292 3 -446.984066 468.165089 -361.126408
2293 2 17.450485 -167.558317 258.444052
2294 3 -54.933380 -217.878355 194.931469
2295 3 -76.456772 -172.887008 285.882429
2296 2 -142.046969 -11.207010 331.313246
2297 3 -120.935576 -48.979750 282.195073
2298 3 -179.387933 -3.239640 210.998952
2299 2 -410.831306 -348.104871 402.218014
2300 3 -424.075496 -369.190233 470.684424
2301 3 -317.488147 -390.596071 435.209068
2302 2 1.697112 -233.068879 -59.167956
2303 3 -21.467382 -192.084394 -36.261286
2304 3 -10.049838 -183.552814 -144.877843
2305 2 -160.690564 250.729916 482.492678
2306 3 -130.659191 348.653213 490.874816
2307 3 -73.964193 329.188020 526.411875
2308 2 29.261898 578.140290 221.938536
2309 3 95.498668 667.373137 275.842662
2310 3 66.951213 501.730066 314.939870
2311 2 97.623866 99.902378 -102.544719
2312 3 80.538463 108.901535 -164.243147
2313 3 86.113471 139.003927 -76.853979
2314 2 298.114791 -461.401996 356.532987
2315 3 238.518575 -429.625742 368.445383
2316 3 287.422692 -414.177459 382.047292
2317 2 91.091652 204.701410 -518.610277
2318 3 206.400533 167.512902 -481.031757
2319 3 128.423212 181.692189 -543.204062
2320 2 -60.860664 51.065292 -314.238846
2321 3 -42.519448 -4.922898 -261.024464
2322 3 -7.272299 149.730655 -286.024187
2323 2 12.491643 264.982321 340.049583
2324 3 57.657579 152.224082 239.779710
2325 3 44.716353 159.750507 277.504110
2326 2 183.960552 388.041644 119.068889
2327 3 227.932892 355.883732 168.964267
2328 3 234.941700 387.630399 123.137521
2329 2 -455.147246 671.123913 -39.735100
2330 3 -511.722794 626.469904 -20.204131
2331 3 -527.952918 718.802479 -75.259178
2332 2 -174.842844 313.826098 341.815967
2333 3 -173.150123 297.420645 386.102095
2334 3 -195.145758 278.132764 316.028632
2335 2 39.520362 -377.275902 142.116493
2336 3 10.858225 -303.888503 152.126008
2337 3 -48.652186 -342.132325 152.857020
2338 2 275.924899 445.834861 208.477838
2339 3 364.525989 370.469111 199.120545
2340 3 331.392862 391.148275 160.278893
2341 2 379.027909 284.427307 431.534112
2342 3 430.526416 253.007807 404.985330
2343 3 294.865936 305.078617 446.621495
2344 2 -257.677672 224.448764 -55.158900
2345 3 -263.365374 276.488330 88.296936
2346 3 -240.037602 143.882396 76.928604
2347 2 -71.195156 405.411596 -122.418940
2348 3 -106.178057 349.169399 -118.289279
2349 3 -121.219485 342.515335 -117.075663
2350 2 11.713350 50.413304 9.947426
2351 3 -35.805229 -72.871488 80.775359
2352 3 -72.060201 -27.497457 145.578627
2353 2 -23.585979 666.139097 348.461724
2354 3 -68.792409 645.690855 404.030416
2355 3 -43.585523 677.860627 334.890223
2356 2 -124.614590 53.009644 493.606188
2357 3 -111.115270 -113.358314 541.302194
2358 3 -123.382816 -32.400101 515.856641
2359 2 -425.921899 3.341350 305.156453
2360 3 -429.678450 -65.863005 421.320124
2361 3 -459.416621 -30.656113 330.347594
2362 2 -215.383744 251.065535 317.935470
2363 3 -164.880442 204.190591 277.395208
2364 3 -210.644387 284.324800 236.074014
2365 2 223.628587 234.375291 -103.614743
2366 3 107.952749 248.093828 -61.400301
2367 3 110.528917 201.129695 -109.692981
2368 2 226.666016 261.102567 395.541221
2369 3 154.638108 346.818543 472.809029
2370 3 207.170003 349.018785 428.085189
2371 2 -449.549418 -12.897840 416.890861
2372 3 -438.892471 -24.301958 523.282352
2373 3 -412.385900 -74.614286 517.456184
2374 2 -296.829678 240.718123 160.293820
2375 3 -190.229264 171.710364 309.113369
2376 3 -264.876583 175.863687 288.800236
2377 2 441.997586 400.640370 656.003492
2378 3 536.756287 330.166081 569.772243
2379 3 439.024075 378.328661 547.835506
2380 2 157.699806 425.525495 -181.253717
2381 3 190.919320 419.715513 -59.289562
2382 3 123.134277 438.407386 -187.942411
2383 2 -44.582755 262.192395 -69.888398
2384 3 -47.135585 245.252056 25.179054
2385 3 -110.201559 217.659002 74.196328
2386 2 -509.185395 -28.985554 878.184158
2387 3 -493.761826 64.324673 759.810450
2388 3 -476.238303 30.200506 848.095007
2389 2 -629.336030 117.048644 426.908560
2390 3 -539.629598 106.228683 353.157540
2391 3 -577.365151 194.485484 422.502621
2392 2 -380.348230 421.586643 557.426970
2393 3 -333.982153 428.554280 509.280004
2394 3 -365.653446 327.550975 449.241603
2395 2 52.231009 394.734388 140.841064
2396 3 9.865222 374.836359 204.400967
2397 3 -5.282893 273.697903 122.791948
2398 2 -91.546551 342.852171 147.696921
2399 3 -62.000899 222.506858 244.631148
2400 3 -95.087955 222.103047 154.636725
2401 2 -166.467389 330.553030 -97.059418
2402 3 -173.120284 355.675950 -59.960033
2403 3 -163.963194 403.507351 18.145507
2404 2 -56.503793 518.297900 310.853256
2405 3 -13.269245 645.445215 246.215191
2406 3 40.917206 530.766964 278.682216
2407 2 357.462088 380.970405 220.366099
2408 3 386.399323 426.761908 225.184877
2409 3 328.325113 350.570413 80.113367
2410 2 642.082208 -90.665692 164.553013
2411 3 671.741152 -129.248539 204.711823
2412 3 684.738445 -111.576235 184.871146
2413 2 92.910983 290.073023 25.230388
2414 3 149.312198 268.684777 165.611792
2415 3 62.813482 293.028584 91.445478
2416 2 -262.194635 292.276945 -94.023510
2417 3 -242.227826 199.804779 18.758618
2418 3 -242.773978 261.261848 55.968625
2419 2 7.815719 503.164286 350.417016
2420 3 14.329551 545.161164 292.672958
2421 3 37.675651 432.208447 208.457781
2422 2 325.326828 419.483708 346.177585
2423 3 437.408004 435.202840 286.740471
2424 3 385.608320 463.904453 268.278082
2425 2 -330.437668 733.320077 16.693994
2426 3 -328.693711 732.307837 -147.620525
2427 3 -317.769431 698.206391 -66.436929
2428 2 -448.861824 93.784584 620.159323
2429 3 -515.599737 119.725183 737.551546
2430 3 -517.308641 117.796330 662.646186
2431 2 -348.232468 140.708798 418.037008
2432 3 -345.534694 86.715049 256.276879
2433 3 -247.076064 142.405733 301.634683
2434 2 109.161475 674.716502 -128.071386
2435 3 151.791299 697.821723 -116.353416
2436 3 102.030765 777.775335 -183.750456
2437 2 244.579680 500.646882 439.487210
2438 3 157.280037 486.029727 538.957238
2439 3 172.643372 508.631898 489.766753
2440 2 347.914747 215.830991 348.129113
2441 3 356.427960 230.500814 285.283781
2442 3 359.037067 230.574813 442.847158
2443 2 504.096863 141.367676 -553.769851
2444 3 450.833915 134.714494 -558.682918
2445 3 498.591672 179.118286 -551.670451
2446 2 336.277311 257.849261 427.984554
2447 3 382.268408 257.080365 458.381369
2448 3 271.999198 166.309878 421.712850
2449 2 78.041392 147.320221 -17.392464
2450 3 96.771201 149.992519 -78.475461
2451 3 67.945327 82.362575 -18.924181
2452 2 180.365140 430.726911 328.615143
2453 3 151.656955 455.931144 309.304160
2454 3 212.535687 474.616996 377.318779
2455 2 672.452805 347.061021 371.553280
2456 3 582.390867 488.275187 380.167246
2457 3 675.430606 306.901976 361.122927
2458 2 149.875987 443.067955 467.565603
2459 3 156.778589 374.191910 510.765441
2460 3 151.916818 349.902336 660.349980
2461 2 595.094328 344.376492 541.733964
2462 3 639.822124 431.077248 506.097303
2463 3 528.825312 402.914779 450.046172
2464 2 -234.836003 694.171418 244.037334
2465 3 -155.176806 722.105215 255.514749
2466 3 -244.811174 611.146540 343.498063
2467 2 -397.187733 191.593888 223.611240
2468 3 -345.608867 203.326364 241.045184
2469 3 -307.050538 225.825466 232.571507
2470 2 -160.208639 312.492986 210.895530
2471 3 -155.018293 330.306630 179.093488
2472 3 -140.508115 380.118205 223.285493
2473 2 -26.539280 490.641460 60.887400
2474 3 -69.627036 447.339203 10.142794
2475 3 -81.924249 543.360672 75.508910
2476 2 37.339495 -185.140871 -130.112626
2477 3 -0.531581 -114.585011 -299.112751
2478 3 16.372252 -111.473272 -180.731404
2479 2 5.350959 416.293636 196.286213
2480 3 14.005225 522.799919 73.866508
2481 3 -75.219798 410.909374 78.846337
2482 2 59.528139 64.336414 -37.899199
2483 3 74.014181 -1.393701 -128.161836
2484 3 70.549390 138.829822 -165.048325
2485 2 127.661457 832.855773 -276.403643
2486 3 113.472386 769.944947 -343.480915
2487 3 50.579531 855.247305 -329.042220
2488 2 25.891469 353.619510 199.085505
2489 3 -42.271350 376.656707 116.612328
2490 3 52.882044 456.958710 193.863760
2491 2 118.170368 271.682727 -18.105247
2492 3 136.171626 320.241546 -10.872059
2493 3 120.051263 251.834553 75.406438
2494 2 11.534577 473.110069 349.243819
2495 3 19.370306 487.529356 314.170931
2496 3 -61.835631 585.384888 324.872063
2497 2 13.945541 275.378083 193.434259
2498 3 44.638665 244.897477 237.662449
2499 3 84.992081 215.297381 241.955759
2500 2 -409.284059 110.112336 449.894314
2501 3 -316.259085 213.089385 475.430170
2502 3 -403.561452 122.668824 630.907304
2503 2 -35.562098 355.123396 159.618930
2504 3 -9.532420 348.979497 157.198193
2505 3 8.940170 458.624309 245.222655
2506 2 -78.697185 233.556343 371.396514
2507 3 -29.276510 376.833928 418.724188
2508 3 -2.255109 262.634673 348.480360
2509 2 -286.733030 545.579038 202.956972
2510 3 -353.140162 468.473553 134.370395
2511 3 -302.628035 534.106311 129.449367
2512 2 -151.260472 543.332210 290.789867
2513 3 -175.715032 694.561255 399.419441
2514 3 -183.297747 579.100714 350.423253
2515 2 -62.645793 360.352058 -334.177335
2516 3 -98.193124 385.859921 -277.586140
2517 3 -111.931896 337.578230 -321.677215
2518 2 -78.749628 212.564883 410.829286
2519 3 -16.132949 241.521594 533.119741
2520 3 -39.597820 357.870081 520.931640
2521 2 -331.641907 661.067252 506.918183
2522 3 -255.844851 673.022988 431.051525
2523 3 -300.647658 727.950471 473.602047
2524 2 163.070604 482.717687 360.520811
2525 3 200.792033 484.494946 354.306750
2526 3 172.181340 406.268053 364.287102
2527 2 -85.834692 761.351364 137.224019
2528 3 -49.881901 743.832562 82.901911
2529 3 35.213725 834.448027 177.821481
2530 2 512.215475 606.131376 272.861546
2531 3 533.635465 549.633595 241.644681
2532 3 590.861041 595.562696 220.268950
2533 2 303.063380 287.544611 -5.125267
2534 3 267.642684 228.108511 -48.222348
2535 3 205.149792 186.261943 2.052177
2536 2 278.382851 699.705230 158.826918
2537 3 272.729289 659.469282 240.672423
2538 3 354.076153 699.413976 252.685269
2539 2 116.262993 522.009509 474.036475
2540 3 98.108083 632.838674 437.498078
2541 3 143.600277 504.698429 395.446822
2542 2 -272.449413 -179.915827 209.926188
2543 3 -273.901609 -177.212338 107.112209
2544 3 -196.337598 -141.863579 219.044217
2545 2 -317.242705 69.196513 10.836353
2546 3 -338.782717 82.990402 4.787155
2547 3 -369.771592 110.009464 41.274499
2548 2 -158.190522 -425.426166 543.369414
2549 3 -161.254340 -361.278350 549.645214
2550 3 -124.933305 -421.394842 470.499833
2551 2 -401.297572 231.002266 142.568477
2552 3 -386.853359 226.347004 95.650880
2553 3 -390.395404 273.406041 165.255766
2554 2 141.811889 154.615366 7.404579
2555 3 51.958932 40.448644 -108.846047
2556 3 70.064559 -50.213456 4.073006
2557 2 -355.527243 -255.865589 269.894269
2558 3 -397.687739 -209.285122 384.838078
2559 3 -425.944824 -226.581774 379.691819
2560 2 436.907111 -107.001851 293.311055
2561 3 435.020725 -104.203838 285.252081
2562 3 382.781872 -77.832600 246.224823
2563 2 42.183715 -231.443237 -38.588851
2564 3 32.430207 -162.392647 108.719419
2565 3 -57.824289 -180.408781 -22.079140
2566 2 2.749393 57.240457 163.197448
2567 3 -18.718305 150.990178 191.432358
2568 3 1.710044 75.363857 260.423811
2569 2 85.471091 -127.177685 602.190334
2570 3 79.373770 -191.931074 570.490384
2571 3 83.521743 -165.914598 623.315785
2572 2 127.681793 226.452217 204.714148
2573 3 148.911447 119.037296 154.094752
2574 3 180.729902 79.637603 172.348977
2575 2 254.174941 453.853509 105.122467
2576 3 208.930611 391.353867 83.588010
2577 3 189.140077 519.711108 92.966938
2578 2 323.131771 -188.394086 318.609106
2579 3 369.548480 -238.094792 267.135257
2580 3 358.057712 -259.975003 151.432104
2581 2 -71.620749 197.814796 433.792271
2582 3 -79.999489 175.220820 516.482007
2583 3 -149.296314 197.655273 445.207023
2584 2 -159.988179 -187.985729 85.972508
2585 3 -181.783876 -116.808789 165.310346
2586 3 -141.249693 -253.104005 118.623925
2587 2 -614.348229 -82.054419 614.499773
2588 3 -640.608840 -114.760043 669.272495
2589 3 -626.615874 -20.817968 616.108690
2590 2 -128.461891 -103.495067 171.329325
2591 3 -181.445083 -109.564572 180.540951
2592 3 -85.686630 -77.987182 303.741814
2593 2 -391.821717 90.850538 278.611121
2594 3 -431.691440 65.941998 199.234097
2595 3 -413.249645 62.190888 196.154006
2596 2 -181.472642 60.675880 414.932912
2597 3 -199.128378 41.362372 414.974059
2598 3 -159.835902 -8.943934 409.759418
2599 2 -319.201611 162.717106 408.465878
2600 3 -455.862843 275.721061 366.142534
2601 3 -371.034129 298.750564 356.602034
2602 2 100.067699 -134.998237 81.264390
2603 3 120.094851 -185.262961 115.849783
2604 3 105.653423 -166.227608 99.016128
2605 2 196.335056 -197.353256 562.745126
2606 3 194.826239 -140.504484 657.097237
2607 3 270.117569 -120.729959 580.645179
2608 2 -24.819796 95.584384 607.450403
2609 3 -65.882600 144.852984 651.726899
2610 3 26.466811 119.516505 579.695801
2611 2 -72.843580 155.931266 292.645539
2612 3 -170.346748 8.282668 287.418848
2613 3 -68.438425 51.847619 256.500440
2614 2 237.564882 546.009198 242.192586
2615 3 183.718733 439.653498 255.131691
2616 3 150.732398 384.625911 71.755460
2617 2 70.156024 -19.690472 160.427697
2618 3 90.010245 -93.255506 125.103995
2619 3 58.171025 -79.883270 38.702880
2620 2 -475.166164 225.431782 319.915432
2621 3 -443.000633 154.106281 274.466569
2622 3 -439.012616 91.814155 294.490250
2623 2 -256.586331 -10.952220 182.812488
2624 3 -301.394388 -22.629578 281.239754
2625 3 -293.021755 -137.357714 112.984101
2626 2 -346.972987 -505.602826 329.754666
2627 3 -358.305451 -462.765364 283.162515
2628 3 -298.541194 -481.563271 270.314267
2629 2 -184.733354 234.099440 -183.563910
2630 3 -179.601157 282.863364 -186.934080
2631 3 -175.993050 314.705788 -53.322197
2632 2 314.037552 477.115121 204.295035
2633 3 257.612962 501.155648 76.389952
2634 3 230.291847 470.442295 181.622333
2635 2 193.690589 -72.357096 343.484409
2636 3 222.407770 -21.040612 277.242723
2637 3 247.745562 44.604946 389.842259
2638 2 -223.874994 24.340496 778.932487
2639 3 -194.954004 105.209806 744.493306
2640 3 -223.581237 43.128396 776.371167
2641 2 71.297075 98.085352 308.491417
2642 3 23.351901 -44.107598 426.494466
2643 3 33.040510 21.044900 409.240777
2644 2 -4.824412 129.631664 601.510646
2645 3 55.145375 117.367037 559.337056
2646 3 48.286336 166.510270 661.834384
2647 2 367.595440 75.740589 168.100661
2648 3 375.829144 72.161759 80.730743
2649 3 417.666795 124.581850 152.837258
2650 2 -632.826458 306.606131 135.906944
2651 3 -554.973201 178.943543 212.375728
2652 3 -542.268014 217.703779 189.214202
2653 2 356.994226 30.600571 175.593528
2654 3 282.744936 58.960286 284.940800
2655 3 253.253391 66.349237 163.370461
2656 2 -10.459911 4.222226 415.502148
2657 3 -24.854112 113.921571 390.784552
2658 3 -16.357698 96.374490 339.343916
2659 2 21.899270 -142.112261 -28.314655
2660 3 14.699290 -229.619665 14.772451
2661 3 -16.715157 -110.909193 -48.976553
2662 2 60.958751 61.280859 23.863759
2663 3 36.611185 39.211705 30.029387
2664 3 21.908839 89.721642 38.453484
2665 2 -409.492452 -370.291206 535.729552
2666 3 -455.389114 -318.896226 573.066835
2667 3 -407.098666 -227.000910 467.492719
2668 2 -35.220273 286.781721 405.759675
2669 3 -2.755149 246.146022 351.318420
2670 3 -31.845458 219.826266 272.016457
2671 2 275.796619 -158.223252 299.962588
2672 3 237.828985 -103.559176 188.960510
2673 3 263.675964 -179.987804 284.916795
2674 2 -71.115912 27.187893 -63.634159
2675 3 -53.736099 -51.614378 80.026422
2676 3 -121.687495 72.824502 141.326676
2677 2 586.029590 -41.393386 -105.729523
2678 3 536.843746 27.454581 -61.138739
2679 3 490.706498 47.594147 -30.099891
2680 2 565.391703 201.012957 424.222321
2681 3 499.036461 167.598091 428.941460
2682 3 551.796445 141.495742 455.645015
2683 2 292.523200 -58.709716 -40.209992
2684 3 271.414814 -71.062779 132.325225
2685 3 281.452104 -105.458754 57.674021
2686 2 88.480623 97.212238 558.242131
2687 3 58.917984 17.886521 492.383355
2688 3 92.057184 83.640902 503.823091
2689 2 345.088891 234.461545 75.255295
2690 3 389.337929 249.524110 5.134917
2691 3 293.788350 243.404918 20.100277
2692 2 299.557127 -118.767679 352.327581
2693 3 287.599410 -89.264382 150.577567
2694 3 223.371324 -103.146851 254.896893
2695 2 -440.954711 -46.158329 532.723102
2696 3 -413.208676 -91.516007 500.978352
2697 3 -457.138740 -58.723233 469.512002
2698 2 438.560305 44.992623 -56.487691
2699 3 385.606521 107.886094 45.154024
2700 3 411.684276 59.893768 197.033212
2701 2 -87.511711 420.574372 492.998019
2702 3 -39.544193 418.442944 473.466759
2703 3 -54.163084 422.608736 362.637887
2704 2 220.690436 306.768057 627.527243
2705 3 136.530226 337.644156 539.480861
2706 3 129.275556 319.398194 545.861541
2707 2 -131.077567 -54.538299 316.614437
2708 3 -247.899999 -104.837864 381.440230
2709 3 -135.926803 43.953509 358.859048
2710 2 -68.965676 33.006163 457.131929
2711 3 -89.057664 106.267796 409.895001
2712 3 -145.791984 0.651785 454.038571
2713 2 -380.019642 130.463513 108.662191
2714 3 -468.140002 149.039879 29.050369
2715 3 -441.921839 88.268105 128.196569
2716 2 93.828496 152.070351 389.749964
2717 3 91.699133 209.993185 338.493328
2718 3 80.043597 176.764663 427.734127
2719 2 -217.486855 88.143597 95.481258
2720 3 -336.895863 72.284473 92.166203
2721 3 -157.686831 21.646967 151.464062
2722 2 -448.537722 627.712337 -71.780798
2723 3 -457.907236 686.606800 12.215295
2724 3 -407.700724 536.518380 39.761983
2725 2 -316.320341 494.946370 -188.540376
2726 3 -350.212869 522.877400 -168.381444
2727 3 -297.768655 548.779783 -211.360932
2728 2 -402.615178 308.181447 189.258911
2729 3 -377.288442 254.200005 225.917890
2730 3 -292.965824 252.580171 95.154095
2731 2 -152.888362 580.743081 76.235649
2732 3 -165.827887 669.946797 110.028292
2733 3 -110.900209 677.492440 -3.117028
2734 2 -332.798103 446.053711 -25.853532
2735 3 -257.303481 337.187146 -89.580833
2736 3 -303.509281 407.955181 6.489595
2737 2 236.104452 287.588309 508.707041
2738 3 324.276949 323.173905 618.074020
2739 3 257.648335 425.436124 608.761251
2740 2 -350.625934 -269.949622 412.192720
2741 3 -288.733349 -278.802802 471.123391
2742 3 -377.137361 -279.734247 489.512562
2743 2 226.475593 -199.424140 -398.857193
2744 3 230.016726 -131.557036 -414.636848
2745 3 192.913995 -195.758357 -498.916790
2746 2 470.265468 102.982378 411.555619
2747 3 428.138595 158.779515 383.936859
2748 3 394.672566 141.435829 582.536998
2749 2 -560.768526 194.747575 511.616730
2750 3 -483.527433 242.152267 475.948332
2751 3 -547.095027 211.338353 458.214307
2752 2 83.917342 418.808668 363.633395
2753 3 104.685573 323.848640 397.633056
2754 3 42.315360 361.202008 404.039347
2755 2 159.685052 364.885672 123.614277
2756 3 49.811161 398.788215 195.891678
2757 3 145.942076 486.515443 171.735522
2758 2 -274.995169 368.779276 411.030815
2759 3 -226.109417 292.213604 406.285918
2760 3 -244.393105 325.044549 247.608075
2761 2 -17.835182 209.141471 362.701915
2762 3 32.777754 147.213723 335.839712
2763 3 -27.458461 221.527763 340.749531
2764 2 61.336350 523.971531 424.995375
2765 3 52.274326 450.400890 509.914448
2766 3 82.879905 454.591920 635.416683
2767 2 -47.758121 480.050673 1.072655
2768 3 -91.756004 427.128787 13.410843
2769 3 -2.606438 499.386021 -10.559424
2770 2 -86.443615 139.171835 236.929472
2771 3 -133.096411 107.380628 188.610351
2772 3 -72.736604 137.661677 182.073312
2773 2 -79.890960 448.598422 414.477118
2774 3 -168.173667 363.929383 500.580939
2775 3 -152.298223 350.774302 436.519767
2776 2 51.751626 317.919821 220.096943
2777 3 -60.689536 358.650912 358.533375
2778 3 6.258000 335.049424 326.593000
2779 2 144.867153 345.729430 184.697423
2780 3 185.728937 503.338588 13.572715
2781 3 147.085516 360.368783 38.085889
2782 2 -318.873738 149.883124 307.361839
2783 3 -352.800185 115.620179 302.023350
2784 3 -277.826374 138.072064 247.620640
2785 2 253.125382 28.071778 246.803949
2786 3 294.032215 13.388572 335.875914
2787 3 283.128568 86.233346 316.559101
2788 2 -147.761713 414.321428 418.050368
2789 3 -185.928854 415.965923 301.623003
2790 3 -137.097678 426.709848 347.621949
2791 2 -154.326878 84.998363 266.428426
2792 3 -57.757604 50.285141 244.736359
2793 3 -177.762852 7.434424 249.116688
2794 2 -519.741720 279.117911 346.029307
2795 3 -519.244031 200.901220 448.196165
2796 3 -427.139868 305.903693 302.937836
2797 2 19.783386 -136.405865 390.235982
2798 3 -32.037860 -198.701754 267.650853
2799 3 -26.510058 -109.575412 289.058228
2800 2 -278.052195 217.516203 -368.201611
2801 3 -268.506383 148.052802 -370.475970
2802 3 -207.636094 180.358423 -438.024444
2803 2 -135.587985 444.227403 86.946409
2804 3 -148.988556 439.767287 173.352455
2805 3 -126.743472 489.993088 70.582987
2806 2 377.469742 340.700217 196.518649
2807 3 392.947812 247.215415 225.458996
2808 3 271.169495 367.222753 305.973956
2809 2 559.586321 166.860425 217.735806
2810 3 580.698972 156.450690 192.461558
2811 3 523.528416 176.006425 235.755721
2812 2 162.032373 119.967988 577.001112
2813 3 97.050224 66.690212 555.190437
2814 3 151.052975 89.935346 468.478484
2815 2 201.821279 510.303701 227.097712
2816 3 163.946662 454.533718 216.035830
2817 3 171.034635 406.284079 235.175064
2818 2 -124.281626 480.997656 538.261166
2819 3 -138.364874 439.234407 517.554937
2820 3 -91.661015 400.514570 480.261200
2821 2 241.976637 89.742252 592.723493
2822 3 218.285200 130.576040 672.914644
2823 3 124.029759 125.982172 632.207560
2824 2 321.156546 138.021699 98.832257
2825 3 312.466911 200.085875 80.854992
2826 3 270.917742 24.950920 8.866615
2827 2 -106.125367 496.229582 307.424372
2828 3 -74.634021 556.144374 413.317685
2829 3 -5.394606 515.764745 282.159572
2830 2 -88.409066 426.751508 923.495021
2831 3 -83.973098 388.500753 753.131517
2832 3 -94.976043 380.783180 824.027982
2833 2 -417.325121 636.801519 400.515880
2834 3 -353.649140 693.849999 326.449206
2835 3 -514.932800 661.322197 426.556095
2836 2 81.468789 320.513094 337.812349
2837 3 75.140895 188.701713 265.180278
2838 3 49.146732 184.869094 418.035864
2839 2 -135.278476 855.069171 278.719525
2840 3 -95.853555 755.278834 348.041431
2841 3 -81.192857 788.878659 385.005398
2842 2 -259.157871 468.590322 481.660948
2843 3 -294.674801 525.051370 526.430548
2844 3 -215.387516 453.670419 458.019457
2845 2 172.180983 467.110489 151.851945
2846 3 137.215836 558.825375 113.036817
2847 3 163.951802 439.715410 42.998678
2848 2 -14.520498 265.988571 -30.468036
2849 3 52.620705 292.580422 -121.623791
2850 3 70.019680 295.007969 -86.123663
2851 2 -58.886635 600.267388 631.671242
2852 3 -89.738171 625.621991 552.223769
2853 3 -19.259646 554.944999 600.026537
2854 2 120.998252 172.728503 137.014103
2855 3 125.312978 191.386684 248.893477
2856 3 218.183382 144.572937 225.227869
2857 2 192.417588 414.691652 134.724050
2858 3 151.407914 453.848218 90.670654
2859 3 110.304686 364.088906 72.342220
2860 2 65.719378 441.219844 -1.266364
2861 3 61.166990 491.812676 -88.300874
2862 3 111.675561 504.078793 0.614060
2863 2 530.751040 373.211325 529.586383
2864 3 474.202163 308.555533 468.123399
2865 3 455.999525 284.269761 466.119984
2866 2 -196.201283 -90.723643 421.013677
2867 3 -178.013570 -160.542468 433.875045
2868 3 -247.484568 -154.139108 337.676655
2869 2 331.388524 20.841620 33.354563
2870 3 394.024584 25.128252 112.321749
2871 3 411.181066 25.339044 84.932883
2872 2 480.364876 -119.768531 363.332300
2873 3 499.795393 -219.800891 343.521866
2874 3 534.874437 -115.669396 291.581114
2875 2 46.534341 215.016558 539.716564
2876 3 -22.290476 119.897646 505.781299
2877 3 6.671909 144.209752 489.052671
2878 2 -19.771235 311.900141 -295.212868
2879 3 -71.932655 297.974020 -415.111316
2880 3 -43.229376 218.221120 -373.677233
2881 2 -55.335488 -85.294019 306.238351
2882 3 -92.170338 -26.373652 288.575900
2883 3 -171.729467 -120.244851 181.289464
2884 2 -73.462111 -137.376506 630.864348
2885 3 -44.917284 -110.601777 493.093008
2886 3 -121.312564 -116.369097 634.684482
2887 2 139.596681 242.186370 415.243824
2888 3 166.405612 139.741502 360.822422
2889 3 261.317698 197.056817 432.007731
2890 2 261.478541 -611.458213 349.742975
2891 3 180.756154 -576.715755 357.679098
2892 3 164.080304 -532.561602 372.380286
2893 2 337.878838 -259.484847 198.099002
2894 3 364.667802 -246.119735 217.247481
2895 3 303.855319 -285.213446 193.294155
2896 2 510.121189 -225.964312 217.254991
2897 3 455.473981 -220.937077 218.568624
2898 3 431.867489 -281.786552 223.197700
2899 2 -45.234859 -164.181887 -19.949414
2900 3 -33.620101 -142.743695 130.994053
2901 3 -43.663972 -252.437875 93.743627
2902 2 307.489506 -146.673895 271.769573
2903 3 322.853864 -171.053448 242.514181
2904 3 328.339730 -161.019563 326.175862
2905 2 -268.643290 -34.088507 703.434827
2906 3 -200.910295 -22.045323 530.296369
2907 3 -268.730872 -65.561846 567.494710
2908 2 -131.250747 242.179620 44.354370
2909 3 -106.068598 183.806390 99.276915
2910 3 -117.443756 103.040854 78.825459
2911 2 289.432156 -27.539136 223.516915
2912 3 340.379927 -35.741718 186.648822
2913 3 369.878966 1.321501 140.988908
2914 2 -362.295810 -336.340952 303.695740
2915 3 -302.306028 -342.940615 236.102669
2916 3 -235.948937 -394.414688 226.404407
2917 2 126.507800 488.888163 33.258467
2918 3 46.597673 421.278665 13.737012
2919 3 140.174865 498.835018 57.134516
2920 2 260.547057 188.921050 271.231447
2921 3 227.740940 259.574309 327.521362
2922 3 276.066145 147.273430 415.241720
2923 2 -115.605278 -189.183295 73.062211
2924 3 -121.493855 -225.252144 180.707810
2925 3 -48.102800 -122.689563 177.636540
2926 2 -133.851066 167.905096 442.118500
2927 3 -129.506544 185.601210 332.632655
2928 3 -103.704897 159.506888 307.395385
2929 2 7.408638 -112.785021 356.081215
2930 3 -5.058341 -45.132138 380.448635
2931 3 -127.796199 -143.596320 389.331220
2932 2 182.260165 129.025781 441.806223
2933 3 164.904645 102.811778 494.940542
2934 3 227.884084 188.528658 464.890325
2935 2 708.715308 -100.132731 167.264208
2936 3 724.091054 -46.270179 150.734352
2937 3 708.158606 -31.056396 150.524316
2938 2 266.570915 -20.022031 221.578654
2939 3 218.788065 -86.520487 121.118617
2940 3 198.275623 -33.937467 243.400731
2941 2 513.310440 -295.231305 510.232187
2942 3 627.429749 -205.464863 593.549576
2943 3 522.859605 -273.555895 546.084955
2944 2 145.668939 258.655575 308.657538
2945 3 86.907320 354.480225 302.798747
2946 3 168.095757 334.154013 262.585910
2947 2 -284.226272 111.093293 85.947451
2948 3 -254.497394 74.938817 -26.738255
2949 3 -268.866967 71.298798 21.288754
2950 2 -230.512002 328.111800 19.531190
2951 3 -248.203370 255.686330 49.671469
2952 3 -242.767445 248.820973 -7.861598
2953 2 -226.355599 -190.880032 601.842482
2954 3 -230.547326 -91.615702 520.835248
2955 3 -274.228053 -170.966631 669.727662
2956 2 210.470427 470.133253 182.103130
2957 3 192.160646 515.238190 206.514482
2958 3 244.142310 440.378712 279.546310
2959 2 350.254377 126.165642 193.481754
2960 3 283.109193 161.277959 204.148584
2961 3 290.891181 187.805695 198.805814
2962 2 -216.157343 505.882569 337.121000
2963 3 -236.197091 463.283023 381.456431
2964 3 -253.928639 408.926522 285.384804
2965 2 -223.527869 95.872756 410.516308
2966 3 -209.043476 104.445646 528.746203
2967 3 -198.058754 114.021844 399.063028
2968 2 -204.116875 92.753795 432.505595
2969 3 -212.440479 82.913586 371.501726
2970 3 -266.775540 208.967306 417.931280
2971 2 -265.013244 188.156990 446.167029
2972 3 -269.533485 -63.187917 385.433367
2973 3 -290.127963 30.322228 479.455893
2974 2 -25.145823 -31.400442 -231.158524
2975 3 8.344521 66.151509 -154.691963
2976 3 -6.027626 -54.575861 -170.164010
2977 2 196.012877 131.452841 184.665484
2978 3 246.615668 123.586060 166.014454
2979 3 153.805755 18.612964 169.609016
2980 2 429.756391 79.907501 16.831622
2981 3 391.419915 9.608862 -1.347333
2982 3 425.234819 31.184396 14.946234
2983 2 115.817741 -387.503763 326.522293
2984 3 111.124085 -303.507301 292.643620
2985 3 122.733920 -287.142687 336.442198
2986 2 -418.364130 -24.997660 591.688388
2987 3 -391.563432 67.549136 479.210818
2988 3 -285.071800 -10.803898 552.727944
2989 2 -185.912092 135.098068 489.129320
2990 3 -170.690052 108.308994 512.858826
2991 3 -193.516475 77.118967 450.243052
2992 2 139.689871 274.892488 256.620358
2993 3 90.213955 365.713180 288.275728
2994 3 156.076439 300.639271 326.031680
2995 2 18.451170 421.320842 245.481219
2996 3 87.846070 565.442584 122.458858
2997 3 62.523531 496.199355 186.830553
2998 2 112.137864 -37.994822 -185.580092
2999 3 123.617976 -34.754846 -103.588560
3000 3 139.726378 -31.809381 -99.039851
3001 2 0.294962 157.812873 20.389374
3002 3 10.173514 179.072810 64.458533
3003 3 -4.999866 109.904098 104.271612
3004 2 -186.909861 -89.559953 363.101469
3005 3 -219.716027 -160.064901 319.919418
3006 3 -195.783411 -186.429297 339.321368
3007 2 280.335743 -142.965282 484.158869
3008 3 278.510490 -162.699439 313.997928
3009 3 306.021633 -206.671505 384.184149
3010 2 -94.285651 132.734372 228.408393
3011 3 -132.433664 81.802940 169.667250
3012 3 -127.853745 139.301611 252.927873
3013 2 31.354994 -43.909744 674.295645
3014 3 -11.815031 22.157445 588.472880
3015 3 53.251117 40.138557 717.195310
3016 2 -457.019383 174.753729 -86.762766
3017 3 -387.800520 195.873711 107.785743
3018 3 -443.968698 144.530547 7.583011
3019 2 433.364967 -50.997586 327.486266
3020 3 536.086687 -62.032924 395.909887
3021 3 435.285025 -108.397582 344.622142
3022 2 -304.679799 163.389485 252.568267
3023 3 -275.330141 185.272539 329.728575
3024 3 -292.691072 194.889690 338.773056
3025 2 140.134784 34.311020 -62.656577
3026 3 120.423808 60.969863 12.292788
3027 3 98.369585 7.385056 -70.882983
3028 2 -267.599475 38.125544 458.962783
3029 3 -272.571925 63.514269 414.335814
3030 3 -150.559665 70.397651 270.378073
3031 2 331.665420 -172.878920 524.393699
3032 3 303.425640 -163.769456 469.119644
3033 3 256.182482 -244.842027 578.999396
3034 2 -334.660454 173.875469 329.166776
3035 3 -350.217775 254.127754 435.132604
3036 3 -355.832537 161.937156 348.626276
3037 2 -554.912413 325.179867 533.874933
3038 3 -422.320250 291.893554 428.169108
3039 3 -371.536896 275.594257 422.920847
3040 2 -212.215742 286.524617 323.044771
3041 3 -233.807175 330.760386 308.658350
3042 3 -217.981364 318.853212 346.392068
3043 2 26.187630 359.108166 149.654668
3044 3 44.596716 230.247708 223.835982
3045 3 -64.690267 337.021054 310.344948
3046 2 294.611176 419.091772 501.304357
3047 3 336.293333 365.235157 550.689028
3048 3 254.642408 338.079424 442.155883
3049 2 487.919342 206.462263 214.421544
3050 3 566.673566 134.002021 206.895658
3051 3 577.811637 101.045033 292.013955
3052 2 -572.604446 247.572138 315.897108
3053 3 -562.770620 225.660287 356.585870
3054 3 -562.385681 254.471918 356.929367
3055 2 -293.806816 96.959163 368.232967
3056 3 -294.058890 67.148937 333.734038
3057 3 -260.991308 77.303323 396.911742
3058 2 -13.724961 425.528080 193.262972
3059 3 20.204397 381.814517 197.282993
3060 3 -60.526068 388.207949 151.488603
3061 2 -79.079362 385.318800 363.574940
3062 3 -15.652500 411.962939 385.004180
3063 3 -61.821279 461.176896 413.908214
3064 2 59.003810 92.563741 224.412931
3065 3 182.010323 91.503759 152.537288
3066 3 152.344476 103.536331 145.309093
3067 2 302.121641 172.098559 505.288121
3068 3 302.303634 124.742316 517.215167
3069 3 282.835550 264.673674 541.552805
3070 2 616.720641 67.481485 -39.748915
3071 3 519.748545 97.242213 13.521472
3072 3 501.531067 67.074394 14.127061
3073 2 -9.110445 386.314650 326.518252
3074 3 -10.264955 304.337074 427.066765
3075 3 -25.034194 381.703465 285.393052
3076 2 93.606293 221.438118 201.023877
3077 3 208.991423 303.262222 252.316955
3078 3 203.270382 303.225398 223.334630
3079 2 367.666038 250.097737 459.817872
3080 3 382.608778 234.514486 512.552454
3081 3 253.433979 220.940695 562.818342
3082 2 -113.016914 297.722146 207.513090
3083 3 -106.711316 240.577940 153.576212
3084 3 -40.943428 296.401685 190.071469
3085 2 127.961586 -246.487283 474.947030
3086 3 104.827738 -219.819166 410.216725
3087 3 137.840103 -260.564382 488.882657
3088 2 111.528171 352.688886 311.765306
3089 3 145.888684 355.529929 393.305758
3090 3 146.904731 332.570730 391.106571
3091 2 14.481593 487.398021 -11.021778
3092 3 -24.993315 545.874731 109.433694
3093 3 -31.114929 418.077129 0.007515
3094 2 82.033748 796.564121 466.111165
3095 3 197.157549 710.305596 468.020106
3096 3 127.387753 654.250867 436.116302
3097 2 -207.007389 204.771821 522.565466
3098 3 -275.743132 245.046980 607.856046
3099 3 -275.473655 334.520436 611.710906
3100 2 78.431908 507.038854 -322.198771
3101 3 71.767458 570.308016 -492.377906
3102 3 91.896896 556.402117 -239.380279
3103 2 -371.169829 50.220903 214.772606
3104 3 -242.691695 190.775547 242.328410
3105 3 -334.639008 169.577218 260.540223
3106 2 -22.696740 82.636499 171.954876
3107 3 -99.626314 89.342607 201.158888
3108 3 -19.266212 52.033153 112.707325
3109 2 -148.281192 305.086098 148.699320
3110 3 -116.538339 247.704279 91.362483
3111 3 -172.792966 273.701126 81.940396
3112 2 134.663856 530.300679 293.952216
3113 3 160.237821 584.589460 184.292500
3114 3 145.470258 490.785931 175.271195
3115 2 11.010094 135.512476 473.597324
3116 3 2.347624 109.183894 486.804440
3117 3 -38.244280 42.983814 525.453124
3118 2 -139.639933 138.004336 -68.473824
3119 3 -10.373413 174.848969 -90.258473
3120 3 -123.275797 114.359919 -24.195428
3121 2 238.038339 401.606177 92.656802
3122 3 245.492651 420.382312 -77.012442
3123 3 317.095490 403.883079 -52.824489
3124 2 545.947234 270.203289 175.924773
3125 3 572.787964 256.779351 73.012756
3126 3 481.728282 270.918803 204.806886
3127 2 66.139511 321.151644 322.332719
3128 3 28.301218 347.227903 113.539691
3129 3 45.388698 316.812584 131.570780
3130 2 -68.855187 162.828735 505.777867
3131 3 -114.123612 158.449202 465.034728
3132 3 -85.758288 89.248204 616.522710
3133 2 165.953514 588.246699 373.042039
3134 3 133.038738 508.119697 429.096602
3135 3 106.145269 614.861859 432.010830
3136 2 321.479982 175.207866 -72.190915
3137 3 357.484939 170.303511 66.592022
3138 3 295.748070 132.244938 53.183234
3139 2 -58.007237 192.753245 522.222485
3140 3 -131.904029 289.314998 663.802445
3141 3 -46.589939 250.164195 561.499856
3142 2 239.289981 235.820078 -331.325289
3143 3 218.724085 296.810345 -279.890687
3144 3 207.486007 198.795655 -336.116426
3145 2 263.347672 378.736987 103.432926
3146 3 181.936101 360.671592 179.475235
3147 3 300.401743 423.829944 159.492324
3148 2 104.816682 85.565323 422.695109
3149 3 140.113794 30.073956 303.281093
3150 3 169.123093 -5.457209 332.404370
3151 2 194.090391 474.559706 91.638502
3152 3 170.130217 539.157296 1.409639
3153 3 195.416440 567.177697 70.672127
3154 2 -283.827184 205.726543 280.057921
3155 3 -167.072540 314.642811 328.592853
3156 3 -250.228659 171.780410 488.783166
3157 2 -87.723838 37.342057 462.501786
3158 3 -102.005730 196.220886 483.819541
3159 3 -169.167455 167.659517 314.903132
3160 2 266.001519 436.375485 342.115623
3161 3 314.097427 523.107745 496.249545
3162 3 288.630604 509.175847 411.188651
3163 2 -24.013861 553.232692 202.498428
3164 3 21.507762 612.838898 131.286642
3165 3 9.454765 519.525920 170.385160
3166 2 181.331689 402.013226 207.030411
3167 3 176.709112 459.057023 108.628775
3168 3 165.689374 461.496976 113.503628
3169 2 49.547046 -175.944788 158.000022
3170 3 -32.999001 -112.658522 78.020863
3171 3 16.151763 -197.799714 81.157863
3172 2 -463.159073 97.280323 252.934331
3173 3 -547.208714 100.707559 167.567010
3174 3 -545.820954 81.642823 174.742931
3175 2 266.511853 199.531360 228.688232
3176 3 235.016735 316.226064 192.221261
3177 3 301.774073 253.416027 187.001859
3178 2 44.765663 39.858271 272.191471
3179 3 91.435486 15.683567 430.226992
3180 3 59.430367 114.440653 279.297138
3181 2 37.840948 -346.205400 557.714337
3182 3 8.399782 -327.650122 530.075871
3183 3 35.224894 -226.105256 635.563079
3184 2 53.508839 -115.640021 192.517171
3185 3 94.360849 -123.694688 111.111703
3186 3 61.235746 -73.539997 228.409408
3187 2 22.598804 74.815412 402.795332
3188 3 -16.621098 90.615776 433.525274
3189 3 -2.142194 95.848490 449.190123
3190 2 149.805512 77.935217 -73.181763
3191 3 83.171284 38.838262 -137.862645
3192 3 102.303982 134.355103 -35.320423
3193 2 1.310123 -74.365278 389.456655
3194 3 40.046936 -23.333498 352.625318
3195 3 58.379147 -130.679156 293.257656
3196 2 112.688348 -317.171452 472.721679
3197 3 93.004451 -304.410101 460.896671
3198 3 82.591047 -401.788370 504.056653
3199 2 669.549300 76.399888 540.145751
3200 3 625.978341 49.603630 460.468148
3201 3 598.252618 -41.197232 576.074540
3202 2 -56.020315 201.069653 450.367785
3203 3 -67.936909 135.896650 531.050601
3204 3 -95.692712 130.501539 594.276427
3205 2 -265.715604 188.099806 681.226481
3206 3 -251.914293 126.724597 678.248889
3207 3 -249.320790 142.263885 722.267763
3208 2 -56.969344 177.770153 430.674926
3209 3 -16.105264 -10.875484 381.750440
3210 3 -48.783997 78.353468 370.187262
3211 2 -106.324665 80.466145 520.656414
3212 3 -146.365744 -4.818109 531.508536
3213 3 -183.831216 65.781676 462.551015
3214 2 402.871266 -138.184796 747.639399
3215 3 386.453381 -125.160183 801.362033
3216 3 334.668733 -14.152912 875.023378
3217 2 32.783901 283.737884 221.616166
3218 3 2.622823 262.892370 212.345596
3219 3 72.685692 280.797923 187.427282
3220 2 -93.843980 -64.704005 601.691731
3221 3 -122.883796 -7.450445 530.480037
3222 3 -139.121612 -23.561520 483.256985
3223 2 156.403067 -109.055334 232.965083
3224 3 142.043059 -80.202043 270.282235
3225 3 151.936021 -100.710129 154.383042
3226 2 186.349015 35.286613 165.846949
3227 3 161.792538 43.340440 192.108798
3228 3 120.740718 2.940081 196.998006
3229 2 196.002179 10.858064 -125.541350
3230 3 143.293640 9.241550 37.555572
3231 3 201.573606 -27.653316 -56.194230
3232 2 51.888127 -70.691619 817.664352
3233 3 -1.854732 -36.861882 808.273679
3234 3 3.087094 -60.062198 896.330911
3235 2 -165.427998 -103.061783 135.572054
3236 3 -241.704649 -109.962757 233.296734
3237 3 -183.957154 -139.261685 144.913424
3238 2 23.911629 144.623909 390.821640
3239 3 57.313902 191.381621 340.421644
3240 3 -22.169258 248.932815 319.636147
3241 2 414.667549 224.878133 43.326418
3242 3 420.861863 199.846514 8.032394
3243 3 396.501023 245.079776 -36.879276
3244 2 163.553380 124.743540 253.435996
3245 3 234.396189 161.738923 328.586321
3246 3 196.013112 147.084601 363.256721
3247 2 -151.614548 -85.379452 162.608746
3248 3 -206.025594 -37.785208 119.068584
3249 3 -167.789542 -171.454689 107.782053
3250 2 -180.041806 -182.381597 432.273103
3251 3 -227.601990 -88.651991 426.551667
3252 3 -214.505727 -135.286267 495.905974
3253 2 487.051554 14.039985 741.276137
3254 3 496.703511 160.209417 790.934079
3255 3 487.088530 53.048073 665.266626
3256 2 -421.630979 85.740606 21.769444
3257 3 -311.057955 68.031694 -49.598819
3258 3 -398.516284 147.820344 -64.901737
3259 2 -0.863215 -179.853991 546.556433
3260 3 10.947587 -283.066692 594.226016
3261 3 -0.657191 -235.796208 548.655095
3262 2 125.847728 112.163249 295.762035
3263 3 168.636719 166.445880 225.728907
3264 3 180.275265 173.429451 273.582731
3265 2 -112.095771 111.064093 338.651828
3266 3 -150.451672 173.884470 297.976795
3267 3 -121.706155 164.204358 354.882924
3268 2 -219.955011 272.635686 277.677482
3269 3 -177.567573 171.127507 380.036755
3270 3 -146.061128 139.609034 374.665348
3271 2 -179.323645 69.633248 499.894572
3272 3 -162.304034 23.574897 563.858208
3273 3 -136.454713 77.176744 509.320930
3274 2 390.921289 100.568272 -29.472039
3275 3 385.705319 141.459761 106.120650
3276 3 375.524935 99.926385 70.793932
3277 2 83.046744 -161.094383 561.738621
3278 3 90.022213 -227.164706 543.977030
3279 3 102.542677 -195.990450 439.488797
3280 2 504.051359 180.245258 195.967828
3281 3 505.670388 135.329355 83.700515
3282 3 535.627995 131.437887 46.632713
3283 2 197.575211 137.834535 179.464607
3284 3 317.810126 208.666048 255.808648
3285 3 211.527417 207.071362 120.416270
3286 2 -176.675505 -42.914765 213.201977
3287 3 -200.349527 40.683710 172.729793
3288 3 -37.929040 4.497514 205.194575
3289 2 -293.371789 22.803894 187.739707
3290 3 -276.263400 5.131967 230.684579
3291 3 -284.291077 -24.146703 273.622015
3292 2 408.794847 -146.037763 331.212389
3293 3 427.061896 -212.139756 236.847325
3294 3 411.680406 -107.834491 248.278260
3295 2 -288.184511 125.624484 540.155678
3296 3 -307.887192 121.547067 561.584623
3297 3 -316.019608 91.573631 504.923773
3298 2 275.052551 253.955733 261.636772
3299 3 275.321831 219.253080 238.139370
3300 3 243.402014 132.687763 279.703002
3301 2 -20.974537 -116.727355 165.227110
3302 3 -8.145147 -111.086733 224.222453
3303 3 -36.172944 -45.324047 248.866907
3304 2 -125.001167 325.928070 174.980303
3305 3 -201.672925 270.840379 150.426116
3306 3 -141.562813 255.119545 127.460511
3307 2 17.322927 320.044529 355.541023
3308 3 27.358830 304.584904 398.481577
3309 3 71.224012 276.829271 435.494590
3310 2 278.952493 176.005635 332.150290
3311 3 267.891700 182.520762 300.861703
3312 3 345.388071 200.538917 302.255583
3313 2 -325.652264 -69.116486 352.883200
3314 3 -323.544765 -120.765856 307.942368
3315 3 -392.208578 -139.564433 275.824062
3316 2 445.276416 118.874534 273.564501
3317 3 384.614594 116.983174 359.538293
3318 3 373.635073 84.986945 357.345343
3319 2 8.481662 -69.086655 486.757093
3320 3 0.421402 -36.966199 410.254662
3321 3 26.234624 -155.667169 412.347641
3322 2 512.226814 278.745315 339.952232
3323 3 504.016010 354.102915 437.173844
3324 3 438.620107 286.611068 328.626122
3325 2 -217.162630 241.321581 252.586073
3326 3 -244.765152 153.305319 339.073782
3327 3 -221.246438 232.763196 308.345316
3328 2 638.941272 360.978901 202.044165
3329 3 593.843032 317.114663 303.042789
3330 3 603.708065 350.786587 224.034357
3331 2 -391.883096 81.845242 272.673172
3332 3 -485.776079 7.486162 191.754285
3333 3 -418.359347 -50.965916 319.161237
3334 2 -12.317385 239.961284 -68.964391
3335 3 -34.958752 190.088162 -268.129337
3336 3 -76.623932 248.036736 -109.304378
3337 2 57.873013 315.323568 -277.346120
3338 3 75.488340 368.498635 -362.015302
3339 3 19.417771 473.969598 -373.036811
3340 2 -183.268056 310.503263 168.655145
3341 3 -113.233220 403.998206 65.734926
3342 3 -109.593030 361.613984 197.048140
3343 2 132.205288 362.407526 299.480112
3344 3 161.569157 271.564377 362.861928
3345 3 126.829905 337.699621 219.564168
3346 2 -257.131299 338.326768 194.707077
3347 3 -312.718741 319.322842 201.533274
3348 3 -183.000823 315.071785 332.747499
3349 2 -108.326290 17.961643 530.327220
3350 3 -125.308408 -82.110044 584.867930
3351 3 -121.395833 69.600213 514.430802
3352 2 -110.951531 135.542329 40.388647
3353 3 -169.367615 213.725030 -93.186586
3354 3 -117.273299 270.527110 106.430344
3355 2 95.638275 132.867926 353.294858
3356 3 62.538429 125.913738 333.566829
3357 3 112.253616 111.725100 351.293399
3358 2 -154.773442 508.520481 -24.316217
3359 3 -101.908941 451.109744 -84.574724
3360 3 -183.918811 476.828520 -70.439283
3361 2 129.634784 150.730109 198.678774
3362 3 132.381957 -101.939813 94.264542
3363 3 207.262158 -77.071724 233.118675
3364 2 -87.966422 266.789228 523.965435
3365 3 -39.011747 396.519796 604.621533
3366 3 -60.943958 330.852220 665.552480
3367 2 187.429325 245.610390 331.618253
3368 3 225.304681 390.532897 329.866004
3369 3 158.225855 251.231369 278.435664
3370 2 50.393104 117.754769 -190.827117
3371 3 -42.930368 80.715119 -271.655867
3372 3 -1.008844 121.404002 -248.000721
3373 2 -442.714345 389.225146 181.740092
3374 3 -432.037628 415.780188 195.041275
3375 3 -377.751769 299.418853 150.719304
3376 2 85.594478 391.524520 763.252951
3377 3 202.510796 489.787101 600.552337
3378 3 105.513458 514.162183 625.316875
3379 2 -203.988398 421.108742 73.873621
3380 3 -274.058681 346.553745 216.770614
3381 3 -237.960793 321.016478 135.634264
3382 2 9.288928 333.011928 -73.261807
3383 3 119.037379 371.003055 -124.169548
3384 3 68.191238 350.858625 -89.315682
3385 2 183.269926 206.945471 168.925094
3386 3 229.922611 252.682830 101.074953
3387 3 256.057382 229.809034 192.072762
3388 2 15.306220 557.271437 385.601352
3389 3 48.160685 556.618747 366.009571
3390 3 0.436696 669.202517 386.272958
3391 2 96.827089 568.166523 182.370753
3392 3 127.841120 444.453065 157.969771
3393 3 74.807174 519.084448 174.643356
3394 2 117.966769 664.116015 83.512700
3395 3 83.811722 731.707267 -33.142437
3396 3 21.837945 702.112615 -17.466834
3397 2 -385.739340 601.117247 535.063076
3398 3 -401.327301 494.641251 586.292329
3399 3 -360.794412 553.820429 576.910034
3400 2 -117.906009 415.686834 111.804067
3401 3 -73.625493 382.449661 -0.523304
3402 3 -28.689131 372.367852 36.734936
3403 2 217.257900 552.976956 681.948755
3404 3 268.579615 604.795954 747.890047
3405 3 181.998725 653.718900 581.638325
3406 2 258.391121 471.181345 270.695627
3407 3 269.499489 423.930748 277.366921
3408 3 296.184257 471.271354 173.627866
3409 2 205.359528 421.199694 -1.864447
3410 3 187.639332 356.483632 34.018742
3411 3 193.897183 409.697136 77.324485
3412 2 -350.620659 5.602649 466.721215
3413 3 -397.499460 33.718776 558.733500
3414 3 -395.113414 98.644162 549.486714
3415 2 72.366601 259.637954 36.857904
3416 3 173.854957 242.076307 146.459743
3417 3 147.629695 225.629225 60.854902
3418 2 -272.216173 391.107314 535.299590
3419 3 -235.233809 520.945088 438.050338
3420 3 -215.264141 406.312754 496.423286
3421 2 18.604542 649.905909 703.293635
3422 3 -29.589047 505.872199 655.500720
3423 3 -2.202636 506.156398 573.222605
3424 2 -124.764167 343.758894 -148.985270
3425 3 -134.441995 384.598117 -26.809585
3426 3 -141.438613 413.370309 -66.165883
3427 2 -173.629940 355.216234 223.445617
3428 3 -270.532683 369.855070 282.788167
3429 3 -257.361877 316.749821 156.143751
3430 2 171.015247 376.030442 309.513292
3431 3 206.193151 399.083816 386.795363
3432 3 195.055264 395.743374 299.769491
3433 2 68.022097 468.715332 -169.182637
3434 3 29.160305 290.357860 -129.741664
3435 3 58.890720 366.432282 -69.215058
3436 2 265.276061 170.900720 701.804654
3437 3 293.387093 194.065998 654.632529
3438 3 308.585752 102.412848 615.423171
3439 2 163.474363 221.478257 326.511314
3440 3 128.224075 251.762941 127.889329
3441 3 154.913390 249.296335 108.703919
3442 2 14.044642 -101.468693 437.392571
3443 3 -33.311652 -45.284744 553.860547
3444 3 19.863209 -70.402586 445.097752
3445 2 5.260709 180.090098 278.562962
3446 3 -42.206674 231.228993 127.116156
3447 3 -87.912659 194.215471 258.663037
3448 2 240.047680 332.926510 274.868761
3449 3 327.254971 278.588467 423.394503
3450 3 209.277083 346.553258 291.360044
3451 2 -385.584807 -48.346894 284.152672
3452 3 -404.750679 29.306482 390.427548
3453 3 -351.693093 -18.235745 268.955039
3454 2 -344.602865 414.343413 137.858952
3455 3 -314.834424 318.800757 105.974965
3456 3 -331.698356 332.660800 62.412887
3457 2 -685.377506 531.656901 166.418925
3458 3 -657.309390 515.971219 292.317467
3459 3 -683.269268 503.189981 250.652000
3460 2 -109.938380 478.963323 -90.294168
3461 3 -174.094573 530.679144 -53.836418
3462 3 -131.450895 493.820615 -52.587661
3463 2 -494.340713 -72.701367 543.602534
3464 3 -531.616637 -98.818275 511.765525
3465 3 -520.020613 -150.663059 424.588772
3466 2 85.962377 606.288589 87.585429
3467 3 67.019236 517.448103 -1.550887
3468 3 99.517949 577.316765 -58.191214
3469 2 20.288785 756.702867 120.470869
3470 3 34.163635 593.994405 93.340595
3471 3 29.985179 664.209856 152.127881
3472 2 -356.408046 -15.072524 354.614968
3473 3 -400.102084 46.202403 444.023529
3474 3 -378.168900 2.048252 448.160627
3475 2 208.120702 760.051702 -10.461328
3476 3 115.504726 825.258679 -2.137654
3477 3 147.822176 734.185870 80.876110
3478 2 -267.037917 343.029301 231.081605
3479 3 -249.455578 353.599958 135.202162
3480 3 -262.741303 324.339435 290.437698
3481 2 174.763787 575.865120 112.425909
3482 3 190.768559 745.550646 152.918298
3483 3 204.023299 758.465956 93.287154
3484 2 43.674717 497.363517 271.916522
3485 3 38.250530 448.174587 217.688514
3486 3 -15.038046 497.177113 271.141642
3487 2 559.599040 287.896256 83.922448
3488 3 439.194507 319.850066 75.929424
3489 3 508.156859 318.869237 -76.601633
3490 2 135.956848 -321.385653 522.180747
3491 3 86.541707 -268.597231 556.323779
3492 3 62.285061 -310.551476 512.336384
3493 2 132.200568 -381.356853 414.842868
3494 3 93.569397 -304.818974 286.676111
3495 3 159.242506 -266.364877 368.453944
3496 2 -57.060162 141.529123 217.062188
3497 3 -55.603017 -1.143682 203.035631
3498 3 -33.363221 181.120705 305.589588
3499 2 223.057884 -316.566808 114.905497
3500 3 224.121308 -220.762486 220.162207
3501 3 89.483395 -258.559758 270.901733
3502 2 177.076697 29.938965 341.933578
3503 3 160.747675 53.295223 348.974497
3504 3 184.559911 46.919757 329.099574
3505 2 -279.047745 0.069210 442.368558
3506 3 -296.463178 -11.307128 439.966033
3507 3 -358.595880 -36.001023 512.183973
3508 2 -378.657296 406.242145 342.400075
3509 3 -438.791700 427.976699 352.816035
3510 3 -341.304364 442.047139 386.473196
3511 2 -182.511096 143.538620 157.780677
3512 3 -162.923273 154.399268 128.444661
3513 3 -172.044917 150.287892 48.182563
3514 2 86.361871 -317.733828 511.179166
3515 3 174.525456 -195.908241 491.546348
3516 3 121.719944 -299.681234 395.363642
3517 2 322.572137 -169.691813 320.227008
3518 3 313.691906 -163.462892 203.924488
3519 3 405.860110 -197.394915 382.417581
3520 2 183.159776 136.681442 579.906372
3521 3 193.489221 77.115208 627.484620
3522 3 176.683057 83.446245 573.362210
3523 2 323.596749 -107.796161 259.676886
3524 3 417.740302 -64.409384 295.871822
3525 3 377.847408 -133.260615 309.129330
3526 2 727.921409 -63.656855 129.815818
3527 3 672.062246 -94.984446 98.673756
3528 3 746.004543 -148.510512 189.387206
3529 2 90.007540 -355.471377 90.675506
3530 3 78.846753 -327.639571 68.230226
3531 3 28.591302 -323.299751 -56.277752
3532 2 -289.787370 -312.952232 631.536913
3533 3 -348.045520 -232.967603 664.475416
3534 3 -337.976604 -323.119611 657.500370
3535 2 -205.608462 112.878307 503.522623
3536 3 -189.647888 35.871079 549.040367
3537 3 -199.065150 44.620006 580.572221
3538 2 -74.549181 -373.364387 191.505408
3539 3 -100.566179 -384.656517 249.288012
3540 3 -135.209259 -389.384442 214.184974
3541 2 300.844314 -98.489178 545.408699
3542 3 313.789866 57.819128 470.152239
3543 3 334.449617 -69.720765 506.381607
3544 2 -81.022838 16.003955 589.407423
3545 3 -74.961315 115.788657 717.953750
3546 3 -39.952223 92.187861 678.021343
3547 2 328.138880 -380.090458 203.600420
3548 3 340.328778 -316.843282 163.966045
3549 3 347.777519 -348.827592 206.649235
3550 2 337.479060 -160.621561 301.064488
3551 3 296.351484 -57.290191 376.367261
3552 3 324.960673 -136.018019 278.070836
3553 2 172.198016 -1.608743 92.379518
3554 3 122.979128 -20.423687 185.262747
3555 3 92.767512 -71.004539 20.438537
3556 2 78.296492 36.761012 189.933893
3557 3 103.653633 104.853083 208.034812
3558 3 6.283715 71.939286 172.931073
3559 2 97.523496 -60.905982 204.822755
3560 3 112.666341 -63.992079 320.450717
3561 3 0.261214 -39.216075 259.177730
3562 2 85.084045 -60.153142 383.022281
3563 3 74.388760 -103.671771 351.488840
3564 3 55.690236 -1.584958 310.453426
3565 2 290.824280 -271.068414 149.673378
3566 3 267.050017 -256.379859 133.533517
3567 3 316.165313 -290.547838 174.515477
3568 2 173.463511 -52.583446 440.539549
3569 3 134.090762 -128.018878 448.782413
3570 3 206.239666 -75.763593 439.911858
3571 2 -7.492494 -53.128748 371.284882
3572 3 -11.594081 37.874396 459.797649
3573 3 -22.734476 0.018294 336.471462
3574 2 7.719473 -43.863569 412.038722
3575 3 1.906369 -45.553426 411.863246
3576 3 -15.886052 -41.259676 465.363722
3577 2 96.310648 118.893448 518.774855
3578 3 20.211953 143.505003 435.358674
3579 3 33.110831 147.816983 516.266195
3580 2 400.536394 254.828657 438.244966
3581 3 328.268516 167.685835 393.328860
3582 3 322.474078 227.799925 363.772742
3583 2 164.299383 427.127996 186.327246
3584 3 144.004344 416.528421 177.642979
3585 3 187.101870 442.462763 294.231132
3586 2 83.382974 369.441879 90.204757
3587 3 -20.276026 369.714309 135.931236
3588 3 16.431687 402.724725 68.906846
3589 2 378.994508 -251.975452 242.446445
3590 3 365.065165 -312.167570 238.983610
3591 3 335.718194 -247.674433 370.741220
3592 2 324.087092 -88.114451 303.257272
3593 3 271.653798 -65.928003 439.774430
3594 3 170.858657 -34.475323 374.714208
3595 2 -103.768396 48.337712 354.619211
3596 3 -109.376946 -0.344997 390.979328
3597 3 -115.608889 50.570896 396.164484
3598 2 221.491360 -59.456079 357.647508
3599 3 244.379224 -68.380963 370.190067
3600 3 197.866774 -120.962037 303.931184
3601 2 -8.927740 413.524724 220.230312
3602 3 -12.532803 320.963536 214.229923
3603 3 -8.468145 333.524191 265.485137
3604 2 196.422860 -53.008854 785.715857
3605 3 216.836159 -46.288280 734.015311
3606 3 132.583781 -24.437644 777.191826
3607 2 -437.709406 113.812192 608.333134
3608 3 -356.428777 172.040950 453.818221
3609 3 -392.364121 72.377758 599.570484
3610 2 -328.912877 363.627365 34.290623
3611 3 -292.580984 263.326057 -0.758902
3612 3 -327.101526 269.057069 44.611523
3613 2 -214.518840 150.563759 459.602467
3614 3 -246.594570 170.190771 586.755615
3615 3 -246.831114 136.844485 538.096466
3616 2 38.963562 -123.454704 13.404270
3617 3 83.882591 10.597942 129.021480
3618 3 97.654340 21.484707 105.032838
3619 2 -234.208530 120.546040 561.260869
3620 3 -160.109582 118.854639 489.732433
3621 3 -225.013220 129.444575 503.160564
3622 2 -232.607323 355.249562 259.392120
3623 3 -233.070107 392.165533 206.786387
3624 3 -206.229772 354.263503 258.096625
3625 2 -2.117453 125.725258 370.620509
3626 3 22.349630 111.442817 417.285470
3627 3 -30.977005 134.611189 356.219123
3628 2 114.473254 405.614908 91.164251
3629 3 119.344226 295.934731 73.617248
3630 3 206.622891 517.891216 104.963976
3631 2 -119.301596 89.656180 500.262388
3632 3 -116.355065 153.929501 532.585342
3633 3 -67.092687 88.732376 466.426800
3634 2 290.723978 382.800271 262.469222
3635 3 245.571927 292.823752 226.583314
3636 3 326.363248 391.342038 160.849845
3637 2 256.588201 -68.348601 197.384644
3638 3 187.709241 -19.382703 296.407716
3639 3 199.458478 -4.084302 291.330466
3640 2 789.611787 -233.138119 645.142070
3641 3 667.524331 -183.332321 591.779908
3642 3 676.734802 -186.812202 660.584317
3643 2 -198.490774 -75.039261 639.990201
3644 3 -76.103879 -28.439096 532.052862
3645 3 -121.761593 -76.395316 498.732003
3646 2 -103.500127 336.572619 486.357982
3647 3 -170.635193 292.776710 517.463675
3648 3 -72.129247 246.774947 522.000253
3649 2 397.402680 241.564363 286.814277
3650 3 441.363828 270.403697 241.173719
3651 3 411.254400 224.184453 248.845337
3652 2 241.121199 -260.148667 571.384333
3653 3 197.444971 -291.078072 758.939307
3654 3 195.215565 -226.101303 609.711477
3655 2 -173.916253 -110.672097 491.991035
3656 3 -96.567057 -93.465987 611.779731
3657 3 -178.515807 -79.804079 565.459337
3658 2 306.072092 61.364037 286.319107
3659 3 320.289104 63.518735 180.391142
3660 3 402.536466 108.749028 307.486056
3661 2 -161.343685 195.466966 414.835819
3662 3 -194.887029 223.005163 381.885249
3663 3 -173.519631 196.768954 392.751837
3664 2 -77.954078 144.257638 393.399714
3665 3 -169.916404 116.583971 371.863823
3666 3 -130.242638 126.433853 356.271932
3667 2 599.313121 619.192282 353.179239
3668 3 543.827460 602.386500 224.309712
3669 3 543.497245 659.080782 221.064478
3670 2 242.667781 602.378959 65.153747
3671 3 246.874446 504.347027 73.612991
3672 3 234.079236 565.034136 139.256319
3673 2 834.854576 -13.674760 523.353096
3674 3 917.069055 -39.210598 660.197200
3675 3 793.532361 -13.674171 545.038078
3676 2 -284.004444 208.406481 -70.197335
3677 3 -302.617410 232.000671 -20.582880
3678 3 -241.962491 216.178454 -36.060923
3679 2 -351.766772 496.128929 396.987578
3680 3 -334.368127 525.790632 361.970489
3681 3 -439.085729 538.119330 377.228292
3682 2 73.557541 -211.163915 238.667126
3683 3 104.733912 -244.364065 196.571033
3684 3 38.498963 -273.619571 336.647307
3685 2 276.352729 222.274627 284.623154
3686 3 326.955569 193.429638 427.081416
3687 3 395.758114 112.748987 307.287313
3688 2 36.955796 -75.006572 378.322147
3689 3 117.726663 -173.234183 482.709006
3690 3 76.910814 -127.670532 441.785003
3691 2 -546.708314 344.390692 67.599500
3692 3 -489.607420 280.550185 104.567975
3693 3 -531.317629 316.946595 116.923876
3694 2 207.104668 228.299583 263.044639
3695 3 163.078456 274.752092 280.154552
3696 3 191.052284 263.143758 215.664507
3697 2 -205.825384 55.093449 138.215937
3698 3 -236.829050 15.535408 37.088656
3699 3 -238.116582 26.036457 103.858727
3700 2 88.368655 632.065080 118.647055
3701 3 104.205257 612.202447 52.350330
3702 3 131.450769 567.847537 44.674540
3703 2 176.765278 26.108950 193.183980
3704 3 171.827646 42.559035 284.193063
3705 3 150.148754 46.117801 280.917623
3706 2 219.990652 32.822320 334.765231
3707 3 239.524947 24.687581 355.221439
3708 3 212.633943 70.405938 369.961044
3709 2 142.276916 307.093580 25.288440
3710 3 135.091846 391.994576 12.234053
3711 3 147.444941 329.587376 97.279424
3712 2 208.586161 713.524464 551.463779
3713 3 306.658866 692.697514 440.701518
3714 3 230.597289 706.070169 525.544349
3715 2 87.583963 260.695306 334.247808
3716 3 61.178597 264.948628 373.442441
3717 3 72.432793 269.343867 416.046252
3718 2 229.395835 74.579316 288.812009
3719 3 317.553985 111.698621 293.635437
3720 3 313.081565 64.171889 321.859469
3721 2 -106.894110 334.391808 623.915909
3722 3 -7.701368 400.888838 497.065295
3723 3 -58.808876 423.594065 643.115185
3724 2 -91.333068 152.238967 242.281302
3725 3 -50.040002 126.617643 143.797537
3726 3 5.810118 125.666364 287.716345
3727 2 -148.004653 343.767742 586.461347
3728 3 -152.581257 342.757722 548.610147
3729 3 -82.358488 395.832988 509.752516
3730 2 39.492024 684.251535 497.082234
3731 3 86.200788 634.131525 543.694312
3732 3 -17.595409 660.840100 561.641491
3733 2 -145.328066 293.120843 651.584083
3734 3 -90.441197 291.622552 565.398336
3735 3 -130.339723 296.625309 603.987384
3736 2 -98.048464 263.484455 767.474853
3737 3 -151.690976 252.494921 742.927862
3738 3 -182.078804 180.240393 679.386770
3739 2 181.907716 639.253605 249.660681
3740 3 161.953738 597.535543 378.608407
3741 3 46.755567 602.928259 305.543385
3742 2 -443.406919 146.625074 307.694303
3743 3 -550.728278 171.940541 299.977995
3744 3 -472.677474 247.252742 424.580543
3745 2 -344.036673 418.751774 297.297273
3746 3 -358.013320 411.824520 287.752363
3747 3 -340.194363 405.335088 251.235038
3748 2 119.899121 -41.539799 518.609195
3749 3 129.388738 2.976073 429.714772
3750 3 69.785916 5.329642 426.608720
3751 2 86.191014 311.108880 342.590459
3752 3 154.281530 322.494760 425.000984
3753 3 83.776984 339.205363 354.836499
3754 2 415.119709 187.627348 -132.986067
3755 3 423.488447 144.943898 -341.885358
3756 3 380.006722 164.737664 -204.518037
3757 2 139.149279 16.855923 922.575608
3758 3 134.020731 -11.805992 963.133012
3759 3 179.113634 65.434787 1012.384130
3760 2 -30.686042 124.282827 -67.468464
3761 3 -18.507576 156.829414 -54.479276
3762 3 -15.807069 27.236269 -102.998797
3763 2 298.378253 203.262461 622.034830
3764 3 230.080496 319.114908 571.818133
3765 3 246.833108 313.248822 478.310152
3766 2 -44.910154 -55.496336 551.929390
3767 3 -118.543527 -32.396954 466.552899
3768 3 -91.142040 -84.664934 477.556694
3769 2 -153.455762 250.495451 -208.169282
3770 3 -104.326157 157.146438 -80.440293
3771 3 -175.093882 169.417679 -112.609608
3772 2 -301.146677 515.466315 382.141322
3773 3 -335.602858 493.031269 448.797544
3774 3 -387.464907 524.746980 460.948003
3775 2 -287.916144 239.965557 206.659642
3776 3 -294.179602 243.061940 253.190312
3777 3 -312.760548 227.944487 286.686462
3778 2 -339.068463 453.752279 -10.513920
3779 3 -353.104024 559.826061 -117.123757
3780 3 -318.874823 515.753342 3.058385
3781 2 201.636476 506.108170 495.443352
3782 3 84.822697 417.749507 646.823686
3783 3 140.051799 420.817945 599.421911
3784 2 -376.623945 -49.742381 610.645910
3785 3 -228.600177 -126.617985 511.587355
3786 3 -353.844247 -24.176876 515.033362
3787 2 73.052568 446.915064 342.697295
3788 3 72.388194 311.285249 413.609554
3789 3 45.003430 425.720566 320.065666
3790 2 71.480917 450.652825 498.633507
3791 3 67.564644 446.839377 525.560254
3792 3 118.908951 461.021386 482.357980
3793 2 36.321131 345.141997 14.646273
3794 3 9.797197 341.832602 -54.816763
3795 3 42.112645 332.693733 36.873719
3796 2 352.698993 55.855271 218.572683
3797 3 305.437988 66.347701 291.094745
3798 3 331.151758 -28.031397 159.824879
3799 2 394.027419 284.338028 623.214780
3800 3 432.786672 315.346648 501.662247
3801 3 409.696676 241.942600 549.373347
3802 2 -158.159031 217.099135 304.478555
3803 3 -122.503603 247.447843 344.048367
3804 3 -107.447903 181.895713 334.123111
3805 2 30.092623 70.408412 684.214332
3806 3 87.255844 3.456363 799.393751
3807 3 36.173438 22.154855 786.281144
3808 2 0.503027 -83.787479 453.188353
3809 3 20.490410 -108.230609 488.827265
3810 3 -1.324033 -127.033123 445.017524
3811 2 -363.917057 -32.745733 523.506614
3812 3 -415.390125 22.447299 312.851282
3813 3 -385.499591 -41.240857 502.289089
3814 2 330.191827 147.514570 129.701380
3815 3 349.113292 164.428089 62.250535
3816 3 370.829628 82.302663 48.406719
3817 2 168.623753 163.101698 330.239356
3818 3 136.878065 98.487726 178.798223
3819 3 98.527754 102.490519 211.246630
3820 2 -16.760424 459.881126 478.962162
3821 3 13.506761 474.402433 556.548484
3822 3 18.064286 544.462253 552.630334
3823 2 -307.039839 233.734552 378.845254
3824 3 -375.975816 149.773121 359.064527
3825 3 -360.816080 243.386353 275.743188
3826 2 307.142061 135.780170 133.708836
3827 3 407.234535 153.279381 149.018056
3828 3 343.887289 229.345136 178.252292
3829 2 -272.285489 180.560215 255.665038
3830 3 -251.191351 240.634743 247.232914
3831 3 -219.347432 217.348911 346.681206
3832 2 175.492770 165.979610 338.058938
3833 3 133.102767 149.273508 358.548063
3834 3 108.966732 193.990372 373.918939
3835 2 402.768179 409.429085 353.114141
3836 3 352.865702 416.037292 357.246405
3837 3 365.814680 369.807055 352.768983
3838 2 174.955677 233.902727 -37.790639
3839 3 66.740694 304.654752 183.442632
3840 3 101.362355 347.869098 195.711847
3841 2 -407.808790 -115.097973 961.261786
3842 3 -333.021532 -131.037688 854.496131
3843 3 -464.757987 -77.815085 963.749374
3844 2 66.916558 49.718900 352.111401
3845 3 108.677954 132.557272 400.835796
3846 3 -8.805321 223.358328 464.098820
3847 2 -18.303272 329.918099 132.776102
3848 3 -52.008485 258.213860 154.046491
3849 3 -22.062156 301.600668 197.812428
3850 2 -178.468232 -70.908090 560.157087
3851 3 -187.103279 -95.733272 591.056564
3852 3 -196.446306 -75.170353 575.044417
3853 2 -113.617592 216.812245 114.010718
3854 3 -126.753456 108.582093 211.393247
3855 3 -88.486394 149.227318 242.204949
3856 2 -112.544356 -18.214615 327.261395
3857 3 -71.704473 -54.362142 373.042999
3858 3 -167.286517 -23.639074 410.934608
3859 2 147.475249 -87.488020 530.363828
3860 3 167.216174 -47.231637 532.618223
3861 3 226.432430 -65.591547 561.519784
3862 2 106.218468 -42.402544 542.163816
3863 3 104.036045 -177.122344 570.311993
3864 3 51.776582 -39.618217 618.224696
3865 2 -2.551174 -208.142292 479.130331
3866 3 -62.332501 -163.354515 516.691212
3867 3 -64.587679 -253.582788 523.834723
3868 2 239.092187 -317.700530 378.368830
3869 3 157.094827 -354.299127 377.387678
3870 3 225.679759 -280.792465 268.616063
3871 2 392.437034 223.488689 545.269462
3872 3 394.603915 209.496734 628.309190
3873 3 343.359108 223.404290 568.706951
3874 2 9.259270 -551.951808 642.181823
3875 3 42.707325 -522.053922 508.503777
3876 3 133.104801 -489.009691 619.123997
3877 2 562.682788 336.041503 577.701022
3878 3 594.074941 280.917064 653.641745
3879 3 578.053358 271.843467 577.658547
3880 2 -15.182524 128.931309 773.729840
3881 3 -20.064523 287.156203 715.236180
3882 3 -77.192336 250.929564 742.122702
3883 2 -9.644773 222.379795 448.943608
3884 3 -56.498031 203.239274 410.095977
3885 3 -15.049425 127.557860 389.487728
3886 2 -85.984800 -14.184297 231.599729
3887 3 10.350546 93.080132 149.364976
3888 3 -6.587292 23.552620 202.592753
3889 2 -231.780603 409.466183 499.439515
3890 3 -265.781617 421.432715 515.329844
3891 3 -205.428195 436.264342 668.965754
3892 2 119.737878 451.497544 -25.099922
3893 3 67.020468 390.317665 -2.487621
3894 3 103.918654 445.627079 -11.438963
3895 2 178.719710 -143.940485 314.371834
3896 3 138.457839 -99.593587 316.672468
3897 3 154.552461 -205.247852 323.692389
3898 2 142.127831 167.790456 242.036872
3899 3 117.730570 98.661761 250.289313
3900 3 155.388758 161.578046 291.613626
3901 2 590.671480 231.503065 66.444445
3902 3 577.012821 314.051213 7.405343
3903 3 519.288029 275.962535 -27.457623
3904 2 -330.534864 -154.879480 -82.976463
3905 3 -346.418406 -237.913070 -159.107018
3906 3 -419.990702 -200.637275 -21.268426
3907 2 446.601712 545.068478 107.595607
3908 3 373.872184 515.588223 98.732184
3909 3 292.676969 489.386863 40.816409
3910 2 299.081574 299.194681 358.636041
3911 3 254.147752 365.061494 265.854024
3912 3 296.790234 248.680455 260.626430
3913 2 129.064833 -254.346621 258.715403
3914 3 79.082077 -255.102699 172.387172
3915 3 54.130383 -114.921801 138.154456
3916 2 423.962175 -177.065237 -218.264238
3917 3 412.630550 -271.611328 -202.446702
3918 3 381.862393 -185.979448 -248.851752
3919 2 -160.969740 63.917707 474.088693
3920 3 -245.096550 45.534430 418.201303
3921 3 -180.919244 172.765617 527.836569
3922 2 -182.078052 157.612708 242.595738
3923 3 -186.488612 202.002178 246.906743
3924 3 -222.846191 169.538644 100.840210
3925 2 30.542202 317.731410 177.991422
3926 3 38.666745 366.376391 144.480048
3927 3 19.804314 402.393272 213.658842
3928 2 -64.362862 338.379344 721.821969
3929 3 -106.043787 270.910517 771.443819
3930 3 -139.568201 319.739987 695.305588
3931 2 356.220923 267.017201 340.884302
3932 3 411.360840 294.897646 439.991385
3933 3 386.580699 331.507069 407.156913
3934 2 110.289384 10.930210 795.784225
3935 3 102.428614 25.361246 831.873507
3936 3 123.282486 -69.863860 864.258569
3937 2 -88.425212 331.711657 532.000902
3938 3 -194.820819 431.985735 503.831727
3939 3 -124.581435 449.038677 482.623132
3940 2 160.473293 -85.197973 649.077527
3941 3 110.358892 -130.113693 675.825735
3942 3 124.625297 -137.122169 593.375429
3943 2 -67.320068 -113.425107 -7.021846
3944 3 -81.174776 -122.101325 -32.799106
3945 3 -28.409557 -71.296978 94.844512
3946 2 443.199434 14.506127 278.499783
3947 3 558.583795 70.037040 357.469818
3948 3 599.602959 37.935790 287.848017
3949 2 140.509394 513.959723 652.218970
3950 3 131.443238 390.636316 631.330402
3951 3 101.581718 522.281909 599.286586
3952 2 263.894193 -385.100452 -293.876853
3953 3 355.070890 -513.201197 -252.292371
3954 3 381.099492 -427.522837 -303.044001
3955 2 264.216963 -198.492938 122.193669
3956 3 354.443541 -257.602527 138.446270
3957 3 297.721767 -141.234730 98.833927
3958 2 89.036505 -149.628073 -42.973170
3959 3 187.344392 -186.218581 131.449358
3960 3 198.922446 -203.779635 155.981201
3961 2 -366.785583 -52.089102 417.545491
3962 3 -390.581834 35.408601 428.275722
3963 3 -420.655371 74.611941 449.946274
3964 2 -247.606316 -13.461763 537.174876
3965 3 -250.513493 -46.944185 513.002048
3966 3 -197.728908 34.153766 428.016807
3967 2 -33.677561 147.767813 588.274856
3968 3 51.815363 204.823956 583.138192
3969 3 -3.791154 219.572507 577.571860
3970 2 282.168933 309.453741 615.703490
3971 3 246.461628 281.262627 628.531534
3972 3 340.249946 258.400280 592.433727
3973 2 287.083578 95.373113 159.884912
3974 3 290.111715 2.442237 156.583290
3975 3 263.303301 67.744348 7.251793
3976 2 -173.047849 -44.931677 340.239489
3977 3 -198.899574 -0.411240 413.634575
3978 3 -225.703156 26.113837 408.101789
3979 2 148.870305 -258.121723 136.682027
3980 3 132.893474 -241.960755 53.533886
3981 3 186.857673 -236.022417 -6.552268
3982 2 136.475157 -254.386182 500.353097
3983 3 169.815075 -319.129034 389.602276
3984 3 108.158246 -229.776315 400.464732
3985 2 293.643234 692.497791 99.529796
3986 3 317.657590 611.501590 69.171315
3987 3 273.774312 577.929011 97.154815
3988 2 117.208657 221.572858 347.905404
3989 3 7.050788 71.419706 369.023881
3990 3 101.481268 135.283408 337.366998
3991 2 356.598516 -52.027410 589.413955
3992 3 276.237095 -6.755591 579.428214
3993 3 324.511126 -49.120427 569.670168
3994 2 69.652333 89.385939 519.248473
3995 3 24.596524 95.103374 528.948729
3996 3 34.069047 106.385925 586.898837
3997 2 -352.883873 473.171282 41.776614
3998 3 -380.534807 503.349322 156.769670
3999 3 -334.486349 526.262087 147.139172
4000 2 -250.875482 233.821947 220.348237
4001 3 -237.637135 153.087655 123.798360
4002 3 -244.781174 172.329224 187.886472
4003 2 125.175244 -491.299730 521.570364
4004 3 57.751601 -399.787213 547.706307
4005 3 102.723826 -421.471106 539.905177
4006 2 411.663619 -191.660224 589.146368
4007 3 366.909078 -156.235003 676.564542
4008 3 438.638841 -198.050083 739.772248
4009 2 571.803236 264.187821 156.052480
4010 3 625.122534 243.199751 181.756865
4011 3 590.018791 283.716051 134.607011
4012 2 -161.806469 38.139228 683.860870
4013 3 -107.567321 73.664235 495.005825
4014 3 -205.594140 148.303368 516.228886
4015 2 -227.393399 322.511849 840.592315
4016 3 -284.202385 309.395022 868.052981
4017 3 -273.909226 231.287970 862.098020
4018 2 279.518291 316.478303 378.668892
4019 3 270.766931 325.916697 400.305936
4020 3 316.212567 330.672718 433.940106
4021 2 160.473034 -423.323049 685.725749
4022 3 63.747401 -409.546295 546.010410
4023 3 156.119182 -452.770250 634.880181
4024 2 -24.580485 217.646139 265.064660
4025 3 -81.960676 190.129806 178.457641
4026 3 -10.019620 239.932427 212.946513
4027 2 442.379370 296.188916 160.322965
4028 3 417.862025 298.374957 156.359618
4029 3 402.371433 302.694616 308.095904
4030 2 54.250130 575.926728 38.046965
4031 3 124.625013 538.954045 124.250243
4032 3 96.571170 466.726216 111.299459
4033 2 -231.454086 577.066624 599.464092
4034 3 -219.135538 508.973752 576.463502
4035 3 -183.137619 653.862367 467.273512
4036 2 -127.835787 -125.296870 471.200888
4037 3 -194.878303 -174.321107 368.716808
4038 3 -166.903279 -100.184372 484.049450
4039 2 226.581466 77.501135 430.022657
4040 3 388.273728 62.812819 426.029889
4041 3 210.696543 24.175241 407.046203
4042 2 435.867018 -22.518803 552.690302
4043 3 406.177112 32.008524 659.247674
4044 3 379.406340 5.306040 648.963200
4045 2 -412.608837 321.604002 542.875868
4046 3 -461.060448 229.317206 486.089362
4047 3 -364.315677 200.715819 543.645046
4048 2 80.520333 364.577846 227.778063
4049 3 189.873989 349.099216 234.146602
4050 3 148.715835 396.281028 88.658309
4051 2 -296.775644 -52.327474 457.751759
4052 3 -254.693438 24.283824 389.168660
4053 3 -257.997460 49.446152 436.001200
4054 2 75.605269 -216.628700 580.797295
4055 3 130.446394 -192.885583 730.738580
4056 3 152.733457 -306.140652 813.248928
4057 2 208.312161 -114.264520 399.562553
4058 3 308.211709 -15.246617 459.605198
4059 3 213.940813 -145.583307 357.607173
4060 2 435.166803 59.236221 -161.286259
4061 3 426.699956 152.965321 -195.575631
4062 3 485.475959 63.089176 -182.839273
4063 2 9.192615 115.331320 129.996709
4064 3 8.346749 88.263316 142.649628
4065 3 -40.431405 117.159324 118.457426
4066 2 165.123195 378.169928 317.943570
4067 3 179.636823 352.825634 321.172419
4068 3 114.657953 379.560816 223.976178
4069 2 -90.514617 355.791077 584.141153
4070 3 -21.889265 392.577599 594.839020
4071 3 48.517244 364.981155 636.093456
4072 2 -143.971698 230.461480 196.856906
4073 3 -121.855030 216.655732 34.234246
4074 3 -180.222085 300.075830 165.013457
4075 2 388.667861 41.616105 146.165189
4076 3 388.265273 82.840267 164.901262
4077 3 359.130146 36.176695 135.594372
4078 2 347.526185 91.413621 350.266339
4079 3 348.180551 132.422524 417.472829
4080 3 369.244961 145.276005 431.352104
4081 2 -24.677520 219.779696 443.429827
4082 3 41.461690 206.454387 493.713614
4083 3 -20.274223 198.450548 596.673970
4084 2 -420.259685 491.811825 246.038885
4085 3 -411.596401 435.847714 323.268516
4086 3 -328.619539 403.370482 147.444041
4087 2 206.550037 397.391914 136.850547
4088 3 150.196033 342.469297 112.334905
4089 3 105.606538 342.316554 -25.696023
4090 2 -439.460906 -117.174544 721.475667
4091 3 -419.065084 -95.630507 773.632636
4092 3 -409.890061 -116.273994 704.789479
4093 2 -14.244536 -61.190006 142.619524
4094 3 -25.636489 -29.509083 144.648116
4095 3 -86.637871 123.930932 115.869775
4096 2 -39.852451 321.707725 40.888938
4097 3 -33.863042 306.353618 134.195344
4098 3 -20.062650 405.271686 191.343863
4099 2 -19.287202 401.629561 277.017077
4100 3 -21.503914 478.387658 227.845578
4101 3 -40.930856 456.113291 249.625291
4102 2 8.988023 171.126869 40.206054
4103 3 -3.091400 229.226741 4.112513
4104 3 96.081955 202.384581 33.164951
4105 2 59.361445 130.389955 421.643103
4106 3 88.896269 187.789654 373.782359
4107 3 53.947342 218.389340 392.816640
4108 2 98.706998 192.429196 736.446805
4109 3 97.811806 226.454163 749.125648
4110 3 145.832728 140.780152 705.505258
4111 2 -305.665144 121.680538 226.057514
4112 3 -272.325472 74.254720 129.081070
4113 3 -170.539008 61.168130 144.224676
4114 2 -186.102133 473.822846 593.595632
4115 3 -219.474011 339.751196 466.600024
4116 3 -211.424567 344.152958 483.641962
4117 2 -462.297546 -40.828646 568.754188
4118 3 -500.008448 -68.635483 529.541693
4119 3 -531.174707 25.480422 607.713451
4120 2 14.471913 161.815324 578.525999
4121 3 0.209767 238.852497 666.736195
4122 3 -24.619142 213.321448 598.720413
4123 2 -359.188250 584.570120 417.718237
4124 3 -358.042284 590.068902 341.990631
4125 3 -340.528793 553.634815 411.755230
4126 2 187.958541 431.288101 321.998558
4127 3 159.388805 306.118286 207.278513
4128 3 172.336772 388.435070 282.715578
4129 2 109.870694 36.139680 179.191817
4130 3 63.987303 50.675804 336.898878
4131 3 158.623710 24.102496 204.001745
4132 2 252.751635 239.646936 165.674103
4133 3 168.198758 275.497679 154.893693
4134 3 208.837211 363.503481 151.355215
4135 2 -115.344675 225.907645 294.499180
4136 3 -45.838797 186.319902 263.323832
4137 3 -78.019999 194.532313 291.024204
4138 2 -224.173681 64.312505 -27.328074
4139 3 -194.168967 31.408938 72.530077
4140 3 -194.296163 33.640288 175.552953
4141 2 85.360479 59.459613 347.519800
4142 3 45.065130 75.791040 466.113822
4143 3 45.866938 37.457087 437.678978
4144 2 -117.617873 431.488098 605.456067
4145 3 -209.909858 451.412522 553.339655
4146 3 -179.659727 455.340883 435.547657
4147 2 -179.007308 456.442160 -51.659959
4148 3 -242.493113 592.021922 -99.649643
4149 3 -240.149908 642.148561 81.440783
4150 2 -160.703579 213.431573 196.164800
4151 3 -85.316630 186.059346 277.852386
4152 3 -82.797164 157.705698 407.497237
4153 2 367.698675 595.351296 337.971403
4154 3 427.843309 628.784665 257.545582
4155 3 398.035871 689.562452 284.837452
4156 2 -156.834055 206.574228 589.158915
4157 3 -136.781279 224.134476 408.157144
4158 3 -129.930159 220.170583 494.886885
4159 2 200.086727 75.292686 205.971540
4160 3 186.817653 102.142364 298.896724
4161 3 158.852711 102.161696 195.116964
4162 2 -265.924219 423.820335 218.030682
4163 3 -275.010526 481.361039 274.559953
4164 3 -253.555779 392.777992 216.639644
4165 2 293.792491 249.314945 195.342370
4166 3 269.931435 279.718936 199.128110
4167 3 313.744682 185.433112 216.057289
4168 2 -86.694863 307.898738 250.204435
4169 3 -105.411262 341.700203 236.661590
4170 3 -60.474475 471.343635 230.999181
4171 2 275.018904 385.748139 416.319633
4172 3 222.022388 248.745727 501.521313
4173 3 251.898761 344.849345 497.504151
4174 2 -26.848949 471.852614 525.083351
4175 3 -52.125728 412.043917 635.669509
4176 3 -16.071795 391.188353 565.684522
4177 2 0.525647 114.571060 488.438635
4178 3 -4.462768 159.981064 476.497123
4179 3 34.202519 193.292312 563.394221
4180 2 116.928445 -95.848650 574.856542
4181 3 112.559655 -177.615176 664.209121
4182 3 115.156140 -101.440543 643.523337
4183 2 -429.198658 334.682423 271.110736
4184 3 -544.506947 312.534555 279.697632
4185 3 -507.253800 346.829733 148.831398
4186 2 287.670600 72.602459 395.677432
4187 3 285.537761 112.053079 401.004481
4188 3 321.524994 142.027739 312.885104
4189 2 -158.296333 96.473386 332.515856
4190 3 -28.021630 201.425571 339.697525
4191 3 -18.360756 262.869777 239.116795
4192 2 161.256382 145.794669 308.042671
4193 3 230.661725 98.623971 481.762100
4194 3 193.585172 40.929535 399.386450
4195 2 -283.800290 541.629695 394.741228
4196 3 -250.204872 446.457507 233.796868
4197 3 -280.031636 335.981781 292.249159
4198 2 -708.061808 96.305842 315.024176
4199 3 -746.470855 58.835782 228.517073
4200 3 -685.996770 139.058571 281.686396
4201 2 -226.584156 -47.479923 276.299305
4202 3 -307.126707 -7.299155 157.102207
4203 3 -223.669066 8.781814 162.680006
4204 2 -105.422453 607.642378 692.646548
4205 3 -91.395642 552.676155 556.452646
4206 3 -127.049961 714.421030 819.805268
4207 2 293.496294 443.877857 355.851787
4208 3 359.065538 568.912566 408.313467
4209 3 329.267073 652.350879 364.135208
4210 2 -376.063867 388.607761 454.902813
4211 3 -303.985574 384.622839 477.456502
4212 3 -246.644956 380.620524 478.072457
4213 2 311.424131 443.532263 261.369148
4214 3 274.121412 502.889058 326.709578
4215 3 201.811173 535.187153 306.071547
4216 2 -180.464607 -117.354943 558.654637
4217 3 -121.132223 -69.103114 679.194208
4218 3 -133.935728 -167.987747 525.060213
4219 2 61.972363 385.926911 132.256307
4220 3 35.944910 438.940539 204.214014
4221 3 -16.458295 314.762378 210.366815
4222 2 -262.175358 527.816269 562.794023
4223 3 -305.625432 610.383102 656.739864
4224 3 -236.494891 457.494357 633.548631
4225 2 -245.195816 392.338557 279.332325
4226 3 -298.343746 417.629454 290.593541
4227 3 -290.662528 442.816567 286.440630
4228 2 379.275151 545.551367 424.848720
4229 3 376.976712 543.638668 253.824774
4230 3 390.570393 528.070393 248.284939
4231 2 349.658556 141.345006 70.125527
4232 3 470.001611 190.331126 30.656103
4233 3 379.433406 181.784616 82.277601
4234 2 -147.645363 -14.415357 227.253536
4235 3 -245.432656 11.926565 225.298945
4236 3 -219.309470 -147.814080 159.376521
4237 2 -190.570079 -243.699638 724.660730
4238 3 -155.172554 -214.347145 848.596082
4239 3 -162.656200 -314.657423 841.729605
4240 2 -119.829432 78.276625 525.448326
4241 3 -197.084625 33.258952 569.679210
4242 3 -87.814256 159.667446 611.105099
4243 2 159.099842 90.404269 36.092225
4244 3 206.680684 101.732206 226.907751
4245 3 161.381729 -65.552366 108.931484
4246 2 -360.694455 -288.021464 379.149670
4247 3 -317.812471 -301.791406 403.892065
4248 3 -295.094250 -230.957308 434.288733
4249 2 119.995042 -115.889204 742.869702
4250 3 71.368758 -88.738549 833.216054
4251 3 112.242634 -202.834674 942.742161
4252 2 -94.724364 -431.217508 204.674624
4253 3 -147.602447 -387.411625 184.234783
4254 3 -96.265547 -428.699557 212.678539
4255 2 -407.644620 35.184383 -74.638010
4256 3 -406.188184 38.513278 -9.435172
4257 3 -335.362592 64.923585 -100.807757
4258 2 299.507407 -248.178060 764.936117
4259 3 324.718681 -346.511919 682.460754
4260 3 336.418705 -309.767452 768.857256
4261 2 -149.483176 118.878426 486.772850
4262 3 -199.005866 71.736286 427.875726
4263 3 -214.477280 61.498105 502.918846
4264 2 56.974899 180.855223 668.857479
4265 3 87.200590 83.298015 685.031521
4266 3 98.913949 96.681928 550.847418
4267 2 60.194679 -200.206887 327.100958
4268 3 -34.873918 -180.355459 352.221226
4269 3 40.076198 -221.216075 360.322639
4270 2 351.571736 185.076115 518.008518
4271 3 359.240333 245.642547 483.846776
4272 3 409.921437 273.596794 494.041132
4273 2 247.698085 28.243173 145.293206
4274 3 243.217753 19.331758 189.980023
4275 3 236.865973 19.819702 172.810593
4276 2 -228.633529 182.222180 808.184447
4277 3 -146.828306 170.586691 685.112488
4278 3 -188.562389 291.131789 705.540538
4279 2 -649.511774 -129.877662 215.604816
4280 3 -457.764807 -176.252538 265.141382
4281 3 -525.151269 -129.573257 238.553021
4282 2 -85.198308 38.792305 688.535504
4283 3 -58.307224 44.523894 854.068937
4284 3 -82.058642 -36.122197 778.279739
4285 2 15.482169 282.581264 511.058492
4286 3 36.394229 292.219199 435.894771
4287 3 59.721939 362.969111 414.620266
4288 2 142.487651 279.943382 503.621967
4289 3 118.946068 235.570698 467.217308
4290 3 146.741139 209.430018 540.759492
4291 2 243.182947 149.032262 347.773438
4292 3 260.757151 127.735865 410.287912
4293 3 192.196919 118.634208 488.948641
4294 2 158.438685 -10.741732 693.635338
4295 3 85.059598 34.712549 590.786209
4296 3 172.431121 99.140278 654.510969
4297 2 58.595956 217.938487 207.270892
4298 3 -18.996212 144.076638 167.743159
4299 3 -34.822886 168.488713 142.316381
4300 2 116.752658 -345.046317 245.994472
4301 3 -8.729937 -270.064384 301.662656
4302 3 141.994362 -363.815336 322.603830
4303 2 148.536615 167.001734 231.292840
4304 3 247.559304 131.630662 277.636206
4305 3 270.460109 179.980339 381.398640
4306 2 517.957950 418.346823 440.490283
4307 3 521.353277 408.129848 372.439627
4308 3 471.263310 441.516692 438.150235
4309 2 540.240058 163.206623 162.995448
4310 3 484.907968 82.253488 98.241525
4311 3 450.639277 236.572021 113.282179
4312 2 -88.171154 108.878949 399.700572
4313 3 -95.307318 166.047224 393.481640
4314 3 -150.309699 72.301072 420.376097
4315 2 -140.291501 33.178557 338.736153
4316 3 -253.311988 -36.032572 369.074734
4317 3 -187.810162 -13.861218 265.594981
4318 2 -356.992331 236.843068 305.337021
4319 3 -388.617085 238.512803 343.908983
4320 3 -442.218086 319.438121 305.679836
4321 2 -152.683309 164.625456 376.163591
4322 3 -187.893172 109.749402 551.734466
4323 3 -134.428868 73.620606 462.300625
4324 2 233.478312 402.176307 653.400545
4325 3 177.502480 411.918695 646.573333
4326 3 237.965596 447.466797 576.061882
4327 2 77.686539 32.596284 447.123013
4328 3 7.631612 -48.117119 403.170418
4329 3 28.193528 16.612809 382.828058
4330 2 205.780025 14.052528 538.628798
4331 3 171.145807 -135.163006 610.646057
4332 3 133.832169 -25.041714 427.927501
4333 2 77.705625 -160.759768 373.556584
4334 3 50.866479 -155.230395 413.055486
4335 3 61.174699 -227.597207 391.320869
4336 2 477.812983 71.691433 267.047869
4337 3 509.745568 96.601535 204.202887
4338 3 468.778515 36.794833 215.712629
4339 2 253.678312 9.283678 495.336590
4340 3 198.793513 -0.683948 497.683096
4341 3 263.803702 102.293457 644.910464
4342 2 472.540095 334.152036 333.863533
4343 3 555.481412 428.101770 457.661788
4344 3 502.846750 359.435879 310.593917
4345 2 258.175776 49.090889 784.575836
4346 3 268.898466 41.100308 733.987190
4347 3 218.833212 117.518168 692.246440
4348 2 190.287103 55.906300 167.479152
4349 3 369.074948 -10.592825 208.045994
4350 3 273.659368 -49.881409 331.708519
4351 2 -264.811112 259.739990 -111.079997
4352 3 -226.837955 205.200064 -112.616444
4353 3 -289.208606 287.028274 -127.967410
4354 2 -299.045711 -626.734687 659.797905
4355 3 -313.699279 -558.694726 546.149868
4356 3 -237.885116 -634.923775 710.413859
4357 2 -264.757571 537.468039 607.184588
4358 3 -259.304318 510.574519 704.044103
4359 3 -241.588793 534.790078 675.992244
4360 2 17.472776 -95.332450 596.039673
4361 3 12.927451 -148.797219 586.779971
4362 3 23.770367 -223.843239 510.154394
4363 2 -11.966140 -309.257743 632.765171
4364 3 1.726957 -192.452064 644.506519
4365 3 -67.271007 -328.806165 648.692551
4366 2 102.365738 218.530557 376.175917
4367 3 127.982206 179.509964 354.159099
4368 3 160.157893 256.879198 329.222241
4369 2 -163.980560 289.698389 33.846023
4370 3 -185.654090 253.086428 -6.727518
4371 3 -170.946501 329.104913 187.963711
4372 2 283.519373 119.831454 415.774015
4373 3 340.236290 198.343008 374.849016
4374 3 324.849919 190.201342 397.219627
4375 2 230.737006 -142.781280 680.699352
4376 3 257.484287 -33.071169 845.772821
4377 3 273.517456 -40.812852 758.631164
4378 2 124.891729 103.944368 454.906356
4379 3 86.116860 138.605111 547.860305
4380 3 57.559036 100.828760 442.593041
4381 2 -73.065981 327.850530 427.490786
4382 3 -32.596783 272.297831 521.381935
4383 3 -33.532204 290.049578 507.497752
4384 2 138.422281 -41.050088 434.158463
4385 3 181.754847 58.927425 479.540107
4386 3 157.837749 3.171332 493.249073
4387 2 -266.024742 -95.740403 250.426077
4388 3 -320.722606 -87.164533 243.225108
4389 3 -267.715134 -49.568330 246.491875
4390 2 134.165785 185.814085 89.399602
4391 3 95.636507 68.257869 67.693913
4392 3 81.931080 93.505548 116.451087
4393 2 -1.015105 333.495728 528.726902
4394 3 26.723246 120.060734 493.612793
4395 3 3.828837 422.754241 548.621255
4396 2 484.548025 -41.048108 326.454981
4397 3 525.481751 -17.839555 313.308977
4398 3 464.950330 -142.718090 393.507436
4399 2 349.915165 318.468331 231.206670
4400 3 429.110530 220.676247 70.053533
4401 3 378.316281 298.289965 81.974993
4402 2 316.678925 10.833801 573.487940
4403 3 315.844416 23.141046 474.174863
4404 3 358.084359 77.549887 625.371602
4405 2 718.667455 -387.172431 550.425501
4406 3 686.458096 -391.886246 652.185831
4407 3 648.497289 -365.026662 648.508476
4408 2 -6.347583 442.452181 546.776230
4409 3 37.192518 420.993402 494.535712
4410 3 38.301752 398.152523 502.535272
4411 2 -395.322744 -102.195116 462.367088
4412 3 -452.740345 -56.955468 444.161106
4413 3 -416.031673 -69.076787 390.955415
4414 2 -404.516600 488.622331 858.844907
4415 3 -407.188836 465.843820 935.669246
4416 3 -369.834105 421.102235 760.122432
4417 2 -110.642909 248.948491 577.011297
4418 3 -206.538122 306.573472 557.457268
4419 3 -181.989262 220.202192 649.589747
4420 2 538.683641 520.171342 427.867791
4421 3 581.810649 464.853018 430.076093
4422 3 533.935163 431.758461 373.584114
4423 2 560.835497 258.176883 300.322526
4424 3 518.602456 342.457589 322.473505
4425 3 508.542932 283.129774 240.527115
4426 2 -34.716847 181.276352 327.046156
4427 3 -87.036084 151.632134 294.560348
4428 3 -47.922477 105.319413 284.044360
4429 2 -104.042470 299.343744 91.609233
4430 3 -106.597555 335.279191 106.466500
4431 3 -18.087160 275.049001 42.775364
4432 2 -105.627494 370.152709 443.278597
4433 3 -87.162342 497.717260 531.107248
4434 3 -33.803690 446.755024 549.315925
4435 2 127.911361 75.954692 447.789010
4436 3 110.902936 44.439852 459.798166
4437 3 50.254222 101.521467 489.255271
4438 2 513.953959 -291.462528 282.519657
4439 3 500.088534 -129.417793 336.772742
4440 3 516.871958 -260.403977 191.710868
4441 2 836.704381 16.977508 444.627713
4442 3 801.086384 -35.861569 414.668167
4443 3 838.596830 61.333013 507.258691
4444 2 11.876344 531.793071 732.678151
4445 3 -84.052971 622.666765 814.776952
4446 3 -25.336819 626.461693 743.547102
4447 2 6.178221 428.964522 68.890863
4448 3 -62.106452 518.865507 125.133813
4449 3 0.346499 442.485327 126.971116
4450 2 -279.434680 -102.851181 366.959060
4451 3 -250.401852 -112.949760 413.085784
4452 3 -266.501035 -47.130924 339.079318
4453 2 168.810886 -100.811298 269.815628
4454 3 178.881256 -86.334798 287.629032
4455 3 251.262661 -80.398407 347.697933
4456 2 158.419914 -154.048870 190.211204
4457 3 217.747627 -183.927767 280.401067
4458 3 186.456995 -183.145932 298.449694
4459 2 210.246578 346.969582 378.970615
4460 3 211.960473 349.787696 400.893771
4461 3 235.478903 441.680746 470.101202
4462 2 -265.086184 380.698766 210.716143
4463 3 -225.124368 225.502634 184.012274
4464 3 -241.048287 235.338224 127.675243
4465 2 128.557099 343.493974 421.287722
4466 3 182.620552 368.033141 459.440719
4467 3 87.170591 277.631905 443.321294
4468 2 -140.299968 262.238996 218.645309
4469 3 -6.147305 320.341073 228.081834
4470 3 -109.424201 315.908021 293.515906
4471 2 -227.649737 -249.519017 551.249924
4472 3 -177.223603 -150.736130 403.415383
4473 3 -216.493770 -184.030380 521.892753
4474 2 361.550802 249.142437 194.272133
4475 3 381.840602 243.598088 180.513680
4476 3 356.103366 201.856308 197.430644
4477 2 -363.375565 274.303839 514.884493
4478 3 -312.837975 242.117252 532.330856
4479 3 -335.412706 258.896319 516.600134
4480 2 -59.063858 127.645019 748.322998
4481 3 -9.202131 98.027218 764.500657
4482 3 -3.098572 43.320388 778.823844
4483 2 339.917340 478.559619 272.919189
4484 3 285.279352 376.909645 310.534558
4485 3 287.217972 471.469983 373.305419
4486 2 -309.657919 195.332439 -46.679858
4487 3 -247.872736 138.744063 76.098571
4488 3 -298.964587 238.082263 142.727227
4489 2 -76.984436 265.905160 381.182865
4490 3 -142.099339 103.744295 341.874865
4491 3 -97.992754 262.886623 330.477457
4492 2 -89.187620 -307.379741 136.023411
4493 3 -119.323227 -324.676925 58.879580
4494 3 -61.343625 -321.697858 90.600380
4495 2 -441.947821 -83.054131 328.160880
4496 3 -316.678362 -72.344887 297.012729
4497 3 -412.425389 -1.973845 260.639143
4498 2 62.939864 39.896603 349.893762
4499 3 79.067404 70.000333 440.065303
4500 3 102.259224 54.005445 381.470196
4501 2 -73.704287 0.950437 544.900169
4502 3 -69.910465 42.516499 572.838956
4503 3 -96.698172 11.605127 473.788336
4504 2 181.358471 308.313086 442.548683
4505 3 152.410785 349.211880 402.353118
4506 3 229.715549 410.998836 253.894005
4507 2 -91.336839 687.858234 622.485937
4508 3 -137.569965 733.653781 658.504070
4509 3 -71.930664 616.653896 696.394535
4510 2 18.609771 465.286279 457.029300
4511 3 21.034478 382.028137 367.304771
4512 3 88.997964 458.571185 471.782449
4513 2 -71.942694 -228.398518 569.630054
4514 3 -42.197812 -251.982263 547.336055
4515 3 -105.426939 -213.794150 601.304946
4516 2 33.872441 333.811065 872.352454
4517 3 -33.563233 402.183514 863.585376
4518 3 -38.861085 432.112630 864.136492
4519 2 129.639283 -163.241715 317.344738
4520 3 197.263373 -222.042884 329.256525
4521 3 129.084960 -138.161762 232.259987
4522 2 222.889892 605.687837 615.597688
4523 3 280.213453 656.243237 622.378290
4524 3 235.370121 523.781356 622.976273
4525 2 33.915189 648.805118 396.183821
4526 3 47.254205 724.774783 298.736046
4527 3 109.939881 650.352732 382.920981
4528 2 463.586677 -353.230448 298.226151
4529 3 442.073805 -376.830112 139.433197
4530 3 439.535371 -347.099929 94.825673
4531 2 103.021447 163.623357 328.395051
4532 3 96.395081 160.391914 180.601030
4533 3 152.268122 192.840928 243.551833
4534 2 33.791285 293.877196 509.781116
4535 3 -24.128836 234.394327 543.818677
4536 3 -50.589462 321.770154 594.014154
4537 2 -83.340912 79.325816 544.734325
4538 3 -156.937771 24.253943 633.966673
4539 3 -186.261300 55.361930 742.811394
4540 2 -171.992929 83.175582 349.451548
4541 3 -194.376523 61.822093 226.410680
4542 3 -191.240985 74.933591 182.411827
4543 2 425.228361 34.995715 510.219270
4544 3 395.802459 191.758611 440.829684
4545 3 417.083595 73.383830 548.877254
4546 2 546.490871 -288.126678 703.587681
4547 3 572.019369 -325.187302 650.623044
4548 3 641.720539 -369.372046 656.513572
4549 2 -71.206852 391.151042 541.339873
4550 3 -38.193026 397.363239 623.263973
4551 3 -42.422197 436.070974 599.371501
4552 2 58.435119 372.500616 991.559884
4553 3 104.833154 424.561969 1013.002336
4554 3 56.098773 326.534508 994.874330
4555 2 -171.463651 606.371969 578.598367
4556 3 -147.097548 663.678496 511.601600
4557 3 -104.282576 541.196312 586.418318
4558 2 157.166991 199.874779 20.030040
4559 3 135.093621 177.430778 7.923920
4560 3 86.296117 191.115834 -122.521689
4561 2 -233.156876 323.491157 618.905897
4562 3 -219.293497 366.542665 634.412393
4563 3 -262.022773 407.825793 659.043746
4564 2 -130.436032 297.184432 593.095110
4565 3 -96.224468 272.731625 527.780550
4566 3 -169.380125 276.341913 477.132932
4567 2 -498.688476 288.445769 349.457748
4568 3 -490.455241 269.522001 358.828972
4569 3 -562.622373 374.535010 353.392541
4570 2 50.032487 276.169435 700.791950
4571 3 130.728122 293.294598 740.631877
4572 3 -15.452485 216.217149 642.769547
4573 2 -3.496830 333.524738 150.071649
4574 3 -30.971357 368.681817 207.602617
4575 3 33.783719 303.617790 248.649232
4576 2 -103.855029 -6.171332 322.626839
4577 3 -132.586040 -118.766143 270.177134
4578 3 -37.353543 -75.439970 274.339437
4579 2 -103.084610 598.234210 481.875210
4580 3 -91.580334 542.317294 414.854787
4581 3 -77.816980 552.992221 472.852723
4582 2 -333.489986 567.950074 410.090737
4583 3 -350.674199 495.667540 374.767460
4584 3 -332.184089 622.767965 455.757681
4585 2 102.238437 87.847007 258.670215
4586 3 184.744024 67.883053 473.911815
4587 3 226.414879 9.811820 286.750527
4588 2 33.352758 -292.416931 166.955215
4589 3 -90.885468 -249.179232 257.483086
4590 3 -13.375096 -336.413294 218.292955
4591 2 60.694260 469.471258 434.467604
4592 3 34.924158 413.891572 362.068283
4593 3 60.041216 411.570456 288.685171
4594 2 197.330939 534.021228 372.333788
4595 3 180.870113 471.446477 398.136124
4596 3 95.625093 472.465407 373.424839
4597 2 -66.563915 400.394578 817.829974
4598 3 -74.390797 443.960325 858.292979
4599 3 -83.387383 358.571971 939.054990
4600 2 -338.217487 521.406659 94.275871
4601 3 -357.054968 504.411433 126.929535
4602 3 -360.317750 488.274001 135.985788
4603 2 -371.992186 224.356139 466.259738
4604 3 -337.186637 200.508296 477.734680
4605 3 -378.635037 268.109553 554.384761
4606 2 48.210124 350.144966 598.403634
4607 3 45.162267 273.992729 578.964154
4608 3 -0.854526 272.954003 659.864700
4609 2 -93.918904 287.254362 237.989856
4610 3 -78.308986 375.854985 285.151593
4611 3 -61.405330 349.260077 253.307056
4612 2 -55.986501 250.093921 130.704084
4613 3 -130.360429 217.817233 140.297365
4614 3 -91.563215 261.142646 131.519715
4615 2 202.898804 177.509688 294.876905
4616 3 141.358102 286.838585 283.581259
4617 3 79.618497 247.780696 281.160448
4618 2 105.872798 802.263051 494.515673
4619 3 5.640876 695.732898 445.312419
4620 3 130.694240 683.688550 578.760816
4621 2 -87.481761 375.735327 598.703770
4622 3 -39.732311 364.657760 606.316693
4623 3 -108.116418 346.828699 538.195219
4624 2 575.978250 794.489162 346.063849
4625 3 553.846262 870.353065 339.922488
4626 3 603.958512 858.971929 333.841243
4627 2 -92.125278 704.551382 280.117797
4628 3 -113.051005 630.321331 309.647694
4629 3 -61.857589 755.954512 428.216566
4630 2 351.463620 -64.047499 52.975444
4631 3 366.428003 -85.229872 -13.777463
4632 3 344.527185 -93.276002 4.186367
4633 2 -206.671899 16.715467 469.425500
4634 3 -249.543506 5.027828 593.060532
4635 3 -240.382533 53.976956 506.795332
4636 2 65.271806 -289.666051 220.710998
4637 3 16.484818 -218.851992 225.435304
4638 3 34.004345 -145.614887 333.602699
4639 2 -204.076103 39.720657 376.803570
4640 3 -200.358302 29.142111 444.548924
4641 3 -163.093089 75.247008 324.873041
4642 2 89.164988 -141.775060 303.380733
4643 3 22.563538 -81.183769 334.223673
4644 3 63.329828 -17.578988 196.342140
4645 2 456.682436 163.657506 325.190798
4646 3 438.918572 69.057508 332.333479
4647 3 400.546574 71.518576 345.327514
4648 2 -16.914356 13.952823 539.573563
4649 3 -5.005816 18.401623 675.257201
4650 3 19.795187 105.430929 616.039533
4651 2 -399.607600 70.031901 317.646682
4652 3 -437.369282 151.176157 369.121786
4653 3 -430.748715 70.700969 466.421781
4654 2 78.452626 -480.316125 200.370871
4655 3 203.598391 -473.111180 174.628189
4656 3 164.723885 -419.111219 300.218956
4657 2 303.050931 290.954446 380.570305
4658 3 269.364184 295.451873 360.634399
4659 3 233.109323 220.471703 432.294544
4660 2 -27.941933 299.963683 362.978912
4661 3 -23.665522 232.161532 352.503094
4662 3 -19.572566 193.465109 507.493951
4663 2 341.586311 -490.123405 196.106401
4664 3 361.026589 -501.844631 99.714037
4665 3 330.441461 -486.387804 56.483345
4666 2 36.396258 2.140202 249.022621
4667 3 13.356629 -5.626245 214.139380
4668 3 84.333938 29.631588 248.363821
4669 2 -67.516696 -39.702263 362.930938
4670 3 -30.761525 46.041099 358.391297
4671 3 4.405861 29.974539 363.767244
4672 2 -33.500547 142.895661 420.083194
4673 3 -85.216291 79.704053 432.208928
4674 3 7.769637 138.479204 516.875471
4675 2 -267.840160 315.377239 439.579801
4676 3 -217.497454 306.056131 483.651963
4677 3 -238.580500 339.997232 456.838436
4678 2 75.261225 -159.522641 294.380849
4679 3 25.644061 -153.748875 321.745179
4680 3 55.755633 -139.014525 296.505141
4681 2 62.209717 -127.714792 152.116543
4682 3 117.828333 -50.142931 74.946358
4683 3 101.300384 -76.612699 107.871885
4684 2 -191.210000 272.603544 860.091801
4685 3 -156.726839 144.627505 903.064535
4686 3 -171.957371 138.835068 676.261122
4687 2 -33.431958 108.820656 849.415338
4688 3 -54.055819 58.821858 862.784128
4689 3 -14.076063 50.187545 874.583562
4690 2 263.939968 -0.073538 713.962864
4691 3 270.044457 83.244758 577.393285
4692 3 284.514874 -39.172253 615.616730
4693 2 101.020419 -191.637889 256.856872
4694 3 76.430276 -171.107165 242.695230
4695 3 185.224125 -238.505916 220.631970
4696 2 507.658234 -115.065694 235.315795
4697 3 514.683558 -176.442971 227.192369
4698 3 567.873097 -139.346753 275.177920
4699 2 59.095881 125.750786 107.387490
4700 3 -10.097977 157.995142 167.269264
4701 3 -39.880435 161.071865 186.970362
4702 2 420.585608 184.844949 173.560222
4703 3 328.477081 238.601489 305.703454
4704 3 400.885441 262.462667 292.781159
4705 2 200.846658 -523.246242 4.529356
4706 3 137.891992 -406.355707 80.326636
4707 3 151.894966 -486.181512 3.502531
4708 2 396.992475 -266.113854 428.264356
4709 3 450.581349 -153.249216 501.037250
4710 3 493.053005 -155.813327 437.613770
4711 2 -409.810884 180.655302 693.277449
4712 3 -404.192499 105.328604 756.571509
4713 3 -336.212755 162.576436 707.687728
4714 2 216.664642 -150.928647 587.932355
4715 3 261.646903 -127.206026 589.049681
4716 3 209.596267 -140.886765 549.356187
4717 2 25.708392 120.788404 633.301747
4718 3 4.955474 108.509287 694.293622
4719 3 44.177147 65.047663 667.798424
4720 2 -98.546239 30.437102 767.664242
4721 3 -56.251929 -94.134443 674.567106
4722 3 -51.895415 -62.897424 657.664812
4723 2 -352.399495 186.572673 454.702649
4724 3 -348.647430 287.950779 450.034953
4725 3 -422.163573 243.910308 456.699863
4726 2 -69.638985 228.539401 515.864317
4727 3 -81.873796 168.722479 463.174019
4728 3 -115.310029 212.390824 502.859764
4729 2 -466.078748 334.370370 595.884789
4730 3 -434.761728 315.877430 571.785400
4731 3 -480.339366 307.307505 623.355752
4732 2 -255.828656 64.723451 198.844876
4733 3 -254.957171 124.055075 209.236831
4734 3 -179.422468 75.926727 252.761014
4735 2 -65.885983 -130.560684 528.900348
4736 3 -46.022959 -133.835748 439.128103
4737 3 14.554570 -172.404409 422.998382
4738 2 90.328320 77.058762 557.140083
4739 3 -15.003949 28.505142 404.502153
4740 3 -33.542601 47.387908 496.492295
4741 2 183.023966 -123.645609 914.964937
4742 3 130.559341 -141.996358 892.490074
4743 3 196.401760 -247.286116 788.574325
4744 2 527.474922 111.796461 322.862800
4745 3 425.722204 68.626003 283.829084
4746 3 399.978065 191.265353 388.440334
4747 2 253.104898 149.144105 117.625982
4748 3 247.340632 134.639621 251.240666
4749 3 298.519302 32.452226 162.009738
4750 2 -329.756384 270.209629 363.462015
4751 3 -331.519987 134.630749 395.966165
4752 3 -371.920208 261.096942 362.478206
4753 2 -139.022678 -0.743744 569.980637
4754 3 -82.134435 128.349966 581.884286
4755 3 -67.134796 49.904027 524.367313
4756 2 57.065960 269.612284 524.147812
4757 3 116.491346 224.302757 543.674089
4758 3 -44.155203 258.351444 528.803181
4759 2 82.345790 289.364169 192.640392
4760 3 57.514355 266.337889 177.734204
4761 3 137.483365 218.758713 268.084118
4762 2 -179.227743 -339.455245 599.563583
4763 3 -147.771573 -388.166791 533.738205
4764 3 -182.748737 -301.886190 525.849872
4765 2 127.197934 114.408534 668.152845
4766 3 111.068363 41.390301 520.313618
4767 3 87.963824 48.699150 577.203306
4768 2 191.028731 25.894653 -12.468567
4769 3 175.026719 70.856889 -26.663512
4770 3 170.414373 4.449568 -39.563702
4771 2 112.301043 398.879866 518.912652
4772 3 103.250133 381.272910 617.376840
4773 3 142.121447 365.027132 484.652711
4774 2 365.963371 2.000163 243.453614
4775 3 279.215043 -66.188893 292.006445
4776 3 258.542671 -53.727766 163.867504
4777 2 9.627789 -328.413013 240.868565
4778 3 62.100763 -370.639384 227.826038
4779 3 13.825291 -339.081950 90.991142
4780 2 255.220506 -94.848566 127.478123
4781 3 190.821730 -105.846995 157.182491
4782 3 242.021155 -70.975004 233.438905
4783 2 398.563929 -365.543851 -35.992057
4784 3 356.167087 -389.683783 84.824225
4785 3 430.062572 -342.794228 -19.925390
4786 2 254.122214 231.069424 136.415344
4787 3 350.775311 301.092297 125.363703
4788 3 305.025491 258.062517 143.790313
4789 2 -312.069651 351.206651 462.461340
4790 3 -281.395313 311.804445 410.507635
4791 3 -262.537298 306.177066 384.127650
4792 2 -156.267395 313.374987 377.825574
4793 3 -179.693202 267.941698 308.343822
4794 3 -126.590937 266.745136 285.045219
4795 2 -428.362965 13.247989 486.293032
4796 3 -503.023274 -58.825687 510.007518
4797 3 -463.553674 67.981288 438.079971
4798 2 -127.615500 457.841319 219.000929
4799 3 -92.508762 335.795528 225.151202
4800 3 -33.948282 471.865203 111.975945
4801 2 257.064863 77.872252 425.390684
4802 3 239.867610 56.977586 289.733967
4803 3 247.608432 2.788463 330.267255
4804 2 28.395670 60.978290 446.508386
4805 3 14.889872 84.586046 523.461666
4806 3 45.148750 75.937606 442.726078
4807 2 258.973508 219.339364 676.146131
4808 3 296.385181 239.384677 573.057831
4809 3 287.461664 252.808661 680.446121
4810 2 599.119370 -190.502981 439.773655
4811 3 622.778541 -209.834589 401.297568
4812 3 649.992426 -167.600342 483.826295
4813 2 277.237106 270.142244 98.058751
4814 3 332.865567 300.613393 73.757721
4815 3 253.805162 282.445186 126.946464
4816 2 -240.144214 257.365385 702.303441
4817 3 -154.849229 316.123131 608.912038
4818 3 -202.757537 200.611792 631.986914
4819 2 -72.026141 644.356649 408.654824
4820 3 -112.167417 578.749252 417.331562
4821 3 -52.558186 721.924405 546.935727
4822 2 -334.674061 -158.631867 599.096164
4823 3 -362.565755 -198.386463 716.126882
4824 3 -351.789451 -185.116361 664.468183
4825 2 122.214280 287.897685 960.943088
4826 3 88.094316 342.928527 907.315960
4827 3 72.586493 320.675446 895.906521
4828 2 506.936228 -90.522605 410.875267
4829 3 473.482425 -77.362263 368.280535
4830 3 542.271930 -127.944422 414.798657
4831 2 158.205099 174.423507 728.835838
4832 3 63.941364 300.434560 795.995755
4833 3 111.741525 129.600776 698.466811
4834 2 -135.281767 -161.513216 -101.153099
4835 3 -108.499816 -220.052735 -57.581302
4836 3 -99.017995 -108.118401 -10.794024
4837 2 554.202951 -36.082495 561.600492
4838 3 544.131545 -80.290798 430.286332
4839 3 588.886555 -77.211801 518.308727
4840 2 46.373458 410.905725 0.036858
4841 3 61.766456 386.557280 5.904235
4842 3 -20.455174 392.858878 26.463743
4843 2 -315.748061 154.379867 431.783874
4844 3 -220.107473 39.659090 321.975899
4845 3 -246.882559 170.487240 411.474948
4846 2 -16.182080 482.675145 528.198334
4847 3 -68.920116 476.520299 541.843309
4848 3 -74.457217 516.983520 485.821184
4849 2 11.304992 24.161873 431.221945
4850 3 71.559514 55.885972 422.402908
4851 3 53.154146 -44.544842 431.037465
4852 2 -120.470894 405.421266 137.359048
4853 3 -117.498923 456.745546 268.241142
4854 3 -150.646619 404.222925 216.219424
4855 2 -79.893764 361.261974 656.128373
4856 3 -52.244462 365.523735 457.567389
4857 3 -94.947017 343.040187 408.409490
4858 2 668.998515 -252.363799 582.393296
4859 3 673.456317 -320.169736 551.806317
4860 3 681.379995 -273.654784 574.376502
4861 2 433.856148 476.816448 542.305710
4862 3 465.530054 455.589321 665.926165
4863 3 435.277236 486.382922 583.861167
4864 2 -410.999717 77.455761 364.868701
4865 3 -421.711339 69.494897 296.704272
4866 3 -370.798473 186.136249 410.909514
4867 2 -405.111165 400.477532 632.343918
4868 3 -408.875851 498.769153 634.050518
4869 3 -457.670446 380.701077 671.225130
4870 2 -392.431244 150.086238 180.300212
4871 3 -352.815764 261.183165 67.527363
4872 3 -347.274928 257.060554 167.363893
4873 2 -198.560633 471.761267 488.898636
4874 3 -249.846704 485.413376 399.595249
4875 3 -241.704107 440.319659 524.409642
4876 2 521.455033 110.884736 524.077105
4877 3 448.201909 118.874694 458.015213
4878 3 490.829995 100.292740 576.740942
4879 2 8.103878 454.564400 598.385478
4880 3 -47.523617 431.604685 579.597638
4881 3 26.693343 377.420448 552.868952
4882 2 93.682098 521.035584 637.364152
4883 3 50.672340 448.739001 751.215859
4884 3 78.087377 352.245165 775.106633
4885 2 206.584215 228.080611 391.637833
4886 3 202.857700 311.778720 371.759165
4887 3 247.401765 298.752936 386.134459
4888 2 -252.622668 -1.807582 546.220464
4889 3 -255.383867 39.560157 428.074598
4890 3 -314.025871 65.613718 466.387571
4891 2 -186.661189 428.108369 520.215011
4892 3 -167.638942 350.142716 500.854394
4893 3 -216.858988 409.964276 590.947699
4894 2 -153.852360 91.144946 44.903277
4895 3 -62.007931 159.965009 -20.731684
4896 3 -106.123494 70.773228 42.103604
4897 2 -110.214451 319.583748 -95.893020
4898 3 -82.795395 326.599095 -11.472962
4899 3 -102.438404 397.746478 -30.641472
4900 2 -17.973198 264.342874 331.302212
4901 3 15.699509 239.180195 383.530441
4902 3 45.609928 208.514872 325.618362
4903 2 102.473287 646.932924 255.816674
4904 3 245.855035 635.437025 280.085672
4905 3 197.711490 615.814620 225.440618
4906 2 66.435983 18.749523 606.075898
4907 3 17.437760 -76.402614 602.943828
4908 3 70.565511 -32.522789 641.507302
4909 2 474.607562 178.956072 457.566725
4910 3 536.809679 138.472256 399.282234
4911 3 509.235752 197.407246 492.089013
4912 2 -271.802393 324.275698 580.597869
4913 3 -181.609463 348.250786 631.835352
4914 3 -174.297297 385.033811 505.896991
4915 2 -21.322688 137.183031 210.452726
4916 3 -41.071874 244.254396 207.229210
4917 3 -1.425870 140.528209 314.097641
4918 2 -37.044022 -56.420650 284.645720
4919 3 -72.242188 -19.757754 269.824337
4920 3 -21.466522 -7.877148 181.753765
4921 2 203.018703 267.867835 474.911492
4922 3 211.666149 342.111449 458.356016
4923 3 160.112228 277.299570 433.270603
4924 2 -248.037917 -93.003678 600.509492
4925 3 -267.364213 0.685705 488.976060
4926 3 -266.151716 7.284767 435.409047
4927 2 310.036815 416.989232 605.254316
4928 3 285.090728 341.467760 656.576308
4929 3 292.903283 348.257476 585.940012
4930 2 280.292457 518.632699 401.033266
4931 3 261.998095 550.739676 393.283616
4932 3 285.936306 519.487484 415.064842
4933 2 488.895246 271.095477 306.497505
4934 3 385.632404 295.578342 265.459969
4935 3 423.544230 285.212183 348.715915
4936 2 37.120171 46.377036 262.669183
4937 3 -16.714168 50.973671 287.127754
4938 3 -27.918268 -2.630357 259.395165
4939 2 -79.814482 151.159828 329.791865
4940 3 -120.981856 218.145585 264.967179
4941 3 -174.935011 70.436137 310.475125
4942 2 115.680772 777.590695 198.363231
4943 3 87.692831 914.429068 158.825478
4944 3 162.808424 897.074412 273.763577
4945 2 -95.138464 124.409654 867.476623
4946 3 -45.858172 40.129858 845.493609
4947 3 14.800099 111.522746 819.047862
4948 2 233.118887 -79.964111 212.578198
4949 3 210.542368 9.894917 288.422290
4950 3 144.183638 -1.405403 256.642389
4951 2 142.880958 405.558834 413.768092
4952 3 172.572490 470.570345 302.656871
4953 3 93.403477 444.522549 400.527098
4954 2 26.871005 575.521686 678.744798
4955 3 117.084278 497.001199 786.955739
4956 3 119.751380 534.538356 768.690822
4957 2 -175.813189 370.136350 502.425668
4958 3 -236.891119 374.725246 661.869221
4959 3 -241.887678 318.483505 589.482005
4960 2 203.406303 126.951802 581.492003
4961 3 196.337275 44.710185 552.656905
4962 3 273.155739 30.287751 607.497640
4963 2 -347.659842 334.976930 420.780595
4964 3 -385.536222 395.771168 345.895311
4965 3 -479.243711 387.259779 364.465051
4966 2 -273.086918 341.407885 -77.441980
4967 3 -282.398899 217.155162 -128.710148
4968 3 -175.841759 348.560832 51.287460
4969 2 -109.149054 182.058065 539.792327
4970 3 -145.022502 111.293572 503.125136
4971 3 -109.946305 86.461342 357.604590
4972 2 -124.266849 213.917456 473.197032
4973 3 -100.960288 201.770449 378.560839
4974 3 -68.670926 268.035782 475.434783
4975 2 -45.183408 -198.289368 327.585426
4976 3 -120.795870 -191.436569 288.144407
4977 3 -64.268692 -230.018109 238.564461
4978 2 158.099966 -208.281654 487.500882
4979 3 154.318419 -169.932010 468.017670
4980 3 154.704590 -230.510545 494.955488
4981 2 -8.334177 351.775200 502.334997
4982 3 -22.368241 400.173811 480.256993
4983 3 -42.726825 392.679711 622.067157
4984 2 188.445051 18.717594 822.602328
4985 3 179.748329 -80.465222 838.121482
4986 3 173.464953 -35.236761 788.863574
4987 2 -2.467024 210.558617 475.504457
4988 3 34.784958 155.828105 306.638661
4989 3 71.092256 234.385159 485.235231
4990 2 -179.689430 258.346669 162.778345
4991 3 -103.105021 274.781999 199.453617
4992 3 -84.099708 284.143231 183.497231
4993 2 58.312459 474.573573 119.642304
4994 3 66.966767 418.816514 111.961442
4995 3 -22.168078 417.770246 139.799732
4996 2 237.508457 418.640874 182.303054
4997 3 216.289872 357.537289 307.021460
4998 3 191.619055 393.014084 267.940342
4999 2 -212.184806 212.459365 611.408482
5000 3 -137.580096 230.946908 557.604697
5001 3 -148.605639 117.977291 535.084443
5002 2 161.914298 457.528901 405.321188
5003 3 200.995274 503.252653 302.237372
5004 3 223.661569 333.732124 324.177393
5005 2 272.333209 260.372275 473.536359
5006 3 221.341992 207.647893 446.572229
5007 3 176.219188 245.866613 395.110337
5008 2 346.973526 161.193378 11.271508
5009 3 334.852674 276.918763 20.276735
5010 3 326.990769 239.108871 47.618565
5011 2 -177.907919 511.582716 366.467838
5012 3 -178.742515 393.827574 306.470880
5013 3 -137.007495 473.981852 416.578068
5014 2 -44.156152 119.985329 419.986618
5015 3 -167.403630 124.842839 458.774907
5016 3 -128.118069 188.764401 442.138649
5017 2 353.797630 289.792534 453.585028
5018 3 307.277366 331.223874 358.281436
5019 3 309.461971 240.555042 334.248546
5020 2 595.871058 -126.404639 -87.351349
5021 3 572.263801 -30.978831 -98.980907
5022 3 491.819407 -28.246546 -57.711091
5023 2 175.320033 542.685237 393.036252
5024 3 175.979008 501.734293 488.215480
5025 3 169.300526 567.119312 460.907926
5026 2 267.685353 619.410920 425.658899
5027 3 199.063877 639.580619 512.925400
5028 3 223.397774 663.030672 486.992500
5029 2 -324.389357 362.668097 210.155173
5030 3 -397.118614 441.828593 237.102586
5031 3 -376.576074 474.831407 272.594365
5032 2 -147.665564 459.089104 441.308026
5033 3 -163.591640 472.090926 409.079435
5034 3 -190.553144 425.061430 525.543943
5035 2 -74.087537 668.737327 122.841565
5036 3 -17.340608 616.673844 -12.236386
5037 3 -36.473208 633.936667 14.660125
5038 2 -134.475198 240.835379 161.280969
5039 3 -13.820376 227.748732 127.651265
5040 3 -114.195394 254.037046 143.818923
5041 2 -349.373035 367.689068 679.713587
5042 3 -259.730767 516.776134 625.887513
5043 3 -254.077625 462.093805 627.667107
5044 2 79.495018 3.986081 632.755244
5045 3 67.154969 172.905831 627.171789
5046 3 103.935823 28.525908 750.348702
5047 2 3.073037 321.701370 455.814439
5048 3 -30.502327 358.296287 431.561642
5049 3 -76.797180 199.031230 482.525743
5050 2 -114.972937 259.010443 -34.378754
5051 3 -113.967847 187.119981 -7.331134
5052 3 -74.804601 221.219009 55.764498
5053 2 -543.587443 559.865713 262.558971
5054 3 -463.173666 570.241177 317.041909
5055 3 -430.843520 678.527183 197.707088
5056 2 232.820767 117.041361 495.417704
5057 3 241.535003 64.805356 514.453055
5058 3 244.509451 68.108548 498.374150
5059 2 622.305798 -278.657632 267.191996
5060 3 618.656968 -275.477899 275.560535
5061 3 605.888529 -216.305456 261.965453
5062 2 200.279849 98.670534 340.901499
5063 3 245.993988 141.466922 272.205975
5064 3 129.643276 74.234335 333.079740
5065 2 396.188951 442.874039 463.031793
5066 3 369.643925 399.464927 453.649830
5067 3 352.732246 510.923549 460.470510
5068 2 -132.956139 48.317181 530.695516
5069 3 -60.637801 62.197000 514.445933
5070 3 -91.944690 170.107087 495.453168
5071 2 -142.888603 -91.214286 297.306684
5072 3 -153.327026 -29.958392 388.558093
5073 3 -120.629456 -33.661164 428.504523
5074 2 -181.954222 -276.372215 469.969088
5075 3 -179.688826 -283.924426 409.549622
5076 3 -236.013250 -250.122749 467.837803
5077 2 273.186379 -467.116282 672.929332
5078 3 216.097625 -495.902432 653.517898
5079 3 289.050398 -491.041075 623.911887
5080 2 83.923135 -145.147218 -15.257897
5081 3 124.828957 -93.852981 162.613903
5082 3 123.004074 -98.188757 53.960007
5083 2 -9.435631 -145.266435 723.849666
5084 3 18.309621 -14.755644 850.911699
5085 3 -18.330803 3.012845 794.114122
5086 2 37.609482 -25.326502 349.925351
5087 3 58.795521 -86.840560 377.530642
5088 3 79.071009 -22.281111 265.748038
5089 2 186.490409 -422.995062 369.686556
5090 3 46.473793 -443.206664 287.015272
5091 3 125.856861 -421.665904 338.537280
5092 2 -73.197731 -36.325023 546.110307
5093 3 -35.900275 41.696922 578.275314
5094 3 -50.860640 18.406535 629.147563
5095 2 394.732071 295.945313 438.442326
5096 3 317.247607 361.432840 382.765285
5097 3 424.920898 335.636765 402.180520
5098 2 -45.891043 -424.657134 368.704039
5099 3 -75.838950 -472.248610 354.762139
5100 3 -103.117814 -397.892911 426.441805
5101 2 467.837713 212.016753 512.630172
5102 3 488.170232 241.794541 424.647855
5103 3 533.738158 163.333791 482.225423
5104 2 224.779729 -77.816559 394.375700
5105 3 347.676527 -159.821739 401.637597
5106 3 278.303920 -47.084452 425.633583
5107 2 -478.478518 125.853050 1009.024440
5108 3 -506.787960 157.098651 947.290363
5109 3 -539.274733 208.271892 1071.953672
5110 2 -91.502649 -31.312201 678.873148
5111 3 -147.830425 -41.622955 639.684641
5112 3 -102.449903 48.131818 682.518692
5113 2 -33.937196 -251.319296 485.164340
5114 3 -34.990200 -281.563262 368.746626
5115 3 -94.653038 -239.522018 444.389427
5116 2 347.418956 236.264195 134.830526
5117 3 367.627584 268.186031 161.374381
5118 3 343.475778 359.816898 58.293145
5119 2 423.886499 -137.179246 226.801598
5120 3 468.564255 -54.062838 144.127159
5121 3 469.303023 -96.706324 213.578854
5122 2 87.589473 74.583326 440.463380
5123 3 57.845645 133.726033 405.916367
5124 3 54.713189 43.132839 355.122980
5125 2 360.102698 362.483243 557.190530
5126 3 281.133795 339.488588 420.882523
5127 3 265.995948 304.880323 362.734205
5128 2 -80.970050 298.144673 713.017324
5129 3 -116.647688 311.684301 680.865491
5130 3 -60.114359 308.285535 809.070277
5131 2 463.313750 353.864542 514.857000
5132 3 459.478564 243.473094 425.631627
5133 3 358.677173 307.707560 394.099699
5134 2 -144.620259 101.657986 200.447833
5135 3 -276.730325 34.421230 49.110436
5136 3 -172.615163 12.214975 45.261062
5137 2 454.471061 -393.475428 920.657736
5138 3 480.321886 -286.076927 894.129473
5139 3 441.878723 -297.872259 886.584785
5140 2 122.837290 -98.805283 512.663422
5141 3 150.424886 -104.740883 556.005044
5142 3 188.172998 -66.397618 584.810877
5143 2 56.130104 -367.756408 440.274988
5144 3 45.540088 -421.414516 378.531242
5145 3 27.260465 -419.642730 557.286959
5146 2 -97.540299 -137.175871 163.250432
5147 3 -26.398176 -188.153630 164.356641
5148 3 -102.575669 -214.527194 193.244003
5149 2 -63.328531 112.488545 662.228808
5150 3 -151.481264 164.350867 544.613467
5151 3 -133.432530 159.691347 558.398048
5152 2 -785.672309 -17.791898 473.078609
5153 3 -654.874586 97.087715 410.426964
5154 3 -726.112601 79.108687 512.307046
5155 2 211.284871 94.406105 276.560009
5156 3 161.017337 80.998724 344.391606
5157 3 211.148703 118.341654 270.536112
5158 2 -34.375065 -116.189200 622.642888
5159 3 -38.860025 -41.775120 645.800132
5160 3 -25.448738 5.883978 644.817246
5161 2 -316.245824 422.447388 612.210210
5162 3 -356.800897 478.594315 745.079111
5163 3 -423.143963 388.407733 722.194546
5164 2 -492.923077 58.341836 275.489053
5165 3 -494.775692 -30.694485 356.059332
5166 3 -543.183081 -30.649704 310.871320
5167 2 248.738425 247.980161 453.020663
5168 3 245.376820 252.460939 497.316977
5169 3 204.242650 263.729366 289.799729
5170 2 -133.973677 -24.255915 490.395846
5171 3 -248.445534 -7.648131 464.060366
5172 3 -131.210075 -9.511557 530.265665
5173 2 256.300853 -45.370884 414.713189
5174 3 313.517850 -0.646477 334.851475
5175 3 274.998000 -62.831841 468.615949
5176 2 78.143660 468.096061 417.343482
5177 3 54.386147 436.581321 499.504096
5178 3 63.958567 380.191155 532.328014
5179 2 170.272523 -423.316967 475.700377
5180 3 240.977882 -494.533803 494.714066
5181 3 260.065046 -489.436658 516.023813
5182 2 568.960666 -381.650387 548.926852
5183 3 567.467699 -314.302464 508.961527
5184 3 578.583437 -304.238901 615.533808
5185 2 -159.791051 7.421193 660.963684
5186 3 -141.829221 59.794123 625.519622
5187 3 -177.785715 -36.716902 695.092803
5188 2 -259.989595 602.973203 859.754134
5189 3 -303.123283 541.487261 806.952536
5190 3 -331.058337 619.457080 709.600433
5191 2 -400.633445 278.589410 566.164304
5192 3 -387.337170 297.207633 415.700651
5193 3 -411.091860 247.948140 440.684616
5194 2 -65.759534 656.134313 435.018387
5195 3 -35.668649 657.875204 407.640828
5196 3 10.977196 652.462174 579.828543
5197 2 67.523910 246.182376 363.283735
5198 3 59.632715 317.809529 418.393570
5199 3 33.628289 324.411229 308.812569
5200 2 -197.922807 445.731016 403.291720
5201 3 -292.280472 375.587633 488.119346
5202 3 -215.349825 468.179411 458.384948
5203 2 240.922025 -133.871539 413.415405
5204 3 156.942600 -135.317998 575.160036
5205 3 190.015815 -182.527878 364.238685
5206 2 340.048159 -55.902982 386.171473
5207 3 324.445088 -62.350595 295.431084
5208 3 267.867469 -78.817047 264.535335
5209 2 -96.111964 -42.671922 47.062882
5210 3 -185.136817 1.314938 -4.478592
5211 3 -162.897760 -105.543913 2.083506
5212 2 73.678586 240.289089 419.374611
5213 3 41.363473 255.926056 411.729877
5214 3 111.946165 247.125452 482.501313
5215 2 126.353711 -145.060265 636.266385
5216 3 138.343030 -207.758748 744.615309
5217 3 123.843243 -121.183685 552.499917
5218 2 66.793069 -343.837850 178.701813
5219 3 141.937888 -366.724646 154.082066
5220 3 67.291263 -269.648364 197.218283
5221 2 344.017566 -266.026734 484.330433
5222 3 369.786355 -254.839695 555.597703
5223 3 363.053087 -357.673779 641.760607
5224 2 -246.479922 14.676891 485.339853
5225 3 -323.312141 -62.686655 571.455409
5226 3 -244.293296 -71.643407 388.397674
5227 2 26.021314 464.048316 521.518072
5228 3 20.910637 386.332652 520.316275
5229 3 -27.833872 512.544721 553.432504
5230 2 270.756751 344.784058 672.139967
5231 3 176.109322 371.079897 676.693114
5232 3 210.073681 271.486668 612.926506
5233 2 227.456797 62.169887 296.118577
5234 3 211.515881 95.813976 229.923759
5235 3 175.792480 148.451291 259.498421
5236 2 133.802132 116.292413 168.780534
5237 3 180.388866 30.561106 188.573891
5238 3 157.091832 158.982097 182.857252
5239 2 156.564218 305.806203 510.415744
5240 3 94.825877 344.596345 463.440351
5241 3 168.546166 384.620650 407.906607
5242 2 -209.177820 425.782934 417.695984
5243 3 -214.370397 377.584290 361.699580
5244 3 -194.062478 446.174129 341.127349
5245 2 387.925174 13.443289 254.031618
5246 3 299.150792 8.532572 352.684290
5247 3 403.983535 -31.884121 265.853895
5248 2 534.056492 311.805510 100.199677
5249 3 537.853470 216.131975 64.684386
5250 3 534.254285 284.329574 58.976203
5251 2 -300.808377 239.689386 325.683312
5252 3 -302.493469 292.174590 321.841958
5253 3 -330.782155 234.626101 304.723557
5254 2 -53.050168 23.002950 375.728204
5255 3 -57.563372 65.299887 395.330798
5256 3 -70.711832 71.239942 429.986787
5257 2 416.341745 246.004622 124.351986
5258 3 500.143011 388.212115 149.460556
5259 3 534.273020 350.276088 136.005753
5260 2 598.785113 131.019427 216.687988
5261 3 660.706217 119.068700 301.890940
5262 3 567.283758 171.060654 271.979314
5263 2 45.685789 115.863288 398.088703
5264 3 41.978657 -6.551868 310.851817
5265 3 85.524496 -12.645544 389.420490
5266 2 -24.470628 31.748456 497.556591
5267 3 12.510691 -37.080360 422.067787
5268 3 8.160502 -13.310013 517.846770
5269 2 -121.566795 280.839127 880.761716
5270 3 -167.450737 211.928355 935.616622
5271 3 -190.786755 185.459993 863.849014
5272 2 367.187453 -42.089887 169.776235
5273 3 325.755175 -60.433045 183.579212
5274 3 361.880253 -61.329452 168.445579
5275 2 56.801192 580.277769 704.654855
5276 3 128.959527 436.400390 725.495855
5277 3 76.926147 503.998332 746.291537
5278 2 -262.252883 267.542038 326.801763
5279 3 -210.431088 325.262608 340.796066
5280 3 -281.414244 370.635202 374.026217
5281 2 350.009822 113.544368 280.116154
5282 3 383.545956 1.618247 152.631567
5283 3 381.650475 29.220007 259.691407
5284 2 160.228097 397.468817 506.409838
5285 3 159.463471 403.355338 506.401978
5286 3 82.130088 330.116211 481.626222
5287 2 333.878545 186.268420 458.658440
5288 3 294.557216 139.496697 376.216252
5289 3 313.369653 198.045917 369.876240
5290 2 221.603272 361.583788 268.356115
5291 3 214.234706 297.172420 303.845642
5292 3 238.440089 317.039037 299.166599
5293 2 -270.457204 190.878085 622.528967
5294 3 -351.710077 249.963590 540.147633
5295 3 -288.571841 183.952975 583.559703
5296 2 -147.227307 317.544154 716.210579
5297 3 -175.859889 338.663391 644.392635
5298 3 -186.081513 337.223971 578.738231
5299 2 260.721162 227.637163 867.851045
5300 3 215.623982 389.057625 705.751330
5301 3 324.517067 408.462731 837.283921
5302 2 -362.638621 431.640385 27.343417
5303 3 -325.858365 405.847107 205.459302
5304 3 -322.624325 399.110363 190.000467
5305 2 -277.113587 -46.975711 271.078113
5306 3 -286.560232 -158.663218 412.067987
5307 3 -298.214652 -5.102231 350.307155
5308 2 248.466212 -112.282854 739.571050
5309 3 360.293244 -28.576517 717.853963
5310 3 267.341507 -5.560061 666.868900
5311 2 146.618541 300.106938 273.760440
5312 3 218.964289 306.780555 215.878529
5313 3 131.087831 310.789681 327.613583
5314 2 85.997473 221.651449 559.561539
5315 3 69.024605 265.190422 427.860669
5316 3 98.999400 247.416751 492.381436
5317 2 -53.955998 -104.413010 238.559405
5318 3 -40.628157 -111.954639 253.512552
5319 3 -76.704088 -124.108214 240.702481
5320 2 165.735889 328.722374 671.310894
5321 3 117.076728 335.565943 725.571507
5322 3 87.134854 305.975883 736.477877
5323 2 -3.081669 222.455589 787.680376
5324 3 -109.467918 218.952476 774.464882
5325 3 -83.892085 306.367363 733.710045
5326 2 -1.839472 477.798705 360.480180
5327 3 -22.459977 488.234531 411.600605
5328 3 -44.198593 514.384196 314.394548
5329 2 -56.758313 113.605345 407.361284
5330 3 -8.461684 158.517348 539.768856
5331 3 -124.449864 97.361202 470.547143
5332 2 20.273148 445.466826 620.446432
5333 3 -48.905086 359.557756 672.681488
5334 3 4.972362 457.133681 630.970113
5335 2 174.737042 105.467860 250.926451
5336 3 136.015738 107.543374 200.823639
5337 3 109.284486 51.602980 250.073317
5338 2 19.137864 206.938811 512.429233
5339 3 22.274172 134.621626 584.239354
5340 3 -7.757524 150.152833 586.549657
5341 2 322.663934 298.733414 696.039377
5342 3 283.236363 359.328536 688.076499
5343 3 238.646362 346.735163 648.017513
5344 2 278.761035 453.156666 251.687179
5345 3 288.373699 347.478622 244.017812
5346 3 291.121118 478.382185 315.237644
5347 2 -228.658968 327.307098 475.626792
5348 3 -138.192421 250.058617 471.475818
5349 3 -173.283851 248.649179 591.361313
5350 2 -122.993453 310.464613 502.981361
5351 3 -111.688401 282.008063 627.468567
5352 3 -24.465439 379.321288 521.219302
5353 2 -211.555510 -5.048560 620.589211
5354 3 -222.277928 7.594085 729.392121
5355 3 -209.189430 81.225146 589.149874
5356 2 -110.837486 114.986419 575.024526
5357 3 -144.270077 187.252563 508.360296
5358 3 -111.214241 126.514938 537.421871
5359 2 162.395779 375.963939 366.441083
5360 3 243.173604 329.902804 522.936050
5361 3 189.144107 333.851113 510.029439
5362 2 105.044302 529.891015 367.360458
5363 3 216.427383 426.830266 362.412260
5364 3 118.132166 448.990115 380.884206
5365 2 -201.170701 677.864458 319.555495
5366 3 -235.122044 687.154519 338.382138
5367 3 -280.997729 660.345900 287.288431
5368 2 107.527797 187.529144 623.101893
5369 3 88.263170 93.675463 638.578165
5370 3 101.982481 81.029467 591.216725
5371 2 -455.648583 252.464238 612.844137
5372 3 -395.367262 256.116444 554.038348
5373 3 -378.141662 284.586131 594.429576
5374 2 -45.267521 495.479311 529.247278
5375 3 -73.069783 584.923042 334.871698
5376 3 -160.684044 473.072180 471.566933
5377 2 -137.518433 101.146636 407.201234
5378 3 -163.523827 195.079470 328.065614
5379 3 -102.771194 138.257761 481.119833
5380 2 47.516241 48.681859 490.038363
5381 3 -64.270609 101.469803 316.600377
5382 3 16.219569 130.300972 504.103078
5383 2 574.367405 420.054781 -235.085936
5384 3 552.134055 428.341511 -4.496580
5385 3 537.656120 447.608441 -103.389817
5386 2 -287.627243 610.945904 668.972470
5387 3 -263.512881 575.214985 567.231515
5388 3 -259.919095 578.493272 539.884216
5389 2 -65.261290 52.308727 461.985765
5390 3 -19.569660 152.927310 448.473310
5391 3 -109.052709 207.389664 415.025687
5392 2 -256.018512 534.504359 237.795781
5393 3 -318.433559 480.305618 232.257404
5394 3 -337.793699 640.022394 312.109689
5395 2 -95.429904 556.518034 1006.991798
5396 3 -112.794593 601.652498 873.639056
5397 3 -199.335440 572.034006 914.339276
5398 2 -94.317413 226.026741 390.965452
5399 3 -44.873782 277.082300 438.575621
5400 3 -26.743141 190.919760 498.521062
5401 2 474.128163 -21.659423 362.688482
5402 3 440.414300 40.818947 351.591653
5403 3 455.318438 88.934425 420.960979
5404 2 -341.016203 -48.054995 232.335233
5405 3 -324.417458 -19.091951 315.283939
5406 3 -472.293275 -48.026661 204.398568
5407 2 124.928409 188.396335 477.885652
5408 3 192.640402 142.162282 438.245114
5409 3 192.707771 208.733722 451.944596
5410 2 -155.133964 200.328962 393.929906
5411 3 -153.638840 259.589072 377.638289
5412 3 -259.248904 261.332821 313.143650
5413 2 -7.037308 -96.930359 309.165625
5414 3 27.714325 -29.806923 432.693507
5415 3 28.846701 -46.413761 374.852411
5416 2 -140.014826 268.581251 385.741290
5417 3 -96.553832 286.921145 346.187660
5418 3 -151.734250 186.586448 367.679673
5419 2 58.201974 124.222025 239.370709
5420 3 71.819704 192.406997 214.862116
5421 3 104.269015 189.155957 249.906421
5422 2 88.130540 137.820364 402.338098
5423 3 142.324885 106.072595 320.247323
5424 3 73.577785 72.838399 358.820263
5425 2 -102.881480 57.992719 445.769542
5426 3 -170.590564 87.008810 432.656825
5427 3 -164.223328 -22.970047 513.759787
5428 2 -82.389954 372.289459 539.381739
5429 3 -94.787493 403.425126 472.101479
5430 3 -75.493791 355.823128 461.590788
5431 2 -400.596716 317.543819 358.648773
5432 3 -361.054374 467.444983 211.120568
5433 3 -353.974523 351.775808 362.826759
5434 2 -288.952047 -5.553604 277.752101
5435 3 -282.262065 -40.262366 275.724054
5436 3 -306.894526 -6.073542 325.234271
5437 2 46.145615 297.465194 415.517942
5438 3 67.790921 220.377118 300.937798
5439 3 -23.523854 254.038794 305.962922
5440 2 -282.943521 372.148849 335.535369
5441 3 -299.608748 348.087857 452.374336
5442 3 -328.658979 352.282689 345.765890
5443 2 115.018506 -127.725192 614.599892
5444 3 180.582604 -130.005302 689.961453
5445 3 149.183610 -106.579112 605.816171
5446 2 170.233649 728.012140 767.035628
5447 3 147.274213 684.865484 673.264636
5448 3 135.647845 695.268376 658.190759
5449 2 -409.734222 329.657984 167.060003
5450 3 -353.453935 351.912525 166.195263
5451 3 -361.230968 388.926959 123.487818
5452 2 30.095136 249.647097 503.467748
5453 3 57.256504 277.796719 370.650105
5454 3 92.560937 328.900203 447.423370
5455 2 -241.185047 -47.395570 262.521182
5456 3 -218.985073 16.297282 291.582332
5457 3 -256.472595 7.650858 347.268672
5458 2 17.343421 79.254736 818.447738
5459 3 -57.459520 134.698590 843.334905
5460 3 -67.901240 167.312251 785.636294
5461 2 218.937150 222.453764 266.188997
5462 3 205.993385 272.669014 231.591001
5463 3 191.871979 336.011490 303.073973
5464 2 116.494015 472.019922 138.083841
5465 3 109.147375 367.582152 195.384200
5466 3 88.915854 314.154267 148.341265
5467 2 -262.563698 532.293109 667.518179
5468 3 -318.414085 493.839742 547.080757
5469 3 -288.961167 428.771549 657.204626
5470 2 -331.165984 277.449727 777.926721
5471 3 -312.845567 357.755471 836.127146
5472 3 -334.093474 281.124511 729.653766
5473 2 44.940763 57.616679 783.119405
5474 3 -19.198366 181.998601 596.924765
5475 3 -35.193404 38.699236 694.843336
5476 2 268.409701 181.564929 581.602529
5477 3 184.895081 144.594892 575.149223
5478 3 202.797627 172.652543 551.646009
5479 2 112.675394 219.358932 814.126492
5480 3 19.422660 238.691955 773.368333
5481 3 79.385121 296.167052 842.420069
5482 2 198.108310 177.232271 232.488862
5483 3 246.097150 120.874430 447.148107
5484 3 213.362259 152.594124 342.955471
5485 2 213.733492 284.645337 239.085722
5486 3 205.991894 340.933208 363.758571
5487 3 214.481591 432.760819 347.760411
5488 2 242.486035 415.003097 269.760678
5489 3 274.083870 451.563835 308.172977
5490 3 217.783419 500.809963 387.503946
5491 2 331.090453 253.751494 421.897220
5492 3 422.352390 285.563706 412.693242
5493 3 355.749487 265.847520 300.574078
5494 2 26.435133 413.924779 667.700482
5495 3 25.682745 299.080588 706.788096
5496 3 49.846624 325.596373 596.365641
5497 2 386.064991 746.189105 -327.764438
5498 3 377.303155 664.979253 -342.372631
5499 3 439.359812 772.979904 -222.283854
5500 2 -412.691908 326.558652 247.329528
5501 3 -382.934214 282.916367 236.585920
5502 3 -453.005286 337.458086 188.235671
5503 2 -17.152286 456.845682 193.056386
5504 3 -77.977989 457.073472 214.003446
5505 3 -30.566658 387.772985 139.573449
5506 2 -60.025162 93.155834 397.342257
5507 3 -75.434939 157.967713 561.499450
5508 3 -46.423858 83.091575 520.445104
5509 2 324.826008 341.303189 411.241756
5510 3 331.147740 312.835843 473.498607
5511 3 394.274316 309.563455 563.257383
5512 2 -12.189447 464.861046 708.946947
5513 3 5.374152 442.212197 732.599104
5514 3 43.119966 430.733388 696.879373
5515 2 -206.932625 543.620118 853.987897
5516 3 -146.131049 546.094768 794.621692
5517 3 -171.147610 520.598886 756.102392
5518 2 -24.331637 545.158062 646.642859
5519 3 -12.363989 566.339576 734.039741
5520 3 -82.492739 620.785934 729.126047
5521 2 -256.498403 717.396448 570.569431
5522 3 -265.229081 712.113020 456.480214
5523 3 -201.731519 679.371811 455.256902
5524 2 267.787849 128.659981 453.954690
5525 3 199.317208 242.437332 365.509308
5526 3 289.204068 237.315800 381.680398
5527 2 55.002573 664.573481 83.856386
5528 3 120.275069 640.176809 104.255762
5529 3 56.391187 661.992098 56.717004
5530 2 445.799790 373.308359 450.843803
5531 3 371.010634 494.154805 475.763556
5532 3 383.863255 407.194785 479.908699
5533 2 508.992404 565.476641 414.138012
5534 3 451.352162 546.786927 661.903541
5535 3 344.171901 507.927302 581.439194
5536 2 682.192813 410.877414 -31.572556
5537 3 593.984672 314.170992 29.618170
5538 3 634.970312 357.532120 39.115396
5539 2 393.714558 260.815678 543.802255
5540 3 420.200940 318.459421 731.216258
5541 3 395.218224 286.707524 670.567880
