ITEM: TIMESTEP
0
ITEM: NUMBER OF ATOMS
5541
ITEM: BOX BOUNDS pp pp pp
0.0 38.2
0.0 38.2
0.0 38.2
ITEM: ATOMS id type x y z
1 1 -1.154 -47.036 -64.972
2 1 9.374 -47.826 -53.293
3 1 1.932 -40.897 -71.202
4 1 13.273 -47.391 -52.395
5 1 12.516 -53.828 -61.091
6 1 10.043 -40.032 -66.628
7 1 12.458 -46.552 -75.948
8 1 21.545 -45.099 -53.708
9 1 22.631 -39.648 -56.254
10 1 4.581 -40.953 -54.546
11 1 4.101 -39.028 -67.082
12 1 6.516 -50.303 -52.880
13 1 6.300 -49.867 -59.679
14 1 6.312 -41.358 -53.124
15 1 14.226 -38.757 -54.365
16 1 8.937 -36.063 -60.296
17 1 15.892 -37.218 -78.358
18 1 10.306 -43.489 -60.420
19 1 1.947 -40.241 -58.949
20 1 11.599 -53.314 -58.020
21 1 19.264 -46.110 -61.818
22 1 12.562 -51.453 -54.300
23 1 14.722 -46.789 -62.072
24 1 10.684 -50.317 -56.790
25 1 17.768 -41.652 -78.678
26 1 9.633 -49.384 -62.356
27 1 13.579 -52.051 -73.073
28 1 3.742 -58.122 -57.721
29 1 12.606 -43.548 -73.138
30 1 3.741 -49.534 -75.977
31 1 16.215 -44.890 -51.557
32 1 8.094 -51.634 -64.798
33 1 9.281 -47.049 -60.536
34 1 12.923 -50.360 -56.778
35 1 8.107 -51.764 -64.137
36 1 14.611 -50.231 -54.503
37 1 12.873 -46.712 -53.308
38 1 13.762 -44.374 -57.159
39 1 10.263 -49.222 -70.585
40 1 9.156 -45.086 -59.711
41 1 12.963 -47.530 -52.433
42 1 7.365 -46.736 -62.184
43 1 8.842 -44.540 -61.135
44 1 6.062 -44.720 -57.069
45 1 9.955 -38.665 -54.584
46 1 16.548 -44.325 -61.101
47 1 14.733 -43.789 -54.679
48 1 7.015 -41.393 -59.223
49 1 15.664 -36.983 -61.164
50 1 15.773 -46.516 -61.813
51 1 20.018 -45.622 -53.335
52 1 8.137 -42.601 -66.538
53 1 12.332 -33.861 -51.777
54 1 2.201 -47.375 -70.419
55 1 4.188 -39.731 -53.836
56 1 14.129 -51.786 -60.909
57 1 10.353 -55.172 -65.251
58 1 11.236 -50.160 -68.241
59 1 11.793 -53.123 -61.938
60 1 17.239 -43.208 -61.290
61 1 52.009 -45.179 -52.845
62 1 50.574 -40.666 -55.812
63 1 47.714 -43.969 -47.871
64 1 52.238 -41.496 -49.594
65 1 48.165 -39.342 -59.184
66 1 50.130 -41.008 -50.897
67 1 51.127 -41.966 -51.919
68 1 55.045 -36.735 -59.449
69 1 49.859 -43.225 -67.848
70 1 49.671 -38.556 -44.357
71 1 41.229 -36.478 -42.486
72 1 57.245 -38.810 -54.753
73 1 48.719 -45.034 -43.236
74 1 51.192 -44.104 -54.061
75 1 46.927 -28.274 -52.586
76 1 58.777 -36.731 -50.776
77 1 49.979 -39.474 -52.623
78 1 47.902 -32.065 -52.791
79 1 44.559 -38.787 -44.539
80 1 42.864 -43.361 -48.416
81 1 49.249 -40.820 -44.888
82 1 47.835 -37.929 -49.498
83 1 52.655 -35.687 -44.599
84 1 39.342 -44.357 -45.032
85 1 45.614 -43.902 -49.885
86 1 49.916 -29.401 -54.076
87 1 47.931 -35.368 -56.815
88 1 45.925 -42.238 -50.411
89 1 46.349 -31.233 -41.594
90 1 49.300 -42.896 -62.313
91 1 52.303 -41.494 -49.496
92 1 45.111 -27.125 -55.122
93 1 45.034 -41.789 -54.298
94 1 44.425 -31.901 -56.158
95 1 49.066 -41.240 -44.260
96 1 46.311 -31.094 -41.863
97 1 48.937 -33.103 -35.292
98 1 47.843 -31.692 -55.124
99 1 47.113 -33.186 -51.603
100 1 50.965 -40.173 -36.397
101 1 48.782 -29.311 -57.470
102 1 37.490 -34.957 -53.994
103 1 48.870 -39.732 -72.638
104 1 46.856 -39.383 -53.269
105 1 52.127 -39.707 -45.021
106 1 46.284 -31.567 -41.119
107 1 45.287 -31.893 -49.684
108 1 43.080 -33.650 -49.974
109 1 49.223 -39.282 -51.712
110 1 48.781 -36.988 -55.818
111 1 53.187 -41.080 -46.403
112 1 53.813 -36.164 -55.272
113 1 50.683 -34.860 -53.385
114 1 44.121 -37.542 -55.240
115 1 45.537 -33.197 -40.721
116 1 47.031 -32.016 -43.075
117 1 51.440 -34.568 -51.851
118 1 46.012 -35.136 -49.592
119 1 43.815 -36.825 -54.257
120 1 45.017 -37.703 -41.959
121 1 7.004 -23.691 -26.050
122 1 14.560 -9.381 -33.724
123 1 15.079 -24.257 -32.098
124 1 12.460 -15.235 -47.914
125 1 15.753 -20.840 -57.898
126 1 11.860 -17.950 -44.963
127 1 11.010 -33.101 -36.238
128 1 11.513 -22.208 -44.808
129 1 7.447 -25.962 -39.393
130 1 15.116 -12.499 -40.135
131 1 14.400 -18.738 -37.036
132 1 14.173 -20.326 -50.743
133 1 11.347 -25.056 -39.328
134 1 7.080 -12.261 -58.322
135 1 20.332 -23.460 -53.411
136 1 13.375 -30.954 -39.677
137 1 15.396 -15.909 -44.899
138 1 12.580 -25.351 -40.958
139 1 14.008 -22.659 -60.082
140 1 16.910 -28.486 -46.366
141 1 13.350 -20.750 -38.593
142 1 17.783 -19.689 -49.004
143 1 22.552 -25.923 -37.164
144 1 11.230 -19.846 -42.817
145 1 10.248 -14.128 -40.415
146 1 13.583 -19.227 -40.796
147 1 4.840 -9.748 -46.151
148 1 23.947 -16.776 -55.477
149 1 10.588 -6.920 -45.842
150 1 11.103 -26.072 -30.318
151 1 14.313 -13.392 -34.105
152 1 11.744 -17.277 -29.918
153 1 20.188 -28.860 -52.370
154 1 10.898 -22.249 -49.554
155 1 3.731 -23.787 -43.101
156 1 13.922 -16.834 -37.857
157 1 19.100 -35.113 -45.839
158 1 10.240 -17.224 -37.096
159 1 16.077 -30.795 -51.157
160 1 11.639 -24.319 -41.242
161 1 12.857 -23.383 -52.964
162 1 15.495 -23.634 -47.532
163 1 10.525 -23.555 -47.928
164 1 19.781 -14.206 -44.756
165 1 14.638 -34.838 -54.859
166 1 11.577 -19.893 -39.531
167 1 13.622 -15.024 -46.628
168 1 20.530 -11.872 -29.154
169 1 8.239 -18.233 -52.101
170 1 13.823 -15.418 -45.255
171 1 20.807 -29.273 -43.872
172 1 17.722 -26.967 -36.351
173 1 10.912 -7.662 -33.474
174 1 17.311 -21.443 -42.613
175 1 13.091 -10.782 -59.501
176 1 8.072 -28.495 -46.470
177 1 13.447 -20.949 -30.971
178 1 12.861 -13.916 -41.356
179 1 11.652 -12.790 -49.370
180 1 17.464 -20.196 -46.079
181 1 9.862 -27.991 -12.805
182 1 7.507 -21.799 -17.086
183 1 -0.083 -12.815 -0.390
184 1 -42.234 -20.032 16.298
185 1 -51.188 -37.034 27.641
186 1 -44.023 -25.228 27.146
187 1 -4.436 45.205 15.122
188 1 -6.935 46.547 13.546
189 1 -0.975 47.965 21.400
190 1 14.566 18.059 -46.371
191 1 19.730 14.501 -31.961
192 1 18.282 16.794 -38.817
193 1 -2.725 1.786 6.646
194 1 -9.629 5.519 0.145
195 1 -4.022 -8.689 2.812
196 1 -31.223 -14.385 -14.916
197 1 -34.228 -10.377 -22.511
198 1 -36.305 -18.557 -16.987
199 1 23.195 -26.176 -10.476
200 1 21.365 -15.578 -5.405
201 1 21.947 -30.476 -6.777
202 1 32.571 7.341 35.187
203 1 31.780 12.295 33.473
204 1 34.392 5.208 24.714
205 1 17.895 13.378 35.389
206 1 22.700 13.890 18.961
207 1 18.062 4.050 23.674
208 1 36.461 -23.874 15.642
209 1 33.998 -24.382 12.646
210 1 38.628 -24.248 12.440
211 1 30.479 -18.269 -1.926
212 1 29.231 -15.032 -5.355
213 1 32.177 -18.084 -3.186
214 1 70.751 19.144 7.172
215 1 69.844 23.141 15.954
216 1 72.197 19.855 16.081
217 1 56.056 30.212 44.010
218 1 59.551 26.337 40.603
219 1 56.868 14.522 38.524
220 1 -26.340 -3.821 -6.658
221 1 -30.090 -8.335 -12.525
222 1 -36.871 -4.004 -14.331
223 1 -7.839 -22.616 8.659
224 1 -10.566 -24.355 -2.338
225 1 -4.103 -21.634 -16.932
226 1 -3.819 1.725 22.583
227 1 -6.042 -2.333 23.513
228 1 -10.690 -0.848 16.197
229 1 -3.568 -6.604 -6.082
230 1 0.468 -12.268 -17.303
231 1 -2.995 -4.952 -22.158
232 1 12.634 30.047 -6.102
233 1 13.700 24.940 20.663
234 1 13.414 25.322 -7.327
235 1 8.350 10.025 0.193
236 1 0.474 12.015 15.967
237 1 4.365 15.829 15.455
238 1 6.318 21.034 -13.638
239 1 13.261 11.308 -20.238
240 1 7.208 31.399 -9.828
241 1 19.362 -23.239 -23.185
242 1 8.206 -20.182 -39.245
243 1 16.849 -15.493 -18.015
244 1 18.272 0.011 1.389
245 1 15.870 -0.991 -7.840
246 1 13.778 14.947 -2.534
247 1 39.868 41.324 -21.989
248 1 35.456 40.393 -23.405
249 1 35.174 36.732 -8.178
250 1 80.562 -2.377 -22.421
251 1 73.245 5.056 -13.256
252 1 81.138 3.171 -18.124
253 1 14.286 -11.218 5.606
254 1 17.219 -17.720 3.098
255 1 21.335 -19.862 7.656
256 1 18.835 -13.429 38.932
257 1 12.446 0.797 33.771
258 1 18.989 -12.143 28.691
259 1 -13.292 27.913 -12.709
260 1 -9.701 17.080 -18.286
261 1 -20.873 24.265 -8.980
262 1 29.110 20.662 -36.520
263 1 36.541 6.929 -36.542
264 1 34.663 23.751 -28.381
265 1 -10.380 -6.191 -16.004
266 1 -23.471 -11.393 -16.480
267 1 -13.497 -2.958 -23.131
268 1 -22.367 45.627 9.851
269 1 -23.889 49.619 19.897
270 1 -16.599 48.899 16.897
271 1 -5.923 -22.449 27.339
272 1 -3.963 -30.965 29.397
273 1 -11.406 -16.527 28.802
274 1 11.348 16.533 -25.031
275 1 8.976 3.952 -22.182
276 1 9.429 4.361 -23.711
277 1 30.368 17.920 0.226
278 1 27.383 15.986 -15.140
279 1 27.152 16.766 -8.641
280 1 -11.969 41.041 -23.595
281 1 -5.304 36.466 -32.361
282 1 -9.647 39.633 -34.997
283 1 32.034 24.607 -12.681
284 1 38.802 25.564 -14.597
285 1 32.011 20.776 -9.860
286 1 29.937 13.844 22.175
287 1 23.854 -7.267 34.365
288 1 19.409 10.173 28.803
289 1 42.237 -10.084 19.169
290 1 42.682 -17.366 22.815
291 1 42.323 -18.026 24.102
292 1 77.307 7.514 7.520
293 1 79.564 0.780 24.289
294 1 77.398 0.379 14.674
295 1 38.982 34.762 9.561
296 1 45.710 37.511 -14.023
297 1 45.427 33.411 -11.805
298 1 -18.006 27.404 1.706
299 1 -21.619 29.382 3.168
300 1 -8.307 33.376 -8.433
301 1 -8.251 -17.263 -0.455
302 1 -7.737 -22.320 -6.827
303 1 -10.860 -13.931 -1.104
304 1 -18.760 -27.034 -1.437
305 1 -15.735 -26.501 -2.602
306 1 -19.944 -20.241 -10.217
307 1 -33.818 3.934 4.931
308 1 -24.925 4.392 -10.307
309 1 -32.722 5.191 -7.353
310 1 27.111 9.547 -51.697
311 1 19.741 18.302 -37.836
312 1 26.061 16.394 -47.616
313 1 12.678 -0.523 -6.107
314 1 -5.673 0.303 -9.280
315 1 3.320 9.681 -1.547
316 1 21.529 -16.916 14.488
317 1 5.949 -31.027 4.363
318 1 16.748 -33.738 8.447
319 1 20.269 20.073 6.999
320 1 27.331 16.971 4.993
321 1 30.304 9.875 5.942
322 1 52.436 15.957 10.114
323 1 55.434 11.062 19.641
324 1 59.635 15.891 15.152
325 1 13.051 -0.891 -16.960
326 1 9.758 1.836 -2.314
327 1 14.166 -4.992 -10.343
328 1 7.911 -14.344 -18.859
329 1 7.806 0.652 -22.907
330 1 5.854 -3.151 -22.290
331 1 16.862 -25.835 -35.659
332 1 23.610 -22.533 -33.402
333 1 15.940 -24.234 -34.932
334 1 29.337 35.848 -16.011
335 1 31.436 34.383 -12.039
336 1 24.128 35.496 -11.931
337 1 -24.731 38.934 26.689
338 1 -37.976 31.144 31.358
339 1 -31.041 25.506 22.155
340 1 -5.679 15.231 19.957
341 1 -12.453 18.865 23.984
342 1 -2.563 15.238 32.284
343 1 -5.876 0.800 -10.922
344 1 -8.791 1.704 -5.290
345 1 -7.165 5.893 -8.073
346 1 -3.827 28.379 27.100
347 1 -9.957 30.024 38.373
348 1 -10.560 19.999 13.774
349 1 34.105 -16.954 -32.668
350 1 27.208 -12.226 -26.610
351 1 36.151 -13.154 -42.841
352 1 55.153 -0.731 -17.451
353 1 54.246 -7.079 -30.630
354 1 53.361 5.752 -16.665
355 1 -2.802 22.237 15.313
356 1 -9.365 39.496 24.214
357 1 -6.142 38.164 22.522
358 1 42.892 -35.483 -37.643
359 1 42.389 -40.247 -36.016
360 1 40.698 -34.077 -40.462
361 1 -3.311 39.995 43.838
362 1 -7.614 42.511 44.752
363 1 -4.105 43.752 48.402
364 1 13.512 20.725 33.095
365 1 6.623 18.527 21.583
366 1 6.343 26.287 8.387
367 1 53.138 23.560 -3.847
368 1 50.016 26.328 -12.469
369 1 51.799 19.008 -4.701
370 1 69.076 30.387 42.437
371 1 72.998 24.080 38.542
372 1 74.870 18.737 42.641
373 1 32.339 34.309 -3.262
374 1 45.879 31.892 -3.890
375 1 49.086 30.982 -2.566
376 1 -8.571 50.595 -19.181
377 1 -5.948 52.228 -17.992
378 1 -12.661 52.528 -21.405
379 1 -9.546 -10.047 -17.306
380 1 -16.937 -3.956 -7.306
381 1 -9.504 -2.637 -12.996
382 1 -2.360 19.360 -2.795
383 1 0.298 30.479 -4.519
384 1 1.884 16.800 -1.202
385 1 8.724 27.692 18.164
386 1 6.161 32.376 15.311
387 1 7.737 33.122 15.578
388 1 -9.490 9.841 -20.474
389 1 -14.924 4.849 -28.004
390 1 -12.520 5.123 -12.937
391 1 32.467 42.347 -3.312
392 1 24.672 35.904 3.097
393 1 21.786 32.940 -1.051
394 1 4.135 50.548 16.220
395 1 5.551 43.023 10.326
396 1 15.591 60.113 -5.593
397 1 36.955 73.475 -16.656
398 1 42.008 73.836 -12.889
399 1 30.854 67.908 -7.870
400 1 2.877 33.465 48.151
401 1 6.997 33.662 39.273
402 1 -3.971 38.519 30.636
403 1 -12.541 44.289 -8.769
404 1 -15.868 41.025 -12.376
405 1 -7.740 36.829 -16.473
406 1 41.771 8.742 -26.873
407 1 45.493 7.959 -21.947
408 1 50.417 8.983 -12.630
409 1 32.430 -10.067 -5.961
410 1 28.523 -13.805 6.012
411 1 37.154 -7.613 0.580
412 1 58.773 -14.537 -23.125
413 1 55.621 -13.445 -21.671
414 1 59.335 -19.165 -16.195
415 1 -7.608 -17.471 -2.384
416 1 -2.651 -18.064 0.885
417 1 -9.286 -9.660 1.912
418 1 -4.878 34.561 10.998
419 1 -4.637 31.355 13.078
420 1 -4.177 13.921 15.051
421 1 7.750 61.028 5.738
422 1 6.950 66.827 26.768
423 1 6.825 63.347 7.059
424 1 24.865 -14.689 -3.181
425 1 21.897 -3.596 7.952
426 1 28.688 -16.923 2.327
427 1 -23.201 56.518 -2.063
428 1 -32.563 55.152 9.315
429 1 -27.015 47.175 14.404
430 1 40.656 1.638 10.559
431 1 47.265 10.026 13.564
432 1 41.410 8.676 25.858
433 1 31.053 9.052 37.954
434 1 33.050 24.085 22.881
435 1 35.989 3.461 33.396
436 1 -4.255 13.605 29.914
437 1 -0.811 14.451 41.113
438 1 -4.234 13.797 21.964
439 1 -10.800 39.204 -46.594
440 1 -16.292 45.271 -46.327
441 1 -12.698 40.548 -45.662
442 1 9.942 48.198 40.729
443 1 10.765 53.532 38.001
444 1 16.589 47.283 38.296
445 1 24.712 12.938 -15.392
446 1 20.116 27.357 -3.131
447 1 24.636 16.586 -6.141
448 1 1.158 16.554 -40.582
449 1 4.195 10.882 -38.147
450 1 -4.499 21.325 -38.130
451 1 42.636 62.106 8.051
452 1 46.575 54.345 15.561
453 1 42.287 52.734 9.781
454 1 4.036 3.549 2.457
455 1 6.231 7.301 0.395
456 1 4.820 -1.257 6.142
457 1 15.740 56.472 22.914
458 1 11.667 48.220 5.326
459 1 17.507 52.935 16.891
460 1 8.138 35.748 2.122
461 1 10.363 20.516 -1.587
462 1 7.921 32.567 -3.802
463 1 -7.358 18.902 3.147
464 1 -7.740 29.982 6.984
465 1 -15.141 22.227 19.783
466 1 -6.668 -42.778 -20.952
467 1 -10.432 -44.509 -16.803
468 1 -9.990 -53.790 -14.411
469 1 13.471 5.948 -12.491
470 1 11.218 -0.445 -23.598
471 1 17.210 7.543 -13.569
472 1 -2.365 17.875 -1.012
473 1 -4.011 12.254 -9.356
474 1 -10.427 6.742 -10.386
475 1 11.754 19.333 53.072
476 1 19.736 15.843 48.818
477 1 15.216 8.467 65.757
478 1 39.539 30.146 -1.065
479 1 46.941 19.125 0.063
480 1 39.063 30.787 1.992
481 1 -9.669 35.718 13.949
482 1 -4.780 42.161 18.224
483 1 -5.723 43.369 2.076
484 1 27.270 19.947 -6.047
485 1 20.404 20.251 -6.178
486 1 18.395 24.189 -22.222
487 1 38.126 13.299 0.147
488 1 26.716 7.065 7.440
489 1 28.155 5.798 -3.062
490 1 41.837 56.167 -14.145
491 1 39.261 57.453 -10.197
492 1 48.972 63.175 -13.031
493 1 6.054 17.779 -6.075
494 1 8.732 13.257 -13.683
495 1 9.687 28.042 -12.570
496 1 -42.385 -4.309 -3.650
497 1 -42.963 2.674 -0.145
498 1 -44.031 -0.155 -4.985
499 1 -31.048 32.469 5.438
500 1 -29.749 34.714 17.708
501 1 -30.158 26.784 1.476
502 1 7.893 30.237 1.998
503 1 16.451 30.303 -4.876
504 1 13.072 25.563 -6.686
505 1 14.064 30.372 -35.645
506 1 11.285 25.048 -37.477
507 1 5.942 30.153 -25.373
508 1 16.570 52.187 11.457
509 1 16.766 50.766 7.000
510 1 14.923 52.155 3.578
511 1 -5.167 47.874 51.973
512 1 -9.601 42.264 61.122
513 1 -10.782 50.272 57.358
514 1 19.621 24.758 -3.197
515 1 18.588 45.181 5.796
516 1 20.388 30.062 4.204
517 1 14.230 31.707 29.432
518 1 18.817 31.343 17.552
519 1 7.638 34.203 32.862
520 1 57.068 12.872 34.941
521 1 60.817 22.957 29.130
522 1 51.468 7.946 20.815
523 1 2.740 27.339 20.207
524 1 6.149 22.149 5.489
525 1 2.418 8.814 14.851
526 1 6.044 1.947 23.941
527 1 9.662 -5.245 26.419
528 1 14.235 -12.295 27.594
529 1 31.190 15.378 -4.701
530 1 27.226 12.446 1.614
531 1 30.147 11.168 10.901
532 1 16.667 55.613 -25.780
533 1 27.472 39.820 -35.007
534 1 19.916 44.972 -43.432
535 1 47.858 59.892 -29.603
536 1 41.286 57.450 -25.882
537 1 37.021 57.316 -23.439
538 1 3.702 -7.967 10.917
539 1 -0.094 -0.413 18.694
540 1 0.600 -7.584 14.154
541 1 35.907 14.254 8.419
542 1 39.456 9.045 9.557
543 1 36.098 24.952 16.673
544 1 -15.563 35.221 2.499
545 1 0.462 25.792 -7.173
546 1 -4.567 25.305 6.955
547 1 -8.322 -7.529 -11.581
548 1 -4.891 -10.220 -15.098
549 1 -11.612 -11.092 -27.012
550 1 30.939 48.167 -0.182
551 1 27.620 48.473 9.272
552 1 29.035 42.724 -5.453
553 1 31.525 13.406 16.819
554 1 22.829 7.083 13.687
555 1 32.790 -0.604 27.651
556 1 4.812 48.432 -46.791
557 1 -2.370 42.820 -32.218
558 1 0.630 51.976 -31.467
559 1 -8.088 37.684 -0.101
560 1 -18.078 33.697 -17.599
561 1 -4.236 33.356 -12.479
562 1 10.810 28.446 14.390
563 1 13.808 19.959 31.189
564 1 12.699 18.370 23.324
565 1 22.576 115.023 18.788
566 1 20.279 119.181 18.844
567 1 28.465 107.440 23.258
568 1 28.568 39.361 -30.094
569 1 18.285 45.935 -11.606
570 1 25.170 50.143 -31.093
571 1 8.862 52.745 -11.056
572 1 14.483 55.253 -14.053
573 1 14.455 45.620 -12.528
574 1 -0.998 58.527 2.718
575 1 2.954 65.571 5.452
576 1 -6.894 55.713 12.495
577 1 -8.344 27.730 45.922
578 1 -7.290 33.210 38.854
579 1 -16.313 31.693 25.198
580 1 37.823 0.525 14.583
581 1 35.326 -11.155 13.433
582 1 37.210 -6.318 19.277
583 1 -16.777 10.194 29.722
584 1 -11.973 5.854 29.580
585 1 -7.867 15.785 27.113
586 1 -17.040 31.714 -27.573
587 1 -10.594 28.368 -11.868
588 1 -18.178 27.523 -6.701
589 1 39.752 46.321 -0.184
590 1 44.588 57.249 4.531
591 1 37.786 49.513 17.133
592 1 21.050 -10.460 -25.816
593 1 21.229 -10.454 -22.538
594 1 21.252 -14.681 -34.482
595 1 34.015 39.555 -4.159
596 1 28.672 34.584 -29.806
597 1 39.777 29.426 -18.224
598 1 40.704 5.653 3.336
599 1 37.507 -0.211 -3.497
600 1 44.149 3.668 -9.888
601 1 40.698 63.813 4.514
602 1 36.927 67.825 23.835
603 1 41.860 64.741 17.683
604 1 45.675 2.057 -23.826
605 1 51.138 -2.379 -22.718
606 1 47.673 2.830 -24.334
607 1 51.774 28.415 18.834
608 1 53.975 37.075 11.446
609 1 54.299 39.973 8.736
610 1 -30.782 9.007 -67.139
611 1 -38.560 14.301 -70.778
612 1 -32.200 4.922 -59.944
613 1 14.556 56.209 17.205
614 1 19.560 54.246 4.591
615 1 12.560 66.355 31.366
616 1 38.935 56.743 -24.056
617 1 29.453 52.378 -29.495
618 1 38.162 60.857 -30.723
619 1 33.304 20.916 1.108
620 1 30.965 17.550 -12.275
621 1 38.835 11.990 -11.249
622 1 7.562 69.576 18.340
623 1 15.665 70.315 17.389
624 1 6.728 68.955 3.393
625 1 38.288 5.451 -13.055
626 1 34.511 13.357 -18.117
627 1 37.668 10.697 -5.853
628 1 19.100 66.878 21.256
629 1 26.328 71.098 28.043
630 1 21.901 67.280 15.646
631 1 -0.102 72.175 13.151
632 1 1.939 77.422 14.448
633 1 -5.211 79.899 -2.739
634 1 39.229 53.634 -9.891
635 1 46.470 53.981 -12.727
636 1 42.606 46.005 -21.225
637 1 39.152 37.089 39.777
638 1 45.088 40.157 48.190
639 1 39.954 46.835 26.424
640 1 38.203 94.273 -9.710
641 1 41.209 91.738 -16.903
642 1 42.915 94.675 -9.078
643 1 74.217 16.901 -1.854
644 1 75.686 30.819 6.994
645 1 74.678 26.351 13.233
646 1 24.799 16.616 8.301
647 1 27.429 23.446 2.991
648 1 32.746 8.990 -7.269
649 1 27.851 43.476 -6.188
650 1 18.901 45.366 -3.517
651 1 18.501 43.241 -9.533
652 1 5.161 42.339 -40.256
653 1 23.775 53.373 -40.937
654 1 12.273 51.048 -41.573
655 1 -8.262 43.987 -12.708
656 1 4.125 46.624 -8.132
657 1 -6.832 49.387 -13.390
658 1 39.595 63.832 -4.095
659 1 40.328 60.167 -1.752
660 1 33.384 67.070 -6.863
661 1 -8.469 32.973 1.915
662 1 -16.706 28.677 -2.267
663 1 -13.006 23.548 4.245
664 1 -8.883 40.167 -52.330
665 1 -5.966 34.468 -53.099
666 1 -18.003 44.087 -41.019
667 1 52.676 25.944 -15.055
668 1 55.045 23.185 -7.042
669 1 50.575 31.595 -7.478
670 1 5.792 76.617 51.257
671 1 3.776 77.565 43.160
672 1 7.595 71.047 35.460
673 1 36.251 46.798 -13.179
674 1 30.276 45.918 -14.133
675 1 31.421 46.114 -2.592
676 1 36.679 15.786 28.749
677 1 35.568 13.899 27.141
678 1 35.218 6.466 21.941
679 1 -1.416 24.801 13.710
680 1 0.402 33.259 0.371
681 1 3.024 17.467 6.245
682 1 28.621 54.049 6.676
683 1 38.149 51.822 -4.107
684 1 29.121 58.926 13.791
685 1 -5.223 76.824 -12.771
686 1 3.799 66.594 -19.997
687 1 -0.829 62.451 -6.574
688 1 -3.903 -18.223 -1.334
689 1 2.637 -17.334 8.761
690 1 3.330 -23.504 13.134
691 1 -37.173 6.510 21.219
692 1 -45.977 -8.857 22.751
693 1 -45.916 -4.965 24.164
694 1 28.450 1.822 15.946
695 1 36.349 2.261 20.020
696 1 44.597 1.348 19.178
697 1 -0.769 49.853 -3.385
698 1 9.229 55.374 -5.117
699 1 2.317 54.916 -3.546
700 1 -37.324 9.080 -19.022
701 1 -22.661 15.332 -28.144
702 1 -27.640 15.400 -21.477
703 1 -7.701 11.089 23.898
704 1 -0.645 8.015 19.779
705 1 -5.393 4.598 26.383
706 1 -11.894 -18.053 7.710
707 1 -21.214 -14.694 5.403
708 1 -22.424 -17.245 13.684
709 1 38.372 -28.967 -12.153
710 1 33.675 -26.381 -22.672
711 1 32.637 -33.563 -21.946
712 1 0.898 37.045 -27.492
713 1 7.229 35.072 -21.701
714 1 9.492 45.761 -26.049
715 1 48.928 3.166 -21.309
716 1 38.020 2.737 -31.304
717 1 48.490 -4.760 -26.521
718 1 53.411 -54.443 -11.098
719 1 60.468 -61.988 -1.839
720 1 55.396 -47.097 -11.324
721 1 55.415 34.443 1.660
722 1 59.059 30.454 -2.335
723 1 54.461 32.861 1.376
724 1 26.802 39.702 -42.071
725 1 33.899 44.584 -36.076
726 1 22.441 43.210 -23.830
727 1 -46.898 -6.555 0.124
728 1 -49.653 -4.407 -6.466
729 1 -38.522 -9.040 -7.646
730 1 27.150 23.302 -13.957
731 1 28.456 19.154 -12.672
732 1 31.938 21.095 -17.949
733 1 21.818 8.298 18.091
734 1 20.939 12.300 30.173
735 1 28.422 17.408 39.452
736 1 -7.720 32.619 -16.641
737 1 -6.564 30.247 -11.915
738 1 -5.425 25.712 -11.296
739 1 -9.220 -29.179 55.960
740 1 -1.381 -32.711 44.744
741 1 4.500 -24.289 56.614
742 1 32.609 -41.125 27.407
743 1 28.919 -29.703 31.192
744 1 28.555 -27.633 30.321
745 1 57.720 34.564 2.870
746 1 57.507 33.088 3.729
747 1 56.247 28.138 10.143
748 1 -37.043 -6.539 26.913
749 1 -38.633 -4.526 22.453
750 1 -39.345 -11.255 28.482
751 1 12.174 -13.012 8.495
752 1 11.522 -13.012 8.507
753 1 21.632 -5.027 16.793
754 1 4.277 -15.145 10.570
755 1 7.547 -29.218 5.294
756 1 9.555 -23.283 5.663
757 1 0.767 16.793 -1.512
758 1 9.860 24.435 6.064
759 1 9.056 14.724 0.478
760 1 40.746 45.168 16.392
761 1 44.124 46.836 25.896
762 1 52.253 39.831 9.657
763 1 54.799 -5.554 -11.195
764 1 48.336 1.192 -7.689
765 1 54.029 2.098 -15.002
766 1 -30.084 -25.738 11.334
767 1 -36.404 -6.883 15.378
768 1 -38.129 -22.647 13.779
769 1 86.420 -0.576 -15.139
770 1 86.703 -5.109 -18.108
771 1 90.461 -10.505 -11.640
772 1 8.598 35.372 -7.884
773 1 9.027 32.360 -22.249
774 1 8.636 24.988 -28.464
775 1 26.030 14.946 1.772
776 1 37.068 15.566 3.662
777 1 27.890 6.003 16.619
778 1 26.837 16.602 -7.168
779 1 37.370 17.017 0.257
780 1 39.948 11.217 -11.080
781 1 -25.553 -14.606 -0.008
782 1 -24.253 -12.804 4.056
783 1 -21.518 -16.902 -4.317
784 1 20.254 -24.229 6.056
785 1 15.158 -21.013 -1.592
786 1 10.581 -9.507 -3.953
787 1 -15.699 47.016 15.097
788 1 -16.935 47.109 1.618
789 1 -18.977 49.364 20.719
790 1 18.187 -42.748 -4.173
791 1 20.991 -46.260 2.765
792 1 23.081 -43.611 -2.804
793 1 7.539 15.907 13.244
794 1 14.231 8.602 11.130
795 1 13.264 15.291 13.955
796 1 54.069 7.179 53.986
797 1 52.692 9.693 45.718
798 1 49.951 9.622 59.358
799 1 47.632 15.990 -21.930
800 1 48.549 15.662 -20.579
801 1 45.744 21.459 -16.767
802 1 22.608 29.611 -8.853
803 1 27.710 46.948 -4.292
804 1 19.320 41.350 -10.045
805 1 -6.492 -43.280 8.013
806 1 -5.657 -38.073 13.734
807 1 -6.434 -51.307 7.956
808 1 0.554 48.822 -11.770
809 1 -1.963 42.601 -18.704
810 1 0.562 53.117 -21.537
811 1 -8.926 13.061 -10.469
812 1 -0.553 25.868 1.637
813 1 -8.805 16.491 -19.475
814 1 20.986 12.049 -5.920
815 1 24.526 9.220 3.702
816 1 16.804 6.704 -2.293
817 1 -20.904 -7.242 22.916
818 1 -27.598 -12.421 46.677
819 1 -29.188 -5.647 39.813
820 1 1.468 51.281 39.865
821 1 3.833 43.636 43.539
822 1 4.807 41.497 45.865
823 1 40.841 15.292 2.665
824 1 44.393 8.720 -15.532
825 1 40.856 0.529 -12.381
826 1 36.310 29.773 23.038
827 1 41.669 45.985 8.723
828 1 43.091 38.220 15.648
829 1 82.046 23.221 52.470
830 1 74.814 13.838 64.575
831 1 62.705 24.511 67.721
832 1 -11.712 5.806 -1.763
833 1 -5.939 8.348 -23.863
834 1 -4.280 -1.074 -12.947
835 1 -5.686 10.822 -9.238
836 1 6.286 13.490 -5.868
837 1 8.962 9.433 12.057
838 1 25.883 6.306 -14.981
839 1 33.731 6.186 -21.526
840 1 24.746 -2.301 -18.546
841 1 16.834 -24.519 27.709
842 1 25.237 -18.377 22.572
843 1 28.865 -14.905 14.636
844 1 -9.964 0.747 6.903
845 1 -3.466 5.907 15.002
846 1 -9.623 -4.253 6.692
847 1 28.304 32.324 49.595
848 1 27.464 26.845 48.208
849 1 38.711 14.195 47.101
850 1 -33.479 34.799 26.684
851 1 -26.050 26.462 15.771
852 1 -20.531 34.994 13.161
853 1 15.905 33.821 -12.785
854 1 18.135 41.497 -16.136
855 1 13.358 36.827 -13.023
856 1 14.489 11.377 -10.211
857 1 18.282 13.339 -7.185
858 1 17.606 9.300 -14.274
859 1 14.502 -31.857 -34.007
860 1 6.783 -28.655 -40.301
861 1 7.585 -37.565 -34.763
862 1 59.335 1.043 -37.569
863 1 50.911 -3.563 -14.838
864 1 55.178 5.110 -25.358
865 1 41.775 2.415 14.013
866 1 37.824 -2.794 11.825
867 1 42.388 3.018 11.127
868 1 53.652 -1.659 -24.480
869 1 42.423 -1.497 -15.734
870 1 58.423 1.381 -9.900
871 1 47.860 -10.984 -4.026
872 1 56.644 -12.791 3.761
873 1 47.334 -3.962 -6.447
874 1 25.262 30.575 -10.310
875 1 25.510 27.288 -11.142
876 1 26.092 33.473 -27.201
877 1 45.527 39.467 21.426
878 1 46.490 32.074 18.530
879 1 47.197 41.092 33.664
880 1 20.734 39.182 -13.562
881 1 22.772 46.223 -0.047
882 1 22.261 36.370 -18.088
883 1 -30.733 -5.115 19.433
884 1 -27.976 -5.556 17.415
885 1 -38.484 -0.150 20.405
886 1 -44.648 -6.216 10.424
887 1 -37.438 2.641 6.198
888 1 -36.811 -6.643 9.863
889 1 10.510 22.649 2.382
890 1 12.948 26.019 -5.356
891 1 19.426 32.409 -16.224
892 1 -24.100 -5.254 -7.342
893 1 -23.392 -10.873 -7.573
894 1 -25.956 -7.011 -13.037
895 1 23.291 25.261 1.948
896 1 24.980 42.032 4.842
897 1 22.986 33.494 9.439
898 1 39.620 66.864 18.716
899 1 40.171 77.708 28.788
900 1 42.326 70.374 24.077
901 1 16.273 47.392 -23.879
902 1 7.213 62.609 -21.901
903 1 2.913 50.901 -24.618
904 1 35.797 13.198 -11.720
905 1 29.525 11.653 -7.156
906 1 29.191 27.258 -16.860
907 1 54.813 11.400 -17.213
908 1 44.050 14.805 -16.257
909 1 51.820 21.693 -9.725
910 1 29.041 -10.545 41.448
911 1 32.459 -15.922 51.404
912 1 34.629 -12.413 36.797
913 1 58.320 62.136 22.816
914 1 58.448 54.108 28.012
915 1 59.003 61.238 35.340
916 1 46.611 41.828 -32.597
917 1 39.377 32.809 -21.871
918 1 47.187 30.805 -35.853
919 1 29.067 23.847 -7.094
920 1 30.761 23.431 -0.773
921 1 47.297 20.330 -1.375
922 1 42.518 -22.000 22.248
923 1 51.106 -17.542 12.326
924 1 45.082 -30.277 20.375
925 1 -47.007 21.840 21.000
926 1 -44.250 10.049 24.810
927 1 -49.330 15.516 9.814
928 1 45.918 -2.524 -16.292
929 1 31.759 -9.532 -22.684
930 1 38.275 7.074 -5.052
931 1 -12.705 -17.715 26.163
932 1 -11.458 -10.443 29.483
933 1 -14.144 -4.510 24.786
934 1 -11.064 13.667 -47.750
935 1 -15.119 12.837 -44.612
936 1 -4.843 14.451 -57.708
937 1 43.433 51.236 35.256
938 1 44.221 45.168 24.669
939 1 43.288 56.230 26.841
940 1 -6.663 4.639 44.239
941 1 -7.972 -4.305 37.109
942 1 -12.040 10.167 43.018
943 1 -24.100 32.830 14.614
944 1 -11.391 35.572 7.745
945 1 -20.372 31.060 6.135
946 1 65.038 28.145 34.107
947 1 56.168 42.479 23.257
948 1 65.114 37.951 36.854
949 1 -10.814 -12.533 18.249
950 1 -5.612 4.242 10.243
951 1 -9.331 -7.174 21.062
952 1 32.983 31.481 21.469
953 1 32.424 24.114 13.715
954 1 29.728 31.622 26.196
955 1 16.722 44.573 13.807
956 1 19.430 29.303 15.782
957 1 11.765 30.548 16.655
958 1 57.188 17.642 6.986
959 1 62.704 14.339 7.473
960 1 60.825 4.494 14.713
961 1 16.982 17.382 36.319
962 1 7.790 26.417 21.779
963 1 14.725 18.401 28.441
964 1 -18.935 10.336 63.076
965 1 -16.767 17.429 79.660
966 1 -16.248 16.093 71.535
967 1 28.519 45.409 -7.547
968 1 28.752 53.374 -24.392
969 1 21.564 43.328 -9.028
970 1 -9.453 52.366 -5.747
971 1 -0.680 57.636 -7.085
972 1 -0.171 57.410 -13.355
973 1 27.560 76.781 -7.874
974 1 34.652 71.925 5.003
975 1 37.541 64.663 -10.651
976 1 -16.658 9.790 -17.172
977 1 -5.355 10.111 -16.404
978 1 -11.328 5.335 -19.267
979 1 30.265 62.251 9.775
980 1 29.368 66.582 20.438
981 1 30.151 55.694 7.238
982 1 28.896 35.215 10.124
983 1 21.868 34.281 3.714
984 1 25.308 40.413 7.604
985 1 -3.178 12.039 23.655
986 1 6.610 16.547 10.348
987 1 1.258 22.295 13.648
988 1 -4.843 21.240 -0.415
989 1 -2.707 22.858 0.306
990 1 2.561 14.773 -9.134
991 1 52.189 19.996 43.040
992 1 53.414 23.250 31.084
993 1 65.000 15.707 48.542
994 1 25.557 19.139 18.174
995 1 15.501 12.974 -1.317
996 1 9.445 18.307 7.760
997 1 19.562 36.774 29.774
998 1 15.217 35.912 28.771
999 1 16.235 28.158 17.992
1000 1 14.264 20.737 19.530
1001 1 6.802 11.297 18.461
1002 1 7.395 19.283 14.240
1003 1 -12.196 42.588 11.384
1004 1 -8.576 42.507 21.281
1005 1 -19.261 40.447 7.114
1006 1 8.720 2.774 12.411
1007 1 9.491 -1.493 17.201
1008 1 2.235 1.961 6.250
1009 1 27.053 28.592 -37.226
1010 1 19.627 17.174 -30.876
1011 1 18.876 15.398 -34.420
1012 1 -36.529 29.109 19.892
1013 1 -32.857 33.457 16.328
1014 1 -29.901 37.708 11.788
1015 1 -5.254 68.033 -7.047
1016 1 -4.267 68.829 -2.732
1017 1 -9.392 56.761 -1.941
1018 1 57.665 14.752 0.049
1019 1 57.798 15.889 -13.353
1020 1 47.121 13.160 -8.959
1021 1 13.609 23.699 30.403
1022 1 21.825 17.870 40.995
1023 1 8.554 19.820 40.084
1024 1 -6.956 35.944 -11.249
1025 1 -11.636 44.350 -8.930
1026 1 -16.395 34.614 -8.679
1027 1 47.556 -4.417 -29.108
1028 1 46.961 10.398 -17.048
1029 1 39.942 6.841 -20.610
1030 1 50.314 11.362 18.028
1031 1 39.738 12.109 9.485
1032 1 46.563 17.104 6.906
1033 1 51.900 68.648 16.608
1034 1 48.574 68.364 20.443
1035 1 46.948 69.368 18.080
1036 1 87.710 7.409 41.930
1037 1 91.394 1.198 35.359
1038 1 83.281 0.495 35.852
1039 1 -41.239 56.313 -4.698
1040 1 -36.738 44.937 -8.501
1041 1 -36.978 58.352 -12.220
1042 1 11.694 64.473 -8.321
1043 1 20.182 61.852 1.661
1044 1 15.576 61.929 -2.351
1045 1 30.148 46.792 -19.505
1046 1 29.748 45.277 -17.937
1047 1 27.762 58.508 -21.627
1048 1 -24.199 37.211 9.344
1049 1 -20.174 40.096 21.886
1050 1 -16.620 35.885 26.025
1051 1 5.335 28.443 -5.261
1052 1 -0.302 29.608 6.967
1053 1 1.661 33.469 18.945
1054 1 38.151 17.206 -0.213
1055 1 43.197 12.903 -9.380
1056 1 37.131 19.547 -0.704
1057 1 9.443 42.956 24.866
1058 1 8.453 33.303 12.403
1059 1 5.620 28.737 23.914
1060 1 28.780 -20.342 10.277
1061 1 27.471 -17.548 24.485
1062 1 30.025 -21.732 26.426
1063 1 32.043 22.351 -15.477
1064 1 34.527 13.514 -12.083
1065 1 36.886 27.710 -17.313
1066 1 32.837 51.327 21.093
1067 1 34.063 47.740 24.378
1068 1 24.139 43.876 31.426
1069 1 69.422 21.748 21.042
1070 1 62.106 25.248 24.145
1071 1 64.203 23.873 20.256
1072 1 37.140 19.327 12.787
1073 1 34.210 12.094 7.277
1074 1 40.963 20.689 3.855
1075 1 88.571 21.143 36.857
1076 1 96.305 23.027 29.622
1077 1 94.747 22.783 27.753
1078 1 15.890 15.801 -0.045
1079 1 16.599 29.788 -1.072
1080 1 14.323 34.326 0.352
1081 1 -25.338 11.753 -22.421
1082 1 -25.187 10.050 -24.371
1083 1 -20.793 8.622 -8.129
1084 1 3.543 31.736 16.310
1085 1 12.810 34.344 13.794
1086 1 1.011 25.960 23.844
1087 1 -2.162 53.340 36.061
1088 1 2.200 43.951 41.257
1089 1 0.144 39.544 35.380
1090 1 32.551 58.587 -6.974
1091 1 46.652 68.547 -1.281
1092 1 33.585 54.305 -8.555
1093 1 25.614 34.066 -8.746
1094 1 24.834 23.812 -20.630
1095 1 20.892 25.184 -7.820
1096 1 38.614 18.423 -14.005
1097 1 46.149 17.666 -23.023
1098 1 40.713 26.785 -10.912
1099 1 28.556 43.993 3.509
1100 1 18.034 48.031 -0.396
1101 1 23.144 45.445 8.939
1102 1 72.482 4.077 3.820
1103 1 66.940 9.717 0.729
1104 1 64.578 9.345 1.108
1105 1 1.122 15.262 -3.711
1106 1 3.157 12.710 -3.409
1107 1 -0.146 15.790 -2.015
1108 1 14.588 4.838 -12.887
1109 1 12.421 6.134 -15.495
1110 1 19.154 0.833 -1.037
1111 1 61.106 30.481 15.386
1112 1 56.652 31.643 19.544
1113 1 62.681 20.208 29.144
1114 1 57.224 39.896 10.430
1115 1 63.539 38.401 16.426
1116 1 64.225 38.366 21.991
1117 1 -19.013 47.283 14.145
1118 1 -15.164 55.170 20.684
1119 1 -9.734 62.898 21.441
1120 1 2.416 52.160 -27.557
1121 1 0.071 49.111 -13.207
1122 1 -9.962 47.458 -20.644
1123 1 -24.025 42.727 -4.231
1124 1 -19.245 36.074 4.924
1125 1 -12.968 35.811 -3.374
1126 1 -20.341 82.373 -2.852
1127 1 -16.275 97.079 5.009
1128 1 -15.890 82.182 -5.306
1129 1 41.924 41.571 48.973
1130 1 35.547 37.131 51.378
1131 1 35.713 52.855 50.857
1132 1 13.412 31.622 9.821
1133 1 21.551 37.945 -2.386
1134 1 21.205 36.899 2.421
1135 1 18.187 -32.945 -23.398
1136 1 21.456 -25.503 -21.824
1137 1 19.521 -28.393 -5.189
1138 1 30.282 24.108 4.468
1139 1 31.025 29.482 -9.106
1140 1 18.648 31.416 7.893
1141 1 11.293 73.836 -31.257
1142 1 5.951 68.533 -28.690
1143 1 12.576 75.017 -32.051
1144 1 24.891 46.868 27.753
1145 1 25.373 47.449 8.090
1146 1 23.120 42.532 41.630
1147 1 -0.083 72.835 13.689
1148 1 -3.410 54.112 12.053
1149 1 3.207 65.441 2.329
1150 1 21.826 81.153 13.941
1151 1 23.011 74.610 2.884
1152 1 23.819 85.272 3.709
1153 1 74.808 23.381 -15.347
1154 1 81.188 26.768 -34.986
1155 1 82.951 30.456 -19.439
1156 1 26.484 21.724 -17.429
1157 1 25.628 26.361 -28.985
1158 1 23.659 29.559 -25.054
1159 1 19.199 92.622 42.324
1160 1 17.752 80.052 39.983
1161 1 27.585 84.446 41.966
1162 1 32.264 38.918 43.131
1163 1 30.769 46.849 17.708
1164 1 25.069 47.571 30.801
1165 1 9.411 52.105 62.131
1166 1 12.569 46.823 45.351
1167 1 15.892 54.067 48.930
1168 1 12.386 34.062 9.557
1169 1 12.064 39.445 14.456
1170 1 2.966 45.473 11.413
1171 1 21.609 19.030 -0.743
1172 1 11.582 34.647 -7.551
1173 1 20.524 11.912 -5.355
1174 1 15.110 28.170 7.199
1175 1 32.723 27.290 7.399
1176 1 24.711 41.897 16.938
1177 1 -22.965 86.875 14.654
1178 1 -12.400 76.199 10.620
1179 1 -16.769 85.060 7.510
1180 1 52.744 18.144 -1.889
1181 1 52.170 35.288 0.295
1182 1 56.149 36.953 -9.294
1183 1 16.835 16.631 -15.691
1184 1 25.632 20.230 -24.559
1185 1 25.575 20.740 -21.836
1186 1 6.875 43.069 -7.020
1187 1 -2.706 38.552 -5.952
1188 1 2.266 48.883 -12.006
1189 1 87.851 109.743 28.495
1190 1 78.987 107.334 30.545
1191 1 83.460 112.348 24.215
1192 1 15.477 74.272 28.958
1193 1 19.429 81.106 31.883
1194 1 11.663 80.765 28.418
1195 1 -6.815 -13.880 -8.733
1196 1 -8.245 -15.058 -10.680
1197 1 -13.024 -13.139 -8.552
1198 1 13.868 30.878 -26.827
1199 1 26.435 32.132 -27.902
1200 1 19.875 29.514 -23.287
1201 1 -25.101 -0.446 10.251
1202 1 -25.477 1.760 21.506
1203 1 -27.587 -0.991 7.867
1204 1 33.630 18.197 49.463
1205 1 28.304 9.122 42.506
1206 1 33.376 19.130 42.404
1207 1 41.827 -23.411 -3.351
1208 1 40.139 -25.662 -4.497
1209 1 40.538 -17.524 -4.175
1210 1 10.784 58.294 21.101
1211 1 15.020 51.817 27.238
1212 1 9.037 54.072 27.220
1213 1 14.958 16.366 -26.440
1214 1 5.613 2.438 -23.419
1215 1 7.764 10.513 -17.314
1216 1 53.558 5.684 -4.796
1217 1 53.322 4.563 -7.846
1218 1 49.992 7.844 -13.057
1219 1 33.917 18.196 2.567
1220 1 40.438 17.681 -8.835
1221 1 43.286 20.099 -0.045
1222 1 40.529 39.200 25.508
1223 1 49.915 48.221 22.718
1224 1 52.929 37.767 21.371
1225 1 14.579 10.075 56.010
1226 1 19.849 9.962 45.985
1227 1 34.638 -0.530 51.571
1228 1 63.187 24.019 7.657
1229 1 62.573 16.734 10.648
1230 1 66.312 22.401 -1.212
1231 1 19.841 -1.878 15.468
1232 1 25.836 9.109 29.331
1233 1 18.560 -0.852 25.165
1234 1 0.696 23.170 15.272
1235 1 2.346 21.970 15.803
1236 1 -6.554 27.647 9.001
1237 1 49.503 -1.215 6.086
1238 1 41.605 8.882 11.749
1239 1 45.607 5.128 14.427
1240 1 29.773 3.193 6.152
1241 1 25.964 6.299 4.035
1242 1 29.222 -13.562 -6.491
1243 1 17.071 -13.900 -1.371
1244 1 11.754 -19.149 5.361
1245 1 8.511 -15.346 -7.183
1246 1 24.048 13.814 17.036
1247 1 22.946 13.288 4.133
1248 1 23.441 11.210 6.069
1249 1 -8.309 38.854 -7.795
1250 1 -9.958 30.375 -13.649
1251 1 -5.586 30.821 -14.343
1252 1 17.250 36.307 -11.681
1253 1 14.508 36.158 -9.085
1254 1 15.382 39.576 -4.982
1255 1 8.336 7.047 40.927
1256 1 6.936 8.693 40.842
1257 1 9.796 7.793 36.040
1258 1 18.355 20.233 36.391
1259 1 23.096 10.777 21.721
1260 1 29.232 14.627 21.244
1261 1 26.757 13.686 -16.922
1262 1 26.566 7.496 0.602
1263 1 26.682 4.619 -7.399
1264 1 30.242 4.073 25.942
1265 1 24.744 10.219 30.144
1266 1 17.793 6.251 19.199
1267 1 57.014 2.846 8.928
1268 1 52.400 -3.513 11.288
1269 1 58.229 -0.249 10.272
1270 1 55.020 -2.819 -44.730
1271 1 64.698 11.065 -28.827
1272 1 52.905 7.838 -34.506
1273 1 -10.094 -3.980 46.620
1274 1 -18.872 -9.428 55.117
1275 1 -14.230 -8.672 53.470
1276 1 30.147 47.383 27.493
1277 1 42.248 46.439 15.770
1278 1 36.415 49.416 19.845
1279 1 -27.321 -6.870 24.409
1280 1 -34.969 -18.955 14.660
1281 1 -24.867 -2.950 26.331
1282 1 47.118 -22.459 -7.864
1283 1 46.734 -20.028 -11.042
1284 1 37.854 -17.446 -16.533
1285 1 7.148 13.709 11.015
1286 1 0.195 20.003 15.117
1287 1 -1.097 18.512 -5.955
1288 1 36.826 38.469 8.054
1289 1 32.089 27.166 -11.938
1290 1 32.036 40.212 -13.965
1291 1 13.690 -0.848 -27.363
1292 1 16.313 -3.560 -20.115
1293 1 13.842 -3.972 -30.580
1294 1 24.754 13.496 -51.521
1295 1 24.577 19.149 -42.228
1296 1 26.111 18.115 -44.560
1297 1 13.882 9.842 -21.366
1298 1 16.024 1.511 -32.312
1299 1 11.985 8.535 -17.897
1300 1 35.937 11.925 30.410
1301 1 30.670 9.496 32.061
1302 1 34.029 16.779 44.279
1303 1 23.190 -8.033 -26.438
1304 1 27.500 -20.348 -18.934
1305 1 25.157 -21.213 -15.999
1306 1 64.018 19.920 -15.759
1307 1 69.233 11.450 -27.723
1308 1 57.509 14.955 -29.100
1309 1 76.453 -26.225 14.684
1310 1 68.093 -14.603 2.433
1311 1 79.412 -17.056 4.323
1312 1 -37.686 39.714 10.285
1313 1 -45.721 33.365 22.089
1314 1 -38.330 39.368 8.027
1315 1 16.904 7.091 45.604
1316 1 29.276 3.555 41.329
1317 1 33.515 2.715 36.208
1318 1 5.903 60.970 1.233
1319 1 0.693 60.028 -5.696
1320 1 2.714 53.603 16.499
1321 1 9.084 25.782 -1.096
1322 1 13.033 20.361 5.568
1323 1 10.563 27.526 5.026
1324 1 59.334 -25.880 3.878
1325 1 60.986 -22.313 -5.566
1326 1 63.712 -20.756 -0.275
1327 1 18.704 32.574 9.282
1328 1 21.959 23.365 4.477
1329 1 18.338 36.849 22.283
1330 1 52.737 1.372 42.774
1331 1 42.341 -6.593 28.645
1332 1 44.971 -2.591 20.716
1333 1 19.734 21.962 19.856
1334 1 12.707 27.575 5.611
1335 1 6.683 30.687 9.362
1336 1 34.579 48.224 11.954
1337 1 35.580 59.760 2.324
1338 1 37.117 56.019 -4.292
1339 1 7.474 61.031 18.365
1340 1 5.200 49.802 5.182
1341 1 10.785 52.898 9.007
1342 1 31.702 17.167 12.097
1343 1 40.963 18.962 13.475
1344 1 31.873 24.482 -0.213
1345 1 66.649 2.348 -35.750
1346 1 64.569 6.823 -44.311
1347 1 67.104 -1.419 -45.203
1348 1 75.126 0.229 39.246
1349 1 78.912 -10.027 31.444
1350 1 74.360 -13.872 37.806
1351 1 28.304 16.188 12.377
1352 1 24.881 7.600 9.301
1353 1 42.498 -2.526 -4.671
1354 1 3.434 1.758 -9.766
1355 1 -3.948 1.627 1.066
1356 1 -3.469 6.397 -0.605
1357 1 5.041 -9.601 28.387
1358 1 -1.208 -0.870 10.178
1359 1 -3.656 -7.534 15.992
1360 1 10.144 29.376 21.831
1361 1 13.512 19.395 34.080
1362 1 8.008 28.189 23.362
1363 1 42.625 31.140 2.963
1364 1 55.683 20.994 6.329
1365 1 48.363 35.040 -4.447
1366 1 -1.790 31.125 58.127
1367 1 7.235 36.968 45.073
1368 1 1.528 41.708 52.652
1369 1 33.789 9.095 12.420
1370 1 36.562 8.648 -1.461
1371 1 34.122 9.745 -2.841
1372 1 55.518 10.472 -28.966
1373 1 44.170 10.376 -27.178
1374 1 44.658 5.137 -31.908
1375 1 13.611 29.657 1.026
1376 1 16.130 16.103 -1.847
1377 1 23.925 32.061 10.017
1378 1 85.219 1.247 33.996
1379 1 82.801 8.936 21.951
1380 1 72.212 4.636 23.640
1381 1 -7.926 19.027 2.389
1382 1 -5.084 13.261 5.648
1383 1 -2.862 18.322 -3.044
1384 1 39.087 13.429 -12.754
1385 1 40.258 15.377 -32.902
1386 1 47.513 11.597 -24.105
1387 1 31.391 8.028 -21.074
1388 1 26.285 12.151 -10.811
1389 1 23.188 7.460 -11.018
1390 1 -7.319 -25.103 6.023
1391 1 -13.643 -16.098 2.175
1392 1 -10.166 -13.369 -5.011
1393 1 -12.470 30.776 39.376
1394 1 -1.115 28.204 40.254
1395 1 -18.372 30.259 36.075
1396 1 -7.931 -8.859 52.964
1397 1 -11.395 -0.983 46.290
1398 1 -3.599 8.610 65.806
1399 1 12.643 -9.030 18.582
1400 1 18.994 1.097 10.270
1401 1 13.568 10.762 18.011
1402 1 -0.503 18.031 -12.519
1403 1 -8.700 26.680 2.312
1404 1 -1.832 21.005 -3.387
1405 1 45.304 66.881 14.523
1406 1 38.161 65.416 15.063
1407 1 46.806 65.501 15.344
1408 1 15.014 -0.066 -32.199
1409 1 17.961 3.627 -44.972
1410 1 15.964 8.787 -41.942
1411 1 66.937 57.183 16.077
1412 1 66.042 41.574 11.320
1413 1 63.898 50.902 22.201
1414 1 0.386 56.774 7.821
1415 1 -4.929 57.938 8.235
1416 1 3.295 60.858 4.070
1417 1 30.697 46.772 -9.682
1418 1 26.220 45.332 -18.048
1419 1 32.981 42.897 -19.274
1420 1 31.026 27.810 51.058
1421 1 40.635 26.031 57.352
1422 1 24.674 34.467 40.242
1423 1 83.429 16.411 25.020
1424 1 86.179 23.295 16.843
1425 1 68.274 21.165 28.074
1426 1 5.501 47.235 -12.582
1427 1 4.643 40.795 -9.590
1428 1 7.071 37.140 0.572
1429 1 -35.003 -8.214 -39.932
1430 1 -36.210 -9.209 -39.926
1431 1 -34.261 -13.426 -24.599
1432 1 -48.622 -27.604 -44.780
1433 1 -28.209 -25.446 -52.682
1434 1 -52.055 -26.027 -50.465
1435 1 5.810 46.141 -3.038
1436 1 2.439 47.593 -13.051
1437 1 0.547 45.976 -3.229
1438 1 0.964 7.685 -1.722
1439 1 4.571 16.577 2.303
1440 1 6.557 19.726 -18.903
1441 1 -0.061 19.011 4.907
1442 1 0.630 34.063 9.561
1443 1 0.901 14.574 -4.662
1444 1 -22.541 21.612 -18.002
1445 1 -17.835 24.753 -21.195
1446 1 -17.950 24.656 -13.747
1447 1 34.576 23.450 30.659
1448 1 28.523 34.300 38.236
1449 1 30.686 18.757 31.357
1450 1 21.265 31.158 13.837
1451 1 22.267 35.205 7.980
1452 1 18.319 30.800 16.016
1453 1 42.051 45.487 -5.092
1454 1 37.653 42.772 -0.898
1455 1 31.506 46.998 1.397
1456 1 34.261 13.439 31.852
1457 1 36.900 14.027 22.545
1458 1 36.048 10.838 37.340
1459 1 80.044 28.833 48.539
1460 1 78.533 33.320 56.542
1461 1 73.298 35.179 49.885
1462 1 14.109 28.563 38.233
1463 1 12.823 32.572 34.428
1464 1 9.005 33.623 33.808
1465 1 70.134 71.312 33.883
1466 1 61.300 73.563 24.829
1467 1 66.582 70.853 30.024
1468 1 -43.174 61.559 21.509
1469 1 -40.616 52.419 33.776
1470 1 -39.045 51.334 29.839
1471 1 -12.115 -1.058 3.704
1472 1 -16.856 0.659 -12.539
1473 1 -0.991 6.408 -18.345
1474 1 -39.828 37.446 12.480
1475 1 -44.253 28.085 19.261
1476 1 -47.792 29.745 5.409
1477 1 -27.381 28.805 -36.817
1478 1 -29.627 26.984 -29.722
1479 1 -28.082 32.375 -22.484
1480 1 -3.415 24.822 -19.637
1481 1 -5.832 27.655 -33.903
1482 1 -19.163 26.594 -36.689
1483 1 -10.241 48.393 15.912
1484 1 -1.620 43.471 17.832
1485 1 -6.743 50.259 26.460
1486 1 3.896 16.577 -1.927
1487 1 -0.422 10.956 -9.112
1488 1 5.638 5.230 1.665
1489 1 8.797 11.872 -1.418
1490 1 11.013 -4.607 -7.067
1491 1 7.712 1.700 -6.067
1492 1 39.060 1.098 -20.112
1493 1 27.106 4.495 -26.303
1494 1 30.923 6.787 -16.693
1495 1 6.936 40.938 58.385
1496 1 11.644 44.795 61.427
1497 1 2.673 37.848 64.539
1498 1 22.908 8.706 -17.650
1499 1 21.701 -0.294 -16.711
1500 1 22.300 3.868 -22.528
1501 1 48.059 67.892 -49.950
1502 1 50.216 62.271 -35.089
1503 1 46.268 60.214 -47.722
1504 1 59.195 68.051 10.409
1505 1 53.869 69.360 23.892
1506 1 56.451 73.796 9.945
1507 1 17.297 20.732 39.922
1508 1 10.724 24.819 47.524
1509 1 17.436 22.998 37.413
1510 1 -43.781 68.056 -24.909
1511 1 -53.996 56.253 -35.586
1512 1 -51.592 77.362 -29.722
1513 1 49.938 19.632 58.380
1514 1 56.049 18.967 54.653
1515 1 51.557 26.249 46.733
1516 1 -2.533 43.957 5.411
1517 1 -12.371 40.622 9.975
1518 1 -2.479 45.903 12.331
1519 1 -12.346 31.814 25.103
1520 1 -19.273 31.367 15.478
1521 1 -8.888 44.948 12.677
1522 1 40.797 53.341 23.382
1523 1 40.971 45.874 14.584
1524 1 37.197 50.739 23.113
1525 1 16.765 44.858 -37.633
1526 1 15.567 39.122 -46.169
1527 1 20.730 44.177 -38.276
1528 1 55.287 27.596 20.469
1529 1 62.807 25.803 31.509
1530 1 63.573 15.119 25.121
1531 1 37.164 39.112 13.306
1532 1 31.124 31.826 26.718
1533 1 36.586 29.011 22.189
1534 1 62.249 16.809 29.750
1535 1 51.061 20.070 16.751
1536 1 52.537 19.527 13.531
1537 1 70.016 61.649 29.194
1538 1 68.113 54.672 40.338
1539 1 65.348 57.622 26.945
1540 1 85.176 24.766 19.805
1541 1 70.741 27.931 10.347
1542 1 77.660 17.680 9.636
1543 1 63.248 46.750 2.310
1544 1 69.486 45.329 -5.098
1545 1 63.354 35.789 8.265
1546 1 -22.407 -10.748 30.491
1547 1 -20.094 -9.893 27.162
1548 1 -21.144 -9.978 49.297
1549 1 7.636 34.218 -20.414
1550 1 14.644 34.216 -28.566
1551 1 10.250 36.253 -27.067
1552 1 20.682 4.892 10.532
1553 1 18.759 4.447 13.629
1554 1 19.435 4.744 13.435
1555 1 4.373 38.475 15.855
1556 1 14.225 35.692 28.005
1557 1 17.734 44.248 19.678
1558 1 -23.112 32.063 4.275
1559 1 -17.658 24.714 -17.679
1560 1 -30.112 30.471 -2.814
1561 1 36.888 22.794 -14.932
1562 1 36.813 32.646 -14.676
1563 1 26.923 34.336 -19.158
1564 1 31.834 21.151 17.852
1565 1 23.815 31.631 27.673
1566 1 23.337 27.985 26.654
1567 1 15.920 -18.667 0.964
1568 1 33.175 -13.645 1.945
1569 1 16.614 -24.237 -3.761
1570 1 60.861 61.781 36.060
1571 1 54.363 56.336 46.538
1572 1 62.480 53.706 47.815
1573 1 91.324 62.842 12.753
1574 1 86.881 74.970 10.391
1575 1 88.433 75.824 2.662
1576 1 23.383 5.248 -25.174
1577 1 23.590 9.135 -16.148
1578 1 22.483 -0.085 -4.222
1579 1 27.024 38.871 23.217
1580 1 16.233 41.240 19.404
1581 1 24.624 42.730 18.706
1582 1 44.452 14.029 -23.812
1583 1 49.225 17.034 -13.580
1584 1 40.861 15.944 -12.472
1585 1 21.396 20.070 5.876
1586 1 16.775 53.889 14.927
1587 1 11.676 31.234 12.318
1588 1 -22.520 30.537 -1.194
1589 1 -20.416 28.905 1.227
1590 1 -21.833 31.076 -1.541
1591 1 -27.448 71.796 -21.160
1592 1 -13.912 74.944 -19.028
1593 1 -23.669 73.246 -10.286
1594 1 2.353 61.176 25.778
1595 1 8.535 64.817 34.870
1596 1 -1.283 57.440 16.854
1597 1 9.923 -10.965 -0.445
1598 1 5.575 -19.555 1.078
1599 1 7.660 -9.221 9.765
1600 1 -1.582 19.834 11.100
1601 1 0.530 36.620 13.132
1602 1 -5.396 26.200 18.182
1603 1 15.580 83.156 29.780
1604 1 7.011 77.491 42.193
1605 1 10.163 81.715 29.120
1606 1 8.241 8.465 29.832
1607 1 7.366 11.115 12.330
1608 1 -0.783 13.488 16.947
1609 1 32.350 42.655 27.291
1610 1 38.880 39.774 20.916
1611 1 41.991 38.892 28.290
1612 1 22.929 34.555 7.935
1613 1 21.343 28.019 2.667
1614 1 20.727 29.348 7.800
1615 1 21.656 25.489 -22.730
1616 1 19.506 36.880 -9.862
1617 1 15.057 33.655 -29.356
1618 1 58.300 11.314 7.089
1619 1 53.319 4.431 1.664
1620 1 59.401 0.962 0.653
1621 1 57.354 -5.172 22.967
1622 1 55.012 -7.297 2.538
1623 1 55.302 -5.588 25.524
1624 1 -10.527 12.342 -21.328
1625 1 -11.229 8.938 -32.185
1626 1 -11.634 7.737 -31.821
1627 1 -11.515 57.392 -12.137
1628 1 -6.768 55.350 -4.537
1629 1 -7.040 50.114 1.648
1630 1 7.619 49.707 29.375
1631 1 2.054 59.952 24.464
1632 1 1.056 55.005 31.254
1633 1 -6.331 46.985 63.317
1634 1 -7.797 42.044 48.784
1635 1 -4.951 42.288 46.572
1636 1 -1.273 53.522 17.324
1637 1 -6.726 61.934 24.426
1638 1 -1.401 60.997 21.961
1639 1 24.717 36.673 25.776
1640 1 40.394 37.105 12.603
1641 1 42.437 38.370 24.527
1642 1 44.992 53.128 -5.341
1643 1 45.292 64.565 -13.376
1644 1 38.832 53.553 2.033
1645 1 38.066 51.340 43.976
1646 1 37.249 50.268 26.863
1647 1 30.482 34.740 30.416
1648 1 14.030 79.956 -7.896
1649 1 6.372 83.614 -24.490
1650 1 2.319 84.656 -26.782
1651 1 7.496 78.589 -0.671
1652 1 3.015 89.905 7.017
1653 1 1.448 88.922 1.411
1654 1 33.926 15.251 37.682
1655 1 26.751 15.953 42.662
1656 1 17.070 10.378 49.751
1657 1 35.274 -16.307 -14.448
1658 1 37.983 -13.336 -20.770
1659 1 40.542 -16.365 -6.707
1660 1 97.715 23.211 2.453
1661 1 95.703 16.417 1.108
1662 1 94.139 29.394 10.983
1663 1 -9.285 24.960 10.289
1664 1 -18.264 20.326 -1.177
1665 1 -12.697 30.926 1.132
1666 1 -5.887 49.543 32.880
1667 1 -0.986 56.520 25.673
1668 1 -5.785 53.134 31.645
1669 1 21.780 85.171 3.164
1670 1 19.361 88.761 16.501
1671 1 19.767 84.061 18.569
1672 1 3.861 47.825 0.296
1673 1 5.382 43.684 -8.363
1674 1 -5.388 46.952 6.080
1675 1 5.820 82.731 -0.684
1676 1 0.081 71.454 14.715
1677 1 -1.066 63.659 -6.606
1678 1 26.660 6.378 -2.590
1679 1 27.173 4.158 -1.461
1680 1 30.132 7.741 4.549
1681 1 -13.203 62.720 20.742
1682 1 -12.061 53.578 21.032
1683 1 -11.102 58.992 20.406
1684 1 18.400 66.004 57.891
1685 1 19.333 60.515 62.445
1686 1 23.027 67.234 42.561
1687 1 46.536 78.890 -12.722
1688 1 42.105 92.158 -18.100
1689 1 41.350 75.350 -16.866
1690 1 0.684 6.008 -13.484
1691 1 6.123 12.663 -2.893
1692 1 6.674 10.978 0.731
1693 1 9.594 -14.112 34.374
1694 1 14.664 -8.827 30.989
1695 1 12.816 -3.960 31.422
1696 1 38.329 44.872 -14.835
1697 1 38.182 42.034 -8.139
1698 1 32.541 36.342 -16.264
1699 1 37.148 25.129 22.520
1700 1 45.395 32.293 25.969
1701 1 37.733 32.083 28.800
1702 1 5.222 15.029 28.916
1703 1 3.685 1.452 21.132
1704 1 13.203 7.932 26.296
1705 1 -35.072 23.732 1.238
1706 1 -36.877 17.169 -1.103
1707 1 -28.211 8.753 14.186
1708 1 -9.419 -18.395 33.758
1709 1 -6.717 -5.942 35.458
1710 1 -11.103 -11.712 29.686
1711 1 32.558 12.004 -16.571
1712 1 47.495 10.529 -7.553
1713 1 38.344 7.554 -5.354
1714 1 15.727 18.857 12.965
1715 1 17.544 12.644 29.740
1716 1 20.719 15.091 24.531
1717 1 11.275 48.976 28.476
1718 1 8.571 37.607 34.967
1719 1 10.434 40.636 31.142
1720 1 -5.995 22.002 25.252
1721 1 -8.654 14.727 40.101
1722 1 -9.272 13.364 32.622
1723 1 51.097 8.857 24.721
1724 1 44.313 1.118 22.706
1725 1 50.857 -9.634 24.535
1726 1 41.435 -22.082 1.155
1727 1 42.882 -34.671 -6.196
1728 1 55.032 -28.786 -11.496
1729 1 48.823 25.127 11.047
1730 1 40.157 21.806 6.919
1731 1 39.555 30.524 27.077
1732 1 37.752 7.643 19.201
1733 1 44.902 -3.950 17.595
1734 1 49.478 -2.315 0.826
1735 1 36.816 -35.349 6.559
1736 1 34.147 -31.212 11.019
1737 1 32.372 -34.445 3.111
1738 1 38.233 2.733 31.685
1739 1 46.043 16.054 16.354
1740 1 47.386 0.322 15.586
1741 1 16.041 1.290 -8.867
1742 1 21.117 7.788 -1.566
1743 1 19.806 2.334 -17.309
1744 1 23.390 7.636 -16.619
1745 1 14.367 4.656 -0.999
1746 1 18.806 12.880 6.251
1747 1 -2.997 1.279 4.480
1748 1 8.514 -7.315 8.156
1749 1 1.505 -1.890 4.287
1750 1 29.333 26.300 38.025
1751 1 26.113 15.943 29.260
1752 1 26.698 16.903 35.597
1753 1 -16.221 -5.952 -32.317
1754 1 -16.527 -1.679 -43.884
1755 1 -12.366 6.326 -30.414
1756 1 -17.743 -9.675 13.116
1757 1 -13.581 -6.370 15.016
1758 1 -4.908 -2.955 16.713
1759 1 31.315 -11.153 3.954
1760 1 21.609 -9.466 4.377
1761 1 23.728 -10.194 2.245
1762 1 41.123 12.216 8.468
1763 1 32.730 7.459 19.551
1764 1 38.045 11.530 16.521
1765 1 17.695 -22.210 41.824
1766 1 12.777 -21.274 47.136
1767 1 16.620 -18.098 54.909
1768 1 42.761 25.322 2.604
1769 1 40.969 22.970 6.561
1770 1 37.546 23.927 10.438
1771 1 22.680 -3.914 32.110
1772 1 18.179 -7.966 33.943
1773 1 18.706 -8.567 35.718
1774 1 45.280 30.546 -10.584
1775 1 43.289 23.972 -7.544
1776 1 44.446 23.665 -21.207
1777 1 52.820 0.825 8.025
1778 1 50.440 -2.192 -8.213
1779 1 48.932 15.202 -11.230
1780 1 -10.359 16.078 -3.047
1781 1 -3.370 18.207 -10.328
1782 1 -3.539 13.502 -3.358
1783 1 -50.126 35.523 -5.034
1784 1 -38.005 30.336 -14.302
1785 1 -40.724 32.418 4.565
1786 1 22.997 19.652 18.657
1787 1 20.422 29.111 15.770
1788 1 20.966 21.911 16.547
1789 1 7.045 29.646 6.795
1790 1 -6.672 21.988 9.069
1791 1 -12.080 27.533 3.069
1792 1 35.601 -8.389 8.844
1793 1 27.731 -0.541 9.192
1794 1 20.723 -6.415 5.420
1795 1 12.680 18.178 -2.034
1796 1 7.039 16.847 -4.486
1797 1 8.585 11.870 0.296
1798 1 22.264 -10.564 21.265
1799 1 18.366 -7.306 29.755
1800 1 20.445 -4.068 22.764
1801 1 48.470 35.162 21.975
1802 1 39.791 40.217 21.167
1803 1 41.022 41.598 17.416
1804 1 58.262 8.521 19.357
1805 1 53.773 0.597 11.191
1806 1 58.746 -9.108 20.418
1807 1 31.451 -7.566 19.818
1808 1 35.766 -2.377 23.356
1809 1 38.858 -3.058 20.765
1810 1 60.638 12.640 7.260
1811 1 70.665 7.947 19.383
1812 1 59.076 9.930 20.014
1813 1 0.729 0.441 53.904
1814 1 5.547 -3.906 30.971
1815 1 8.784 0.889 37.937
1816 1 36.416 8.645 16.558
1817 1 34.023 -13.931 15.520
1818 1 33.918 4.998 14.955
1819 1 -3.267 19.335 15.200
1820 1 0.927 18.335 17.109
1821 1 -6.527 21.239 27.190
1822 1 -11.020 -7.119 53.773
1823 1 -8.620 -10.904 55.267
1824 1 -3.347 -0.635 56.793
1825 1 -21.997 -20.935 1.064
1826 1 -21.507 -27.333 15.862
1827 1 -25.595 -23.718 8.938
1828 1 34.713 -22.536 8.385
1829 1 34.671 -33.506 18.611
1830 1 34.946 -18.931 8.662
1831 1 -12.991 13.055 6.930
1832 1 -11.434 17.254 -2.419
1833 1 -16.466 24.026 10.246
1834 1 54.839 13.119 25.344
1835 1 50.432 11.534 15.761
1836 1 51.417 13.542 14.383
1837 1 45.431 43.981 -17.882
1838 1 42.053 39.225 -15.386
1839 1 42.098 41.816 -7.771
1840 1 18.607 2.383 55.639
1841 1 18.943 8.292 62.069
1842 1 21.340 0.289 54.827
1843 1 17.902 34.056 -11.886
1844 1 19.214 21.303 -19.074
1845 1 22.386 33.865 -14.279
1846 1 77.786 0.241 12.466
1847 1 76.782 5.932 12.379
1848 1 74.098 -4.108 8.281
1849 1 11.597 -1.403 31.889
1850 1 21.378 -1.635 43.514
1851 1 14.263 14.420 42.740
1852 1 61.370 18.439 19.740
1853 1 70.495 17.936 2.792
1854 1 65.705 20.116 3.800
1855 1 8.899 -26.055 23.689
1856 1 6.071 -29.761 22.995
1857 1 10.201 -38.315 15.254
1858 1 -11.301 75.882 4.599
1859 1 -11.213 72.231 7.533
1860 1 -4.362 75.732 11.389
1861 1 -43.991 36.391 75.095
1862 1 -34.972 34.352 53.050
1863 1 -37.890 34.337 59.690
1864 1 15.564 -22.740 3.414
1865 1 14.710 -19.841 1.564
1866 1 13.655 -20.681 4.048
1867 1 2.390 -9.083 -9.629
1868 1 0.828 1.472 -12.934
1869 1 7.994 -11.008 -6.465
1870 1 -16.521 79.658 20.300
1871 1 -14.396 87.587 21.280
1872 1 -13.322 87.824 30.762
1873 1 28.399 6.995 -28.195
1874 1 23.419 7.204 -19.607
1875 1 35.858 10.930 -28.197
1876 1 -5.763 17.719 38.320
1877 1 -13.440 17.058 29.441
1878 1 -9.688 15.564 38.253
1879 1 -5.345 27.823 36.545
1880 1 -2.364 23.701 23.138
1881 1 5.153 27.501 41.996
1882 1 -7.708 2.337 55.280
1883 1 -3.155 5.108 45.328
1884 1 -16.082 -1.586 63.166
1885 1 -4.827 21.364 23.532
1886 1 2.196 24.806 17.686
1887 1 3.477 29.321 20.756
1888 1 32.417 16.893 -31.190
1889 1 43.423 17.064 -18.293
1890 1 39.879 11.480 -17.461
1891 1 35.686 -18.130 19.656
1892 1 21.842 -12.379 15.062
1893 1 30.735 -10.919 13.150
1894 1 82.125 32.423 -40.535
1895 1 70.970 22.957 -44.787
1896 1 79.824 19.004 -31.466
1897 1 -54.159 28.155 28.217
1898 1 -50.394 29.539 34.763
1899 1 -56.232 27.874 50.490
1900 1 -27.210 33.223 3.578
1901 1 -27.355 36.376 -8.724
1902 1 -24.032 32.076 0.746
1903 1 -10.715 -8.086 3.801
1904 1 -13.518 6.073 -5.355
1905 1 -12.150 -3.713 5.229
1906 1 48.034 -11.714 10.257
1907 1 50.107 -1.887 16.735
1908 1 52.591 -8.315 25.781
1909 1 19.582 -19.699 -17.041
1910 1 19.250 -19.971 -16.701
1911 1 20.763 -27.032 -13.461
1912 1 21.885 47.658 -12.717
1913 1 20.950 54.570 -1.935
1914 1 40.954 53.138 11.632
1915 1 40.262 3.135 3.507
1916 1 38.893 19.825 5.484
1917 1 42.644 8.949 -6.597
1918 1 19.054 -3.662 3.077
1919 1 14.803 0.009 12.258
1920 1 19.719 4.769 18.829
1921 1 36.967 51.875 21.788
1922 1 30.647 47.218 7.040
1923 1 36.871 43.213 8.712
1924 1 -7.550 22.197 51.453
1925 1 -1.909 6.022 49.551
1926 1 -1.965 6.837 47.319
1927 1 -6.887 19.975 -0.360
1928 1 -14.576 13.165 -1.251
1929 1 -2.801 14.653 1.045
1930 1 5.842 1.226 -19.663
1931 1 -3.708 9.220 2.661
1932 1 -2.070 4.600 -17.357
1933 1 0.884 20.798 -11.709
1934 1 -6.857 14.599 -27.633
1935 1 -3.033 19.739 -22.886
1936 1 22.951 31.986 -8.573
1937 1 20.002 22.172 -22.573
1938 1 26.440 36.062 -11.616
1939 1 47.569 15.340 27.738
1940 1 43.165 16.130 34.483
1941 1 47.229 13.352 17.430
1942 1 58.929 25.429 -15.703
1943 1 62.706 17.331 -44.314
1944 1 65.261 22.882 -20.399
1945 1 33.128 21.293 22.605
1946 1 28.612 29.845 41.444
1947 1 35.221 20.662 37.082
1948 1 36.057 26.695 20.796
1949 1 35.647 20.964 33.892
1950 1 34.911 20.712 16.426
1951 1 16.311 56.334 15.826
1952 1 13.659 51.047 19.152
1953 1 13.650 55.362 15.431
1954 1 12.071 22.154 20.733
1955 1 6.026 27.046 25.642
1956 1 4.858 30.829 28.155
1957 1 13.786 35.591 24.490
1958 1 12.506 29.439 16.878
1959 1 17.950 38.907 33.986
1960 1 -4.940 18.237 -34.510
1961 1 -0.032 24.104 -14.198
1962 1 4.822 20.806 -27.715
1963 1 39.871 62.302 -5.615
1964 1 37.170 69.735 -10.165
1965 1 40.056 69.732 -7.177
1966 1 23.977 -14.908 0.990
1967 1 21.334 -6.554 9.967
1968 1 25.243 -13.798 12.751
1969 1 -49.457 -8.917 46.376
1970 1 -46.473 -9.003 52.377
1971 1 -37.671 -11.611 59.415
1972 1 29.097 23.846 -4.224
1973 1 30.334 23.970 -15.053
1974 1 25.647 20.719 -7.780
1975 1 55.198 42.302 51.718
1976 1 45.655 32.414 56.363
1977 1 60.983 27.442 42.022
1978 1 2.319 -25.788 8.379
1979 1 3.636 -25.743 4.160
1980 1 1.179 -31.616 -6.897
1981 1 -16.208 35.997 37.331
1982 1 -12.742 26.496 43.470
1983 1 -16.671 26.805 40.289
1984 1 -3.293 47.421 15.800
1985 1 -2.978 56.432 21.845
1986 1 -2.394 62.750 21.831
1987 1 10.499 21.878 18.337
1988 1 12.336 18.009 26.410
1989 1 14.628 22.055 32.849
1990 1 38.572 45.612 19.766
1991 1 35.932 45.103 -2.522
1992 1 33.411 42.492 11.089
1993 1 5.068 5.595 19.762
1994 1 4.433 8.794 19.695
1995 1 -4.308 6.589 6.468
1996 1 20.787 29.134 13.064
1997 1 20.920 23.630 -0.998
1998 1 27.975 30.858 6.373
1999 1 36.674 -11.391 21.102
2000 1 25.021 -3.689 14.204
2001 1 26.945 -8.119 7.862
2002 1 5.218 21.786 34.836
2003 1 0.861 23.078 41.424
2004 1 -0.352 19.545 37.104
2005 1 38.573 24.666 41.233
2006 1 47.884 25.794 34.197
2007 1 42.039 24.741 39.223
2008 1 25.333 10.827 -4.659
2009 1 24.237 10.412 -6.646
2010 1 27.597 20.737 -11.012
2011 1 57.751 25.119 21.434
2012 1 48.849 18.431 15.824
2013 1 51.989 16.359 17.412
2014 1 -0.759 22.237 -2.628
2015 1 1.268 25.690 13.809
2016 1 -2.764 24.789 2.025
2017 1 22.152 -0.990 2.907
2018 1 19.097 -2.949 4.790
2019 1 3.538 -6.024 6.192
2020 1 -28.511 -10.751 0.549
2021 1 -36.660 6.023 -13.027
2022 1 -40.470 -8.303 -5.972
2023 1 32.392 28.498 65.139
2024 1 24.284 30.249 63.956
2025 1 25.181 26.913 69.144
2026 1 -26.253 57.805 45.947
2027 1 -18.917 49.331 32.974
2028 1 -18.027 51.320 34.363
2029 1 -22.015 55.915 20.596
2030 1 -25.488 46.688 36.146
2031 1 -17.732 54.772 31.643
2032 1 15.007 44.511 23.255
2033 1 9.679 45.934 23.509
2034 1 12.756 38.131 1.352
2035 1 0.847 27.355 17.383
2036 1 5.284 40.820 20.017
2037 1 -5.693 23.813 30.156
2038 1 -21.851 31.277 11.195
2039 1 -30.263 30.207 -1.819
2040 1 -28.504 30.190 14.018
2041 1 42.583 29.295 -26.093
2042 1 34.917 31.856 -16.127
2043 1 37.974 28.547 -14.984
2044 1 40.422 39.311 60.707
2045 1 34.635 34.438 54.465
2046 1 35.445 36.549 50.270
2047 1 50.076 70.658 6.233
2048 1 51.828 65.022 5.590
2049 1 55.205 64.536 -2.968
2050 1 44.574 17.018 2.746
2051 1 42.389 22.243 16.482
2052 1 44.896 25.414 26.461
2053 1 -6.351 36.488 44.184
2054 1 -14.266 32.130 51.094
2055 1 -12.449 33.167 48.088
2056 1 -33.399 33.606 12.158
2057 1 -28.874 32.663 6.077
2058 1 -32.184 40.731 13.679
2059 1 -5.414 50.139 -11.202
2060 1 -10.126 59.475 9.369
2061 1 -16.534 52.537 8.089
2062 1 -32.688 31.589 0.774
2063 1 -27.030 20.260 -0.327
2064 1 -30.600 33.143 2.696
2065 1 23.829 62.851 2.461
2066 1 20.665 61.392 0.172
2067 1 20.936 61.605 -2.793
2068 1 -5.943 22.356 25.809
2069 1 -10.485 20.997 22.225
2070 1 -2.978 25.743 25.968
2071 1 11.276 30.470 53.942
2072 1 4.097 30.812 49.154
2073 1 4.167 33.033 51.604
2074 1 19.713 43.990 8.226
2075 1 19.873 41.105 6.145
2076 1 13.607 45.281 -11.973
2077 1 29.443 73.269 22.901
2078 1 17.075 82.199 36.261
2079 1 27.627 78.619 17.254
2080 1 3.241 39.580 74.703
2081 1 8.805 49.754 87.348
2082 1 1.329 44.766 84.779
2083 1 53.456 57.564 -24.113
2084 1 55.153 59.307 -16.708
2085 1 44.115 56.751 -15.861
2086 1 29.404 31.289 4.838
2087 1 25.061 29.558 -3.860
2088 1 30.224 28.303 6.418
2089 1 84.055 8.564 23.788
2090 1 83.316 10.132 34.714
2091 1 84.672 12.902 19.078
2092 1 20.147 78.523 10.296
2093 1 22.112 71.740 10.207
2094 1 14.140 67.556 20.602
2095 1 28.241 54.500 15.079
2096 1 34.761 55.986 10.722
2097 1 35.781 46.263 7.707
2098 1 -9.220 30.121 19.188
2099 1 -8.018 25.680 15.687
2100 1 -5.497 25.689 14.607
2101 1 12.712 20.113 4.775
2102 1 10.875 27.109 22.591
2103 1 14.946 27.891 6.447
2104 1 25.101 52.229 30.372
2105 1 32.389 55.893 22.994
2106 1 30.394 51.049 22.239
2107 1 17.578 14.964 0.782
2108 1 15.392 14.388 2.413
2109 1 12.373 19.588 14.532
2110 1 -36.974 41.991 12.348
2111 1 -45.212 46.556 13.191
2112 1 -33.700 25.443 17.589
2113 1 9.904 28.963 4.516
2114 1 2.468 32.718 18.454
2115 1 4.855 37.245 13.173
2116 1 56.606 42.004 4.413
2117 1 51.184 37.892 8.426
2118 1 56.842 39.038 0.111
2119 1 0.770 22.163 16.340
2120 1 -0.311 20.760 25.993
2121 1 -7.297 21.690 28.338
2122 1 48.611 69.556 -5.727
2123 1 51.489 76.256 -3.843
2124 1 47.875 70.818 -10.985
2125 1 28.763 78.271 -21.924
2126 1 30.585 80.869 -17.506
2127 1 33.830 86.867 -23.329
2128 1 59.711 -6.783 -3.405
2129 1 58.230 4.727 -6.109
2130 1 62.662 8.999 -3.851
2131 1 60.907 72.310 15.539
2132 1 60.440 69.740 22.732
2133 1 63.776 78.781 28.842
2134 1 -4.638 -9.878 -11.010
2135 1 -6.965 -11.353 -14.650
2136 1 -10.639 -10.935 -10.734
2137 1 -35.850 82.539 -15.409
2138 1 -37.079 70.752 -23.624
2139 1 -24.856 81.451 -19.841
2140 1 8.367 76.140 14.065
2141 1 -1.654 76.528 17.311
2142 1 -2.742 64.473 22.360
2143 1 13.108 81.862 49.125
2144 1 5.448 84.619 48.845
2145 1 9.083 76.521 46.351
2146 1 -12.990 38.573 -10.571
2147 1 -13.310 36.307 -24.411
2148 1 -13.686 34.891 -17.027
2149 1 17.640 34.229 9.368
2150 1 21.533 27.865 -3.096
2151 1 21.954 34.547 4.186
2152 1 50.400 59.881 44.575
2153 1 52.733 66.350 53.289
2154 1 49.915 53.511 44.802
2155 1 29.963 68.821 11.059
2156 1 22.837 70.048 2.760
2157 1 29.948 78.750 -3.580
2158 1 32.425 90.388 13.241
2159 1 37.453 89.294 26.177
2160 1 42.700 99.579 27.111
2161 1 17.610 91.166 -8.818
2162 1 24.075 84.899 -11.420
2163 1 16.874 80.460 -2.941
2164 1 34.802 29.421 35.382
2165 1 39.269 38.891 35.580
2166 1 32.116 26.280 39.896
2167 1 72.168 13.407 -14.969
2168 1 63.424 11.057 -15.862
2169 1 65.974 25.108 -13.349
2170 1 44.416 25.777 -5.055
2171 1 37.228 22.988 -17.594
2172 1 41.545 23.211 -16.933
2173 1 -12.139 -9.581 -17.479
2174 1 -21.853 -13.495 -25.218
2175 1 -25.837 -17.170 -9.789
2176 1 -37.975 -8.806 22.457
2177 1 -26.754 -3.658 33.573
2178 1 -34.627 -11.706 43.776
2179 1 -19.020 15.668 9.052
2180 1 -12.999 16.533 7.802
2181 1 -17.824 21.742 -2.329
2182 1 32.451 8.625 18.906
2183 1 39.867 11.091 19.307
2184 1 32.321 10.928 18.428
2185 1 -1.018 -26.375 6.906
2186 1 -4.933 -20.401 23.984
2187 1 -2.851 -38.298 10.717
2188 1 -12.129 -28.690 -18.300
2189 1 -14.285 -31.161 -24.410
2190 1 -19.314 -23.054 -18.473
2191 1 17.614 -12.878 -3.425
2192 1 23.238 -19.890 -13.788
2193 1 20.892 -16.140 -3.006
2194 1 62.251 -17.983 42.752
2195 1 74.009 -23.816 40.152
2196 1 67.774 -15.636 34.509
2197 1 35.246 -22.464 2.235
2198 1 27.182 -25.609 11.552
2199 1 41.756 -42.634 3.821
2200 1 33.197 4.823 9.147
2201 1 31.539 -4.188 15.318
2202 1 30.339 -13.906 13.300
2203 1 32.020 19.642 -9.386
2204 1 30.015 21.738 -1.426
2205 1 51.633 33.605 -11.083
2206 1 107.790 6.649 40.499
2207 1 107.270 0.402 29.637
2208 1 107.761 3.468 26.173
2209 1 97.082 7.258 9.995
2210 1 89.782 -4.274 21.246
2211 1 97.661 4.223 6.912
2212 1 -6.736 30.023 8.578
2213 1 -21.766 35.157 24.504
2214 1 -22.321 44.374 14.951
2215 1 -4.560 -19.007 10.435
2216 1 4.206 -26.558 -4.389
2217 1 6.221 -18.641 2.133
2218 1 -14.315 -26.615 23.636
2219 1 -16.779 -21.356 12.887
2220 1 -6.265 -21.917 7.664
2221 1 63.389 -9.712 11.432
2222 1 58.282 -4.718 2.687
2223 1 60.323 -3.572 1.573
2224 1 13.868 19.442 56.189
2225 1 13.479 18.424 66.944
2226 1 12.916 15.024 69.626
2227 1 16.913 -28.312 54.492
2228 1 23.254 -37.349 43.765
2229 1 17.254 -36.889 42.251
2230 1 14.282 9.282 -1.021
2231 1 15.526 22.420 11.332
2232 1 20.539 11.962 13.405
2233 1 -8.923 -18.544 39.522
2234 1 -11.383 -5.213 38.572
2235 1 -17.484 -14.949 36.045
2236 1 61.391 -4.258 32.691
2237 1 51.336 -0.619 20.257
2238 1 53.141 -3.581 30.741
2239 1 51.083 -32.453 2.010
2240 1 48.802 -28.391 -4.811
2241 1 52.701 -25.202 -3.371
2242 1 44.734 6.667 7.826
2243 1 45.008 3.192 -4.518
2244 1 47.503 9.321 2.215
2245 1 60.751 8.063 41.526
2246 1 59.482 5.251 44.287
2247 1 55.030 3.749 44.474
2248 1 11.857 -33.829 -10.701
2249 1 7.859 -32.938 -11.605
2250 1 11.576 -27.426 -6.896
2251 1 -56.724 -7.181 21.414
2252 1 -57.427 -7.143 25.882
2253 1 -55.578 -8.795 34.039
2254 1 13.161 -13.679 35.707
2255 1 9.010 -17.364 25.455
2256 1 7.834 -18.287 28.832
2257 1 -6.217 52.215 11.531
2258 1 -3.349 40.205 21.817
2259 1 -9.191 48.019 24.861
2260 1 42.362 57.619 28.533
2261 1 45.671 42.896 21.403
2262 1 42.280 51.262 25.741
2263 1 6.798 35.925 7.853
2264 1 12.881 31.517 7.780
2265 1 7.701 17.719 10.585
2266 1 -8.972 -1.941 12.607
2267 1 -1.790 3.772 10.589
2268 1 -2.306 -2.507 0.795
2269 1 -4.796 37.212 54.122
2270 1 -1.464 37.140 52.694
2271 1 -0.460 34.053 62.418
2272 1 12.434 15.553 27.520
2273 1 16.994 16.966 31.302
2274 1 9.394 19.747 24.906
2275 1 20.691 -33.821 21.375
2276 1 27.198 -27.215 27.218
2277 1 25.275 -25.014 24.509
2278 1 23.249 28.222 -12.580
2279 1 17.539 36.339 -12.345
2280 1 22.188 21.585 -16.506
2281 1 30.361 6.715 24.613
2282 1 31.271 2.952 29.044
2283 1 29.704 5.337 21.989
2284 1 35.295 39.077 -11.325
2285 1 42.155 41.759 -5.017
2286 1 29.565 40.710 -1.847
2287 1 43.721 53.638 21.449
2288 1 36.940 58.708 25.726
2289 1 41.016 40.608 21.691
2290 1 -9.171 68.012 -30.818
2291 1 1.211 63.710 -35.264
2292 1 -15.835 65.574 -26.789
2293 1 22.484 -11.390 14.085
2294 1 10.954 -8.037 18.902
2295 1 18.061 -10.365 18.849
2296 1 -14.297 -28.358 46.032
2297 1 -10.994 -17.679 52.932
2298 1 -20.556 -22.318 37.456
2299 1 -39.363 1.295 32.278
2300 1 -34.476 2.631 20.077
2301 1 -41.550 -7.449 5.628
2302 1 41.608 20.181 -18.785
2303 1 34.761 6.700 -15.141
2304 1 40.408 16.346 -23.525
2305 1 -1.192 24.414 61.436
2306 1 10.450 30.142 61.631
2307 1 -1.399 21.985 46.130
2308 1 45.620 52.929 16.024
2309 1 43.194 52.474 19.915
2310 1 40.728 54.914 22.096
2311 1 26.403 7.252 -2.568
2312 1 17.629 17.300 0.363
2313 1 28.552 -4.943 -0.739
2314 1 12.027 1.867 21.499
2315 1 27.357 -13.406 30.960
2316 1 27.092 -5.818 30.816
2317 1 18.161 4.098 -22.719
2318 1 24.275 8.297 -31.341
2319 1 17.789 4.903 -40.634
2320 1 -1.642 -21.780 4.584
2321 1 -0.778 -11.687 1.862
2322 1 -0.708 -20.441 8.007
2323 1 28.095 18.778 28.657
2324 1 23.196 24.334 21.387
2325 1 31.336 17.702 30.356
2326 1 45.490 37.007 28.674
2327 1 54.069 43.848 26.920
2328 1 47.659 38.581 30.052
2329 1 -12.591 41.065 -0.386
2330 1 -10.777 43.212 -9.276
2331 1 -16.209 29.499 -2.251
2332 1 -3.918 30.035 50.594
2333 1 -1.887 38.507 42.815
2334 1 -1.417 38.317 57.390
2335 1 24.114 -47.293 18.932
2336 1 22.075 -32.994 21.583
2337 1 26.284 -45.991 15.859
2338 1 66.862 57.073 15.474
2339 1 61.307 65.345 8.891
2340 1 66.733 62.775 6.583
2341 1 2.675 39.069 -4.551
2342 1 3.534 43.926 18.059
2343 1 -3.219 40.838 -10.056
2344 1 29.522 72.692 41.463
2345 1 17.670 72.749 27.278
2346 1 22.833 73.142 30.969
2347 1 3.887 44.035 -24.791
2348 1 -4.384 49.869 -25.528
2349 1 3.117 46.930 -22.607
2350 1 34.223 12.768 -18.773
2351 1 22.005 13.494 -23.166
2352 1 17.941 24.610 -29.500
2353 1 0.477 76.486 30.786
2354 1 0.745 76.377 36.233
2355 1 -6.292 80.026 25.588
2356 1 0.810 -10.322 52.609
2357 1 0.255 -12.264 33.145
2358 1 -2.196 -10.979 31.703
2359 1 -36.702 29.093 24.256
2360 1 -25.924 32.730 13.471
2361 1 -32.025 24.526 24.016
2362 1 -6.467 35.846 -9.345
2363 1 -4.073 44.211 -2.930
2364 1 -18.159 41.956 -10.551
2365 1 6.403 -9.151 28.582
2366 1 8.897 -4.576 18.721
2367 1 14.095 -16.261 30.928
2368 1 64.241 21.517 42.675
2369 1 75.087 31.432 36.586
2370 1 78.386 27.610 30.081
2371 1 -5.652 27.012 60.308
2372 1 -18.532 37.097 48.952
2373 1 -16.412 36.042 54.585
2374 1 15.645 19.973 -4.241
2375 1 13.527 22.971 -3.529
2376 1 20.831 18.612 -17.351
2377 1 8.517 42.746 81.977
2378 1 14.338 33.749 67.348
2379 1 15.375 34.660 69.015
2380 1 45.461 54.173 -36.129
2381 1 49.408 60.773 -24.276
2382 1 41.679 64.012 -26.228
2383 1 28.790 26.242 6.072
2384 1 33.963 27.922 -4.073
2385 1 32.318 36.521 -0.617
2386 1 -43.986 3.155 78.007
2387 1 -43.592 0.453 81.808
2388 1 -39.935 17.634 89.051
2389 1 -45.329 -8.006 35.633
2390 1 -37.114 -5.633 43.896
2391 1 -36.013 -7.426 26.200
2392 1 -44.337 41.946 10.119
2393 1 -52.944 37.891 17.992
2394 1 -53.869 31.080 31.083
2395 1 0.578 19.132 22.267
2396 1 1.115 14.280 32.411
2397 1 -5.160 21.463 25.996
2398 1 27.736 24.884 31.536
2399 1 30.672 18.387 20.268
2400 1 26.113 33.357 33.115
2401 1 40.623 36.575 14.372
2402 1 38.447 34.724 6.620
2403 1 45.147 38.967 0.908
2404 1 -1.604 41.466 8.569
2405 1 -3.899 50.261 10.682
2406 1 -7.192 50.780 14.050
2407 1 52.510 83.750 -20.530
2408 1 53.989 83.048 -28.139
2409 1 50.750 87.554 -16.215
2410 1 65.235 19.011 39.891
2411 1 50.557 24.144 22.144
2412 1 51.729 25.523 35.367
2413 1 39.980 42.457 24.020
2414 1 43.597 47.399 24.618
2415 1 39.341 46.092 29.237
2416 1 -5.338 43.393 21.929
2417 1 -5.076 43.055 -0.154
2418 1 -16.363 33.308 30.706
2419 1 -10.368 21.779 12.796
2420 1 -1.505 25.889 10.270
2421 1 -2.005 36.385 17.760
2422 1 29.029 47.086 43.730
2423 1 25.855 43.607 44.903
2424 1 29.365 50.927 53.459
2425 1 20.688 95.297 4.099
2426 1 27.554 104.650 12.351
2427 1 26.072 101.673 9.259
2428 1 -28.664 6.803 31.175
2429 1 -18.198 14.673 31.385
2430 1 -23.457 14.276 41.039
2431 1 3.794 -1.367 11.289
2432 1 -4.539 -0.648 35.038
2433 1 0.286 -3.093 40.028
2434 1 -0.040 72.031 25.125
2435 1 10.080 65.176 19.192
2436 1 -2.171 66.190 11.717
2437 1 17.443 29.491 51.203
2438 1 30.505 33.703 55.049
2439 1 22.450 42.648 52.494
2440 1 31.394 53.125 14.292
2441 1 44.818 50.720 16.925
2442 1 39.984 41.482 18.553
2443 1 42.759 47.416 25.971
2444 1 47.511 42.860 16.997
2445 1 41.575 37.659 30.874
2446 1 21.347 35.412 16.828
2447 1 23.456 27.912 10.496
2448 1 29.989 42.137 22.423
2449 1 -9.452 17.026 -19.303
2450 1 5.311 18.684 -21.542
2451 1 -1.002 17.767 -5.801
2452 1 42.164 35.768 33.707
2453 1 42.195 41.674 31.760
2454 1 41.829 41.114 39.493
2455 1 67.432 54.056 38.151
2456 1 68.766 48.614 43.043
2457 1 69.196 44.728 44.002
2458 1 47.718 13.211 39.282
2459 1 46.586 3.095 50.867
2460 1 58.775 15.045 46.502
2461 1 81.774 17.197 53.980
2462 1 82.981 26.485 49.966
2463 1 88.438 19.251 48.403
2464 1 -34.290 50.998 44.853
2465 1 -31.099 53.918 29.888
2466 1 -45.077 48.772 44.311
2467 1 -43.357 33.072 27.003
2468 1 -46.441 32.625 33.151
2469 1 -38.666 35.581 37.923
2470 1 17.874 58.846 -11.754
2471 1 16.618 69.431 0.150
2472 1 9.673 68.673 -6.052
2473 1 47.544 35.195 31.100
2474 1 37.427 27.515 33.514
2475 1 51.605 45.705 32.045
2476 1 7.969 42.572 14.850
2477 1 2.080 47.417 6.932
2478 1 2.807 45.367 14.490
2479 1 7.085 32.894 17.408
2480 1 2.049 21.818 11.970
2481 1 0.178 22.760 9.835
2482 1 39.115 7.740 -22.769
2483 1 33.888 30.254 -18.561
2484 1 38.394 21.485 -23.297
2485 1 22.392 93.229 -25.544
2486 1 18.540 86.626 -32.505
2487 1 17.556 76.956 -33.635
2488 1 9.724 55.388 17.197
2489 1 13.097 61.625 17.702
2490 1 -3.531 61.667 20.085
2491 1 18.015 29.983 -20.417
2492 1 7.304 40.114 -13.092
2493 1 4.984 34.949 -13.757
2494 1 35.565 69.943 -4.020
2495 1 44.343 63.001 10.554
2496 1 48.293 69.834 6.688
2497 1 51.341 12.121 11.687
2498 1 46.740 19.277 6.948
2499 1 41.581 15.760 27.887
2500 1 -7.424 36.507 32.602
2501 1 -13.988 40.537 40.849
2502 1 -1.426 39.091 53.619
2503 1 -24.094 36.734 21.227
2504 1 -7.328 50.102 9.521
2505 1 -21.945 47.918 1.004
2506 1 21.893 39.457 37.861
2507 1 27.861 47.324 23.791
2508 1 28.749 48.630 38.931
2509 1 -10.870 88.373 -1.689
2510 1 -17.361 74.848 -0.769
2511 1 -8.324 72.354 -13.681
2512 1 -30.629 67.528 24.508
2513 1 -20.054 74.131 14.067
2514 1 -18.690 68.639 27.152
2515 1 -3.589 23.532 5.307
2516 1 -3.208 20.423 20.728
2517 1 -6.569 37.449 0.025
2518 1 -2.150 20.632 16.722
2519 1 -3.721 17.079 32.158
2520 1 0.606 17.528 31.169
2521 1 5.705 90.192 39.021
2522 1 13.919 79.836 49.611
2523 1 13.735 79.413 39.480
2524 1 50.660 62.999 27.152
2525 1 51.611 68.126 26.282
2526 1 50.566 66.840 15.983
2527 1 32.495 68.929 36.508
2528 1 28.702 71.420 21.698
2529 1 33.432 66.990 26.958
2530 1 64.333 41.560 26.539
2531 1 64.375 47.282 14.874
2532 1 59.692 40.651 22.837
2533 1 25.704 23.805 -12.669
2534 1 33.191 31.336 -6.653
2535 1 27.034 19.258 1.178
2536 1 64.119 96.607 11.378
2537 1 60.064 93.691 14.829
2538 1 64.998 91.966 11.113
2539 1 52.058 68.888 19.075
2540 1 50.432 64.928 35.967
2541 1 51.524 68.353 16.927
2542 1 17.988 2.512 0.129
2543 1 18.461 -1.870 -11.794
2544 1 6.836 -4.423 -2.805
2545 1 16.257 24.042 -9.020
2546 1 6.309 23.771 -13.573
2547 1 13.880 27.692 -3.237
2548 1 -39.254 -18.443 46.297
2549 1 -42.260 -24.801 64.074
2550 1 -40.898 -16.465 43.950
2551 1 20.126 -23.675 6.406
2552 1 14.708 -17.213 16.163
2553 1 12.929 -20.727 15.566
2554 1 29.890 -22.718 36.508
2555 1 34.573 -23.298 14.519
2556 1 25.652 -24.178 46.872
2557 1 -6.728 -17.699 23.897
2558 1 -11.177 -19.557 8.505
2559 1 1.420 -16.769 22.680
2560 1 49.191 12.014 28.821
2561 1 41.317 -6.100 15.890
2562 1 57.280 1.858 41.796
2563 1 53.254 -13.688 -4.220
2564 1 44.205 0.036 3.978
2565 1 59.735 -3.489 6.564
2566 1 50.317 15.719 50.332
2567 1 51.580 5.389 49.199
2568 1 54.237 12.323 49.707
2569 1 46.986 4.652 41.605
2570 1 46.007 5.258 47.176
2571 1 54.262 -2.401 32.591
2572 1 70.322 28.239 7.857
2573 1 70.201 18.326 2.437
2574 1 71.442 11.442 1.725
2575 1 45.683 41.059 15.268
2576 1 50.231 39.599 19.230
2577 1 46.175 41.005 14.569
2578 1 40.979 2.098 26.548
2579 1 45.151 2.019 20.769
2580 1 51.819 -11.368 24.422
2581 1 33.692 25.289 50.821
2582 1 35.614 22.412 63.898
2583 1 19.248 24.256 53.575
2584 1 24.580 -25.186 21.155
2585 1 29.241 -26.492 7.979
2586 1 27.774 -30.521 13.213
2587 1 -6.146 1.664 50.506
2588 1 -10.610 0.856 60.774
2589 1 -15.085 5.148 44.735
2590 1 6.644 12.386 1.630
2591 1 4.772 8.902 -3.183
2592 1 1.032 4.649 2.535
2593 1 -37.347 3.375 -8.809
2594 1 -39.872 9.373 -3.889
2595 1 -39.809 -2.581 3.979
2596 1 26.159 -6.562 44.641
2597 1 26.213 -10.892 42.117
2598 1 30.273 -4.542 41.566
2599 1 30.795 7.396 24.643
2600 1 26.204 4.574 18.589
2601 1 31.907 14.290 27.197
2602 1 8.577 -1.759 -15.871
2603 1 16.571 -6.324 -15.636
2604 1 3.066 -4.552 -13.828
2605 1 21.968 -9.762 35.495
2606 1 19.366 -7.923 31.974
2607 1 25.029 -9.292 23.521
2608 1 -8.027 7.596 37.123
2609 1 -7.680 12.810 37.072
2610 1 -13.444 -3.416 39.919
2611 1 16.473 -5.483 -2.574
2612 1 18.877 0.957 23.525
2613 1 25.903 -4.524 5.865
2614 1 40.690 19.511 8.253
2615 1 34.251 14.956 0.407
2616 1 33.113 17.188 2.722
2617 1 41.759 6.945 10.093
2618 1 37.750 -2.872 22.100
2619 1 36.224 -0.640 11.154
2620 1 -24.068 15.553 45.457
2621 1 -27.767 13.170 38.679
2622 1 -23.894 13.461 41.796
2623 1 -30.252 20.009 34.682
2624 1 -27.234 21.898 24.364
2625 1 -33.855 19.195 35.262
2626 1 -1.306 -11.929 19.759
2627 1 8.451 -29.183 14.724
2628 1 -3.233 -24.459 21.068
2629 1 25.273 25.718 25.814
2630 1 28.942 17.315 18.024
2631 1 31.500 25.473 33.764
2632 1 56.140 8.822 34.085
2633 1 62.812 15.150 30.880
2634 1 55.989 13.909 35.778
2635 1 23.266 -3.520 0.080
2636 1 27.425 -0.182 -5.545
2637 1 26.558 8.765 -9.463
2638 1 4.788 6.544 60.108
2639 1 7.486 -9.582 71.935
2640 1 0.010 -3.717 66.764
2641 1 1.815 19.219 9.440
2642 1 1.465 6.509 8.000
2643 1 12.236 1.927 15.936
2644 1 56.864 9.180 29.642
2645 1 54.228 21.454 28.406
2646 1 59.404 1.749 31.688
2647 1 18.369 24.921 24.964
2648 1 22.563 33.969 32.453
2649 1 13.915 36.432 33.848
2650 1 1.017 13.538 44.939
2651 1 -12.350 20.680 51.142
2652 1 -10.202 7.506 23.012
2653 1 41.706 31.882 41.458
2654 1 37.539 33.648 36.188
2655 1 36.941 28.030 21.377
2656 1 54.524 1.044 30.477
2657 1 60.183 0.351 23.225
2658 1 52.186 -3.040 23.412
2659 1 -26.979 -30.034 13.830
2660 1 -37.483 -33.152 -0.741
2661 1 -23.925 -38.092 13.412
2662 1 10.450 21.916 14.787
2663 1 19.124 28.604 7.733
2664 1 14.494 25.247 1.938
2665 1 0.278 -21.022 12.011
2666 1 -1.967 -27.812 8.652
2667 1 -6.958 -27.246 14.071
2668 1 47.957 36.976 16.066
2669 1 41.382 42.543 17.700
2670 1 42.782 36.459 17.841
2671 1 15.017 -13.402 10.856
2672 1 11.499 -17.306 21.283
2673 1 -2.252 -1.395 11.865
2674 1 36.087 -1.008 -14.371
2675 1 30.869 -1.926 -21.421
2676 1 27.515 -5.606 -24.766
2677 1 43.637 2.135 12.056
2678 1 37.876 15.770 9.444
2679 1 40.863 6.501 17.844
2680 1 79.121 41.624 23.656
2681 1 73.118 45.724 23.921
2682 1 65.931 39.388 35.771
2683 1 49.762 7.391 29.992
2684 1 44.223 6.958 26.276
2685 1 54.545 11.818 30.693
2686 1 5.928 -38.044 41.479
2687 1 2.082 -24.291 56.372
2688 1 4.830 -46.358 41.429
2689 1 56.002 -13.753 -4.917
2690 1 62.544 -5.475 2.334
2691 1 63.195 -10.624 -5.184
2692 1 79.231 -7.238 15.383
2693 1 82.770 5.615 6.913
2694 1 74.269 -4.976 17.435
2695 1 -23.417 14.882 35.792
2696 1 -28.518 16.202 33.950
2697 1 -27.476 16.988 23.350
2698 1 76.448 25.465 45.238
2699 1 82.388 33.561 41.136
2700 1 69.132 32.742 50.346
2701 1 4.132 53.052 44.001
2702 1 1.613 44.486 47.678
2703 1 2.397 38.797 44.543
2704 1 -2.302 13.318 44.669
2705 1 12.206 17.066 44.306
2706 1 16.851 17.659 56.261
2707 1 -20.139 33.669 43.312
2708 1 -34.706 37.506 36.389
2709 1 -28.444 37.704 45.878
2710 1 32.121 -6.784 70.639
2711 1 40.842 -16.781 59.095
2712 1 45.717 -15.194 70.426
2713 1 -41.529 1.395 2.011
2714 1 -35.657 -0.374 10.012
2715 1 -43.416 6.618 13.969
2716 1 -2.551 22.191 51.576
2717 1 -6.679 11.238 59.002
2718 1 -9.353 20.852 47.647
2719 1 12.957 24.107 27.854
2720 1 22.538 31.908 12.042
2721 1 21.288 25.010 26.204
2722 1 -24.968 57.397 -21.313
2723 1 -31.096 64.042 -29.548
2724 1 -20.443 60.593 -19.559
2725 1 -12.383 46.640 28.757
2726 1 -2.145 65.983 22.578
2727 1 -10.007 60.148 28.672
2728 1 -18.788 35.696 45.393
2729 1 -9.162 40.879 44.403
2730 1 -12.658 38.588 48.783
2731 1 26.798 81.257 6.453
2732 1 25.170 82.029 5.260
2733 1 23.290 82.340 -5.830
2734 1 -9.568 34.329 -5.414
2735 1 -3.038 26.104 -3.449
2736 1 -7.536 30.990 -10.104
2737 1 22.733 28.168 15.274
2738 1 13.175 30.043 17.142
2739 1 16.935 36.319 13.367
2740 1 -38.924 17.332 24.351
2741 1 -39.732 19.947 30.907
2742 1 -42.385 12.955 21.674
2743 1 27.767 2.448 21.580
2744 1 29.885 1.530 25.492
2745 1 29.356 10.369 22.386
2746 1 63.138 38.717 31.752
2747 1 63.177 56.037 31.976
2748 1 62.023 44.982 31.860
2749 1 -20.092 40.522 0.955
2750 1 -18.127 43.265 -1.453
2751 1 -17.618 38.410 12.170
2752 1 -6.141 52.188 36.547
2753 1 -5.102 50.274 49.645
2754 1 -11.866 45.916 29.718
2755 1 43.864 49.164 30.356
2756 1 40.401 46.627 36.769
2757 1 39.581 46.262 38.192
2758 1 -5.174 18.163 18.393
2759 1 0.508 21.879 1.180
2760 1 -15.991 9.710 23.789
2761 1 14.514 27.288 41.483
2762 1 12.406 19.316 45.887
2763 1 13.332 17.421 44.600
2764 1 17.249 63.936 34.904
2765 1 18.829 61.609 23.745
2766 1 12.049 66.746 39.298
2767 1 4.250 64.101 -25.642
2768 1 10.971 62.121 -23.268
2769 1 19.912 64.153 -22.961
2770 1 33.081 9.671 9.401
2771 1 31.035 8.021 19.437
2772 1 37.252 8.426 15.864
2773 1 13.780 24.950 34.624
2774 1 3.533 25.605 23.216
2775 1 14.303 30.015 18.254
2776 1 3.191 22.689 18.427
2777 1 1.516 36.594 29.271
2778 1 -1.680 26.041 14.900
2779 1 28.472 40.302 23.567
2780 1 23.218 34.689 34.911
2781 1 20.378 29.026 17.428
2782 1 -18.362 53.463 51.969
2783 1 -22.494 51.278 49.760
2784 1 -16.127 53.676 44.171
2785 1 75.147 -15.491 62.709
2786 1 75.616 -17.280 59.684
2787 1 90.438 -19.071 54.314
2788 1 0.096 49.882 4.047
2789 1 4.528 55.813 1.845
2790 1 -4.214 46.087 23.416
2791 1 -39.304 45.670 27.942
2792 1 -35.383 48.202 24.390
2793 1 -29.884 45.725 37.833
2794 1 -8.136 35.607 38.375
2795 1 -3.852 24.334 36.509
2796 1 0.670 21.880 38.472
2797 1 15.799 31.235 19.113
2798 1 16.198 28.445 15.617
2799 1 19.649 27.550 13.794
2800 1 0.315 44.295 -12.659
2801 1 1.567 49.117 -11.817
2802 1 0.921 50.560 -19.895
2803 1 -2.026 51.516 32.021
2804 1 -2.476 50.667 21.831
2805 1 -5.176 57.217 16.641
2806 1 42.169 46.771 23.658
2807 1 37.622 42.017 38.787
2808 1 42.734 42.060 34.497
2809 1 71.289 38.879 -13.929
2810 1 62.852 27.889 -4.007
2811 1 74.286 23.420 -16.106
2812 1 20.947 12.922 33.554
2813 1 24.703 22.797 36.169
2814 1 23.340 15.467 30.908
2815 1 34.621 67.624 32.820
2816 1 36.307 65.594 47.981
2817 1 35.353 63.242 46.006
2818 1 19.189 39.426 38.811
2819 1 16.879 29.156 37.540
2820 1 13.495 32.347 46.918
2821 1 48.658 49.526 62.142
2822 1 46.867 49.399 68.834
2823 1 42.480 37.464 72.167
2824 1 49.573 29.502 -2.776
2825 1 50.709 30.825 -0.064
2826 1 47.994 32.472 1.000
2827 1 35.811 56.618 14.029
2828 1 28.860 49.369 6.436
2829 1 30.612 53.393 10.689
2830 1 27.068 50.072 52.746
2831 1 30.473 38.032 52.849
2832 1 23.539 43.821 45.812
2833 1 16.112 51.496 12.398
2834 1 14.380 56.689 18.741
2835 1 7.941 55.254 17.279
2836 1 5.398 32.887 65.286
2837 1 14.247 24.282 63.841
2838 1 11.430 28.322 63.241
2839 1 21.007 44.201 43.095
2840 1 20.090 53.306 29.975
2841 1 25.170 61.240 41.615
2842 1 -33.669 49.405 21.838
2843 1 -28.984 47.344 12.921
2844 1 -28.108 48.989 4.249
2845 1 41.595 62.814 -6.934
2846 1 47.023 60.986 -11.870
2847 1 43.730 59.516 2.302
2848 1 31.974 59.411 -13.414
2849 1 33.487 53.680 -3.524
2850 1 23.145 46.139 -12.616
2851 1 25.934 50.184 21.980
2852 1 28.853 50.873 24.413
2853 1 22.802 46.685 18.236
2854 1 44.881 23.639 -1.066
2855 1 29.810 30.379 -0.231
2856 1 32.710 20.647 -1.137
2857 1 13.963 68.117 23.249
2858 1 15.725 68.723 17.927
2859 1 18.155 65.609 6.381
2860 1 45.213 22.999 18.524
2861 1 38.678 17.570 9.265
2862 1 41.635 20.311 16.138
2863 1 74.439 40.209 37.566
2864 1 73.670 48.887 40.707
2865 1 73.860 39.689 41.043
2866 1 8.091 -30.823 -5.359
2867 1 12.386 -29.546 -12.720
2868 1 17.332 -33.626 -14.010
2869 1 13.972 49.480 22.045
2870 1 36.051 47.148 4.107
2871 1 21.492 46.705 21.989
2872 1 41.850 -8.946 -20.473
2873 1 44.948 -11.967 -14.719
2874 1 46.737 -1.253 -11.916
2875 1 17.138 8.494 40.222
2876 1 8.679 15.341 39.189
2877 1 25.023 17.433 37.033
2878 1 12.432 24.558 8.209
2879 1 18.385 30.159 -9.300
2880 1 9.881 14.207 -14.745
2881 1 69.916 15.392 -15.921
2882 1 60.493 15.614 -20.105
2883 1 61.473 10.483 -17.748
2884 1 -3.425 -40.856 5.264
2885 1 -1.701 -45.548 11.155
2886 1 -2.251 -54.147 4.468
2887 1 37.957 3.179 28.443
2888 1 39.137 -12.975 23.301
2889 1 39.256 -27.159 31.551
2890 1 44.955 -42.308 5.580
2891 1 51.937 -50.749 -8.017
2892 1 38.974 -39.358 -5.248
2893 1 36.636 -4.046 27.393
2894 1 45.222 -8.679 15.312
2895 1 47.311 -9.857 15.459
2896 1 76.336 -4.956 -5.585
2897 1 67.566 -5.516 -9.937
2898 1 64.679 -18.419 -19.235
2899 1 42.224 -19.539 32.506
2900 1 50.402 -21.471 30.687
2901 1 47.531 -20.769 21.704
2902 1 50.108 -20.027 12.831
2903 1 48.574 -15.886 22.834
2904 1 39.230 -16.938 22.785
2905 1 -8.057 -13.010 69.934
2906 1 -11.430 -6.540 69.821
2907 1 -9.279 -11.855 61.600
2908 1 0.465 -0.266 53.800
2909 1 1.818 -0.866 40.016
2910 1 3.902 -4.802 58.803
2911 1 44.265 5.398 13.927
2912 1 42.844 10.396 13.535
2913 1 37.919 15.669 14.801
2914 1 -5.646 -15.868 -0.702
2915 1 -5.683 -10.981 6.250
2916 1 -1.044 -20.041 -9.612
2917 1 0.047 28.178 9.887
2918 1 -2.078 30.153 3.436
2919 1 1.088 21.787 -1.655
2920 1 35.358 9.931 -10.845
2921 1 34.347 14.577 8.043
2922 1 45.869 9.430 5.697
2923 1 18.688 -19.058 -5.577
2924 1 27.130 -12.273 6.840
2925 1 27.481 -19.063 5.574
2926 1 32.855 17.095 24.522
2927 1 32.468 15.038 33.596
2928 1 27.483 11.058 21.478
2929 1 5.705 8.681 61.399
2930 1 2.818 4.940 42.490
2931 1 -7.684 8.210 51.374
2932 1 36.406 -18.341 31.346
2933 1 28.482 -10.906 26.167
2934 1 33.728 -7.626 29.004
2935 1 38.300 7.403 11.464
2936 1 45.786 16.596 21.841
2937 1 51.223 19.630 26.544
2938 1 40.640 5.916 8.916
2939 1 48.836 12.417 7.102
2940 1 34.130 15.272 6.627
2941 1 48.835 -31.880 15.994
2942 1 56.490 -27.378 21.953
2943 1 52.759 -33.506 4.918
2944 1 33.745 -5.068 -11.623
2945 1 25.287 -6.278 -35.106
2946 1 16.238 -8.167 -16.253
2947 1 -4.821 21.515 -0.934
2948 1 -14.252 29.057 -1.607
2949 1 -14.920 34.308 -10.408
2950 1 26.920 47.599 3.371
2951 1 27.827 57.668 -2.359
2952 1 19.439 49.815 9.141
2953 1 -24.027 6.506 32.689
2954 1 -23.567 6.987 25.178
2955 1 -19.526 7.555 25.116
2956 1 32.818 7.783 21.456
2957 1 28.782 8.935 6.324
2958 1 29.753 -4.730 20.097
2959 1 49.292 30.853 17.718
2960 1 60.809 33.340 20.867
2961 1 64.157 33.353 23.335
2962 1 50.539 41.003 13.710
2963 1 50.051 53.014 11.602
2964 1 50.248 48.171 18.708
2965 1 13.975 46.573 54.404
2966 1 6.452 52.615 42.359
2967 1 8.541 39.827 34.069
2968 1 -8.012 1.975 51.250
2969 1 -12.689 10.613 45.429
2970 1 -8.802 2.532 54.019
2971 1 25.491 14.312 29.469
2972 1 21.679 2.292 32.433
2973 1 26.218 7.357 26.726
2974 1 24.486 21.546 16.561
2975 1 25.283 27.599 22.704
2976 1 27.527 28.244 29.555
2977 1 51.949 -3.879 -25.997
2978 1 44.634 -7.405 -21.070
2979 1 45.648 -3.769 -18.023
2980 1 59.104 21.485 -7.517
2981 1 58.774 27.272 -7.638
2982 1 58.109 28.741 -4.700
2983 1 21.670 -19.163 17.259
2984 1 18.278 -17.781 15.049
2985 1 18.966 -26.991 27.988
2986 1 -5.837 -15.416 42.888
2987 1 -14.733 -8.447 32.988
2988 1 -7.690 -1.327 31.221
2989 1 34.287 43.916 51.562
2990 1 23.919 45.427 47.236
2991 1 31.039 47.618 51.044
2992 1 24.783 6.373 9.704
2993 1 24.927 19.960 15.182
2994 1 25.132 20.198 20.853
2995 1 23.505 28.943 -4.867
2996 1 22.275 33.668 -9.721
2997 1 30.219 30.645 -6.613
2998 1 55.345 34.434 45.635
2999 1 47.764 29.000 32.529
3000 1 58.139 28.901 46.849
3001 1 9.584 31.940 59.675
3002 1 9.257 31.416 39.426
3003 1 13.170 30.820 51.645
3004 1 -21.122 9.763 26.017
3005 1 -29.122 13.374 40.079
3006 1 -15.813 22.518 42.259
3007 1 57.020 0.528 33.508
3008 1 47.041 -1.428 29.485
3009 1 52.675 -10.922 26.977
3010 1 -9.842 11.877 6.204
3011 1 -10.947 15.218 0.601
3012 1 -22.432 1.786 5.295
3013 1 19.945 2.628 53.462
3014 1 23.885 4.892 74.539
3015 1 23.618 -4.377 57.755
3016 1 -23.823 36.096 0.797
3017 1 -14.519 34.990 -13.933
3018 1 -22.561 36.702 -0.323
3019 1 63.101 6.987 22.253
3020 1 67.733 9.199 34.457
3021 1 65.456 4.166 19.847
3022 1 -32.589 42.205 25.328
3023 1 -29.200 29.587 29.106
3024 1 -28.551 44.560 32.467
3025 1 13.950 49.596 42.086
3026 1 12.892 50.118 33.489
3027 1 12.973 53.959 31.671
3028 1 -24.361 9.290 38.652
3029 1 -26.864 14.182 46.744
3030 1 -30.080 17.587 40.621
3031 1 38.186 25.714 39.571
3032 1 42.822 17.284 41.186
3033 1 53.863 29.236 41.072
3034 1 -23.760 24.608 -5.446
3035 1 -28.127 18.475 -7.273
3036 1 -26.275 23.283 -12.782
3037 1 -30.445 12.979 64.723
3038 1 -30.558 6.900 75.679
3039 1 -38.540 15.515 64.268
3040 1 48.813 77.310 43.601
3041 1 49.285 76.433 47.883
3042 1 38.244 80.900 43.276
3043 1 11.375 23.296 60.263
3044 1 11.353 37.413 59.835
3045 1 18.818 32.606 59.886
3046 1 58.264 55.129 17.547
3047 1 58.186 50.173 15.203
3048 1 51.499 39.999 3.631
3049 1 29.994 -10.767 23.379
3050 1 31.311 -1.190 31.895
3051 1 29.733 -2.986 36.930
3052 1 -41.313 46.376 27.702
3053 1 -41.773 43.893 31.722
3054 1 -50.434 50.804 25.194
3055 1 -12.036 24.500 48.511
3056 1 -8.309 23.957 42.377
3057 1 -11.494 20.135 47.159
3058 1 13.376 48.761 38.035
3059 1 12.965 46.590 28.478
3060 1 20.079 41.368 39.844
3061 1 21.222 77.737 33.776
3062 1 18.078 69.051 26.686
3063 1 15.479 67.427 39.668
3064 1 16.584 37.262 5.620
3065 1 35.715 29.773 12.315
3066 1 24.978 25.608 13.648
3067 1 36.294 22.147 58.943
3068 1 39.666 26.565 69.348
3069 1 34.403 14.357 57.109
3070 1 27.031 47.809 -19.504
3071 1 31.379 40.702 -13.613
3072 1 25.076 41.737 -0.433
3073 1 -17.188 41.798 -5.817
3074 1 -14.923 36.385 2.895
3075 1 -16.764 44.936 -1.448
3076 1 68.246 36.123 43.273
3077 1 63.749 44.396 46.115
3078 1 69.695 40.592 37.623
3079 1 35.037 50.836 76.382
3080 1 24.768 52.160 61.319
3081 1 27.670 48.181 60.854
3082 1 23.151 53.223 17.998
3083 1 24.806 52.366 9.719
3084 1 26.240 47.955 23.226
3085 1 53.030 2.842 29.933
3086 1 56.289 5.284 22.107
3087 1 60.668 8.969 32.252
3088 1 14.252 62.289 38.773
3089 1 9.259 79.505 43.626
3090 1 15.070 64.141 40.227
3091 1 -21.628 51.949 -1.145
3092 1 -33.832 52.175 6.330
3093 1 -22.648 48.862 9.894
3094 1 16.122 65.928 56.182
3095 1 13.431 59.240 44.707
3096 1 11.068 75.591 47.208
3097 1 1.162 15.305 58.979
3098 1 0.365 12.879 58.793
3099 1 5.891 14.175 46.611
3100 1 27.893 39.885 -5.175
3101 1 18.881 41.998 -22.801
3102 1 28.839 45.463 -2.718
3103 1 6.641 38.380 39.689
3104 1 -3.423 31.369 50.111
3105 1 -0.469 33.522 36.983
3106 1 37.273 -2.997 12.449
3107 1 36.618 -16.692 10.356
3108 1 43.322 -13.488 9.125
3109 1 30.897 37.859 -15.578
3110 1 32.288 38.851 -15.223
3111 1 27.917 37.521 -7.604
3112 1 27.100 47.692 26.361
3113 1 23.521 49.832 31.307
3114 1 30.196 43.700 39.775
3115 1 3.800 30.191 56.040
3116 1 7.601 27.091 56.755
3117 1 12.720 36.761 72.304
3118 1 19.617 20.756 14.131
3119 1 27.048 11.808 17.907
3120 1 21.721 15.869 22.200
3121 1 60.024 53.962 25.805
3122 1 62.833 59.296 21.923
3123 1 59.936 64.748 32.652
3124 1 47.668 76.511 -0.373
3125 1 44.501 78.650 -6.407
3126 1 42.825 80.675 -2.444
3127 1 71.164 58.882 47.763
3128 1 65.707 56.249 35.724
3129 1 64.473 49.069 37.037
3130 1 -17.209 26.224 -11.607
3131 1 -12.794 25.250 -18.150
3132 1 -13.367 35.342 -22.365
3133 1 12.251 80.811 91.379
3134 1 14.533 95.189 83.113
3135 1 18.234 91.020 78.764
3136 1 24.809 43.205 40.099
3137 1 23.535 44.149 37.433
3138 1 21.372 42.392 36.361
3139 1 -6.101 28.087 59.820
3140 1 -6.106 23.163 51.074
3141 1 -0.206 17.796 60.454
3142 1 44.940 65.224 2.640
3143 1 39.377 69.477 13.966
3144 1 37.170 63.237 -8.489
3145 1 54.447 50.285 -1.145
3146 1 60.171 46.770 -0.582
3147 1 54.048 50.875 10.793
3148 1 48.818 53.999 45.673
3149 1 42.555 48.513 55.207
3150 1 48.162 46.635 55.426
3151 1 40.847 79.201 -10.701
3152 1 34.878 74.490 -21.243
3153 1 34.544 73.678 -15.595
3154 1 -12.733 4.865 -1.848
3155 1 -14.516 12.274 5.130
3156 1 -18.581 9.308 8.252
3157 1 30.422 16.196 55.425
3158 1 38.150 22.080 45.410
3159 1 34.538 24.310 45.342
3160 1 32.344 50.732 27.407
3161 1 23.677 70.769 17.722
3162 1 27.054 77.181 22.358
3163 1 30.982 71.208 13.796
3164 1 22.349 66.869 28.669
3165 1 28.412 65.787 18.247
3166 1 11.071 63.251 19.764
3167 1 10.617 68.990 26.158
3168 1 17.123 71.931 25.290
3169 1 19.085 14.294 5.539
3170 1 17.003 7.452 2.252
3171 1 25.288 1.182 -1.488
3172 1 -27.397 -17.612 25.212
3173 1 -36.422 -20.522 16.486
3174 1 -36.796 -8.218 20.098
3175 1 18.043 27.295 55.935
3176 1 23.478 28.969 42.261
3177 1 11.962 15.962 48.699
3178 1 25.918 10.963 53.021
3179 1 23.858 -0.277 43.163
3180 1 16.807 -2.254 34.686
3181 1 30.920 -29.408 29.103
3182 1 19.303 -32.379 33.330
3183 1 24.770 -25.627 32.618
3184 1 16.540 5.623 26.680
3185 1 16.840 10.255 24.203
3186 1 11.094 14.282 17.661
3187 1 9.104 4.450 3.228
3188 1 8.948 -3.691 17.272
3189 1 15.184 3.276 9.092
3190 1 -3.996 -8.182 17.430
3191 1 -9.971 -1.980 6.069
3192 1 -8.765 -7.659 0.395
3193 1 -0.092 -5.075 20.778
3194 1 9.355 12.787 32.827
3195 1 5.001 6.958 26.495
3196 1 62.279 11.815 46.545
3197 1 72.851 12.192 51.881
3198 1 76.513 3.119 64.678
3199 1 71.105 17.808 66.160
3200 1 82.677 14.092 56.166
3201 1 75.502 16.576 60.515
3202 1 7.808 -17.417 66.965
3203 1 4.967 -1.569 62.610
3204 1 5.273 -7.802 65.325
3205 1 15.563 21.317 51.951
3206 1 23.151 12.351 60.702
3207 1 15.470 21.954 50.795
3208 1 -7.412 -12.822 14.941
3209 1 -9.461 -31.808 16.346
3210 1 -9.041 -24.051 5.083
3211 1 -1.853 21.535 -4.922
3212 1 -13.895 22.510 13.775
3213 1 2.498 13.896 -2.675
3214 1 14.890 3.448 49.972
3215 1 30.156 -6.954 51.688
3216 1 22.005 -0.729 40.055
3217 1 -14.472 2.119 39.019
3218 1 -20.800 0.037 56.235
3219 1 -19.154 5.516 48.174
3220 1 12.779 44.417 37.484
3221 1 5.783 29.490 44.991
3222 1 4.415 34.951 33.191
3223 1 4.800 -0.635 -15.556
3224 1 2.547 1.513 -8.707
3225 1 10.253 2.897 -13.915
3226 1 36.097 30.884 -16.084
3227 1 33.074 29.207 -17.480
3228 1 43.654 36.117 -15.672
3229 1 28.456 6.383 13.380
3230 1 24.492 17.413 13.812
3231 1 36.266 9.035 23.855
3232 1 46.090 -16.430 22.522
3233 1 40.426 -9.008 41.604
3234 1 40.223 -14.363 41.881
3235 1 17.034 -42.291 36.420
3236 1 17.634 -29.784 39.461
3237 1 15.266 -39.222 44.636
3238 1 32.132 -1.029 13.870
3239 1 35.214 3.544 15.117
3240 1 32.785 -10.195 25.206
3241 1 64.033 25.241 -23.446
3242 1 66.162 22.042 -24.011
3243 1 55.925 25.377 -16.211
3244 1 45.228 -17.461 45.214
3245 1 49.075 -18.847 40.999
3246 1 48.731 -8.634 45.537
3247 1 2.103 -2.227 -2.533
3248 1 -0.295 9.464 -1.493
3249 1 -3.515 -7.683 -4.432
3250 1 1.030 -21.831 -2.009
3251 1 -0.682 -10.563 -6.268
3252 1 0.351 -1.831 12.446
3253 1 26.729 -6.991 45.330
3254 1 34.816 -8.028 48.174
3255 1 30.013 -4.550 42.607
3256 1 10.085 4.259 20.615
3257 1 18.996 10.111 -3.169
3258 1 27.693 8.825 15.883
3259 1 39.679 -16.166 42.474
3260 1 33.202 -8.202 35.557
3261 1 36.842 -8.498 42.244
3262 1 23.034 28.234 27.879
3263 1 18.064 16.206 29.213
3264 1 16.082 19.029 30.357
3265 1 44.290 6.986 41.291
3266 1 47.053 8.644 32.547
3267 1 50.619 0.139 28.661
3268 1 32.832 -19.560 37.796
3269 1 27.081 -11.626 16.415
3270 1 37.569 -17.836 21.272
3271 1 29.408 18.833 24.407
3272 1 30.848 28.435 33.955
3273 1 35.832 25.372 26.934
3274 1 54.395 -37.414 33.362
3275 1 47.742 -37.087 40.651
3276 1 51.737 -31.048 37.667
3277 1 49.928 -22.386 41.314
3278 1 40.097 -20.178 54.687
3279 1 38.408 -14.169 59.394
3280 1 50.610 2.171 28.877
3281 1 58.318 -7.597 28.128
3282 1 52.117 -2.655 24.004
3283 1 50.234 17.879 27.296
3284 1 49.924 16.493 26.132
3285 1 46.020 10.133 23.717
3286 1 2.808 17.694 10.551
3287 1 1.411 13.509 19.377
3288 1 8.672 28.666 21.594
3289 1 -26.976 15.818 3.155
3290 1 -26.696 3.212 -5.793
3291 1 -27.998 7.509 -6.067
3292 1 17.716 5.519 17.555
3293 1 18.510 1.085 24.723
3294 1 16.140 -2.400 13.304
3295 1 4.031 9.439 56.426
3296 1 8.455 26.068 61.013
3297 1 6.803 15.570 39.866
3298 1 33.671 -11.705 37.190
3299 1 38.401 -19.387 22.873
3300 1 37.487 -19.812 27.253
3301 1 -5.356 30.964 -18.091
3302 1 -2.060 36.802 -3.851
3303 1 -3.190 24.307 6.461
3304 1 -12.356 11.126 46.349
3305 1 -11.402 22.255 48.676
3306 1 -8.929 11.246 34.747
3307 1 49.788 26.921 -7.771
3308 1 41.524 19.781 12.926
3309 1 41.000 25.243 -2.636
3310 1 36.780 31.410 33.004
3311 1 40.674 33.175 14.240
3312 1 40.815 41.246 18.053
3313 1 -17.708 4.991 26.452
3314 1 -16.146 5.106 25.485
3315 1 -12.182 -4.619 28.131
3316 1 54.925 33.296 24.756
3317 1 53.779 42.452 27.544
3318 1 59.518 32.914 27.049
3319 1 30.185 24.213 31.864
3320 1 26.699 7.551 22.473
3321 1 31.141 24.680 38.864
3322 1 71.767 24.232 19.925
3323 1 75.890 22.996 14.227
3324 1 65.529 23.232 20.603
3325 1 -2.752 39.190 -3.812
3326 1 -0.819 36.345 -5.396
3327 1 -4.969 42.410 2.655
3328 1 63.852 24.098 22.353
3329 1 65.513 35.666 24.909
3330 1 58.890 28.796 14.743
3331 1 -17.436 36.067 29.498
3332 1 -12.605 32.500 9.179
3333 1 -13.947 26.492 16.514
3334 1 45.035 23.307 38.240
3335 1 45.316 28.443 31.856
3336 1 35.897 23.990 33.784
3337 1 -6.565 45.898 -14.531
3338 1 -2.966 36.364 -5.633
3339 1 1.438 52.007 -23.388
3340 1 2.501 19.378 16.307
3341 1 1.938 8.988 12.912
3342 1 -3.345 5.401 13.091
3343 1 27.060 12.442 61.647
3344 1 26.882 16.712 67.265
3345 1 26.934 15.052 65.696
3346 1 7.311 25.482 -2.526
3347 1 19.993 26.774 -5.944
3348 1 11.522 25.818 -3.188
3349 1 20.661 23.702 35.648
3350 1 24.119 26.673 29.215
3351 1 31.113 23.666 33.834
3352 1 30.151 61.232 36.058
3353 1 24.905 61.093 44.815
3354 1 26.882 65.494 36.644
3355 1 19.465 43.803 57.167
3356 1 14.076 41.688 61.985
3357 1 7.739 39.961 65.545
3358 1 -41.350 23.552 -3.241
3359 1 -32.246 35.011 4.323
3360 1 -41.411 31.944 -0.478
3361 1 15.451 30.453 14.856
3362 1 11.126 23.639 26.063
3363 1 11.025 25.919 39.454
3364 1 22.613 30.327 42.973
3365 1 23.864 39.132 29.490
3366 1 20.904 34.752 45.847
3367 1 28.560 20.450 37.714
3368 1 32.566 17.507 46.084
3369 1 31.408 9.308 30.014
3370 1 16.086 46.925 4.084
3371 1 11.903 47.577 11.361
3372 1 11.810 45.610 12.976
3373 1 -11.198 39.719 14.510
3374 1 0.830 45.166 16.741
3375 1 -7.867 43.981 21.107
3376 1 10.388 59.664 68.940
3377 1 2.980 54.470 54.501
3378 1 0.394 57.398 43.057
3379 1 -29.247 34.815 9.396
3380 1 -27.665 40.121 19.274
3381 1 -27.497 46.417 14.900
3382 1 -1.781 54.412 -7.475
3383 1 -8.641 46.617 -1.346
3384 1 -0.929 58.870 2.936
3385 1 19.707 17.764 24.645
3386 1 16.561 32.730 29.870
3387 1 12.536 33.719 23.887
3388 1 43.812 57.984 43.153
3389 1 40.370 56.785 27.554
3390 1 50.457 57.593 45.282
3391 1 8.805 45.132 13.559
3392 1 12.425 39.765 4.978
3393 1 5.979 49.261 22.278
3394 1 1.886 61.555 7.205
3395 1 3.070 53.833 18.092
3396 1 -1.553 61.156 16.932
3397 1 -10.598 86.052 62.302
3398 1 -0.025 62.545 64.412
3399 1 -2.988 70.409 69.533
3400 1 37.026 71.743 27.342
3401 1 43.444 71.815 28.282
3402 1 40.258 68.509 18.571
3403 1 28.400 85.395 55.817
3404 1 33.325 84.487 49.001
3405 1 35.922 88.705 47.418
3406 1 68.040 30.233 52.637
3407 1 59.026 33.840 46.285
3408 1 66.594 39.047 57.188
3409 1 64.707 64.780 33.604
3410 1 74.154 57.781 23.052
3411 1 63.111 58.970 35.976
3412 1 -34.722 30.298 26.142
3413 1 -35.227 33.364 20.459
3414 1 -35.756 37.446 25.373
3415 1 56.685 -16.863 26.625
3416 1 55.365 -12.618 27.309
3417 1 61.433 -23.547 29.709
3418 1 3.713 42.823 47.103
3419 1 5.661 48.630 44.624
3420 1 3.957 50.265 42.538
3421 1 11.844 58.403 46.296
3422 1 23.102 58.402 41.171
3423 1 7.785 49.158 41.783
3424 1 -11.684 38.021 -13.650
3425 1 -14.923 35.606 -1.485
3426 1 -8.044 36.884 -7.893
3427 1 -36.728 70.063 2.898
3428 1 -31.594 64.450 14.128
3429 1 -36.923 64.923 19.434
3430 1 50.663 69.929 62.454
3431 1 64.370 75.875 47.061
3432 1 52.110 80.621 48.152
3433 1 68.415 41.344 38.053
3434 1 73.297 38.703 42.177
3435 1 71.584 33.414 32.392
3436 1 28.984 19.821 40.995
3437 1 28.246 32.152 47.772
3438 1 19.737 23.292 53.002
3439 1 26.987 74.815 20.774
3440 1 40.630 71.915 23.489
3441 1 38.596 72.960 31.554
3442 1 26.428 -6.545 30.011
3443 1 27.561 -12.947 27.297
3444 1 31.332 2.316 26.140
3445 1 40.742 29.017 22.887
3446 1 29.780 27.260 17.297
3447 1 36.274 21.323 4.645
3448 1 76.719 28.964 48.458
3449 1 81.247 30.775 39.601
3450 1 75.889 32.600 49.133
3451 1 -17.800 17.364 34.001
3452 1 -19.120 1.740 52.020
3453 1 -19.455 16.074 55.119
3454 1 12.774 51.321 26.729
3455 1 12.681 55.596 17.254
3456 1 9.569 58.164 14.364
3457 1 -42.154 32.590 22.515
3458 1 -34.813 27.711 9.943
3459 1 -36.485 37.461 22.542
3460 1 0.749 44.131 -7.014
3461 1 7.109 43.465 -8.850
3462 1 7.044 48.472 -21.855
3463 1 -29.559 -20.592 62.528
3464 1 -27.437 -4.202 62.122
3465 1 -31.742 -10.939 59.773
3466 1 49.039 53.980 -10.449
3467 1 52.156 47.831 -21.026
3468 1 50.354 45.872 -14.325
3469 1 34.622 85.627 38.470
3470 1 36.540 84.473 41.654
3471 1 27.818 82.412 46.875
3472 1 5.476 6.834 48.394
3473 1 7.783 15.329 44.764
3474 1 5.837 -1.424 54.246
3475 1 11.404 60.730 35.384
3476 1 10.082 63.155 26.773
3477 1 10.686 65.111 33.948
3478 1 1.575 71.724 12.372
3479 1 14.101 66.367 0.707
3480 1 12.450 76.656 19.564
3481 1 54.849 79.296 13.144
3482 1 60.940 74.718 9.880
3483 1 57.168 81.982 6.986
3484 1 22.290 89.926 16.724
3485 1 18.680 85.807 -3.168
3486 1 23.831 94.164 9.226
3487 1 61.401 61.988 -0.702
3488 1 58.731 65.214 10.174
3489 1 59.312 66.607 11.676
3490 1 31.901 0.007 56.411
3491 1 25.599 -1.179 46.861
3492 1 29.892 -3.394 60.253
3493 1 21.517 -25.292 50.626
3494 1 32.521 -23.175 38.806
3495 1 23.387 -30.157 48.249
3496 1 -2.427 5.380 4.778
3497 1 -4.977 18.103 2.001
3498 1 0.816 13.058 1.663
3499 1 22.481 -17.528 28.823
3500 1 17.998 -12.829 33.861
3501 1 11.396 -14.844 32.674
3502 1 18.620 -13.781 32.459
3503 1 17.949 -6.782 53.205
3504 1 8.347 -12.135 38.398
3505 1 26.074 -12.097 10.059
3506 1 33.247 -9.974 21.328
3507 1 17.238 -9.930 20.764
3508 1 13.989 33.698 32.916
3509 1 8.530 29.732 19.693
3510 1 12.570 24.850 25.241
3511 1 22.816 -10.886 -8.473
3512 1 15.779 -7.394 -2.880
3513 1 14.908 -1.239 -14.830
3514 1 35.612 19.498 51.336
3515 1 46.297 24.693 64.932
3516 1 54.220 19.231 50.802
3517 1 54.956 -24.489 24.262
3518 1 50.373 -22.475 13.154
3519 1 43.408 -19.341 3.623
3520 1 48.835 17.685 51.443
3521 1 55.065 20.654 40.766
3522 1 42.134 3.859 49.167
3523 1 34.105 -33.050 61.503
3524 1 33.947 -37.550 44.650
3525 1 40.779 -32.060 64.255
3526 1 84.836 13.877 13.836
3527 1 82.377 9.710 4.630
3528 1 92.759 -2.614 -0.579
3529 1 40.522 0.287 21.581
3530 1 37.193 -0.632 19.079
3531 1 31.404 -12.314 20.356
3532 1 -28.213 -34.813 65.298
3533 1 -20.222 -43.316 64.102
3534 1 -32.202 -45.186 56.799
3535 1 -8.973 20.188 62.049
3536 1 -13.675 3.129 48.891
3537 1 -9.879 3.768 56.784
3538 1 9.199 2.686 10.094
3539 1 13.212 -8.161 -14.850
3540 1 13.309 -4.557 -2.494
3541 1 45.130 11.192 46.816
3542 1 46.107 -0.666 44.345
3543 1 50.779 -1.916 28.770
3544 1 -16.911 -1.602 67.887
3545 1 -7.454 16.219 47.118
3546 1 -18.596 3.044 61.656
3547 1 44.493 -8.670 37.547
3548 1 45.487 -9.287 41.674
3549 1 47.570 -12.495 43.622
3550 1 42.732 -13.000 53.891
3551 1 39.104 -12.139 49.580
3552 1 37.430 -5.899 54.736
3553 1 44.700 -11.095 50.504
3554 1 38.831 -18.043 41.176
3555 1 42.511 -6.142 53.025
3556 1 10.875 14.681 -1.151
3557 1 19.481 7.128 -21.344
3558 1 11.090 13.980 -23.078
3559 1 37.164 8.521 19.355
3560 1 33.440 4.273 28.351
3561 1 23.657 2.421 24.923
3562 1 18.549 -20.408 39.028
3563 1 15.359 -34.656 32.028
3564 1 7.362 -24.074 38.790
3565 1 67.570 -24.797 29.680
3566 1 64.017 -24.913 17.915
3567 1 58.562 -30.934 22.695
3568 1 -14.034 2.408 38.923
3569 1 -15.431 -7.231 40.264
3570 1 -20.706 1.634 40.936
3571 1 24.635 19.944 45.663
3572 1 32.034 6.450 70.937
3573 1 19.797 3.632 49.768
3574 1 14.589 -1.133 10.442
3575 1 4.795 -4.267 20.460
3576 1 15.451 12.812 13.911
3577 1 3.729 -9.910 46.385
3578 1 -7.164 -8.080 52.485
3579 1 7.600 -18.148 47.977
3580 1 42.390 31.475 28.203
3581 1 30.510 29.730 35.931
3582 1 30.221 24.979 24.910
3583 1 56.207 15.632 25.963
3584 1 54.614 29.323 20.632
3585 1 50.923 38.270 19.890
3586 1 22.594 34.553 -8.043
3587 1 14.636 37.092 1.814
3588 1 22.172 31.357 -14.446
3589 1 35.233 16.891 0.185
3590 1 28.684 11.963 3.150
3591 1 27.726 10.622 7.426
3592 1 25.448 1.288 3.163
3593 1 30.793 10.972 6.961
3594 1 32.368 3.226 -3.004
3595 1 18.575 5.653 33.765
3596 1 22.099 10.351 36.516
3597 1 22.782 3.487 45.083
3598 1 49.480 14.325 28.507
3599 1 56.693 13.366 34.882
3600 1 55.333 14.074 28.272
3601 1 20.370 22.050 43.992
3602 1 18.629 29.751 51.550
3603 1 19.060 19.847 51.921
3604 1 95.603 -21.638 81.400
3605 1 88.417 -22.934 86.390
3606 1 91.813 -21.296 75.466
3607 1 -45.561 3.120 3.260
3608 1 -42.012 5.437 24.637
3609 1 -47.279 10.508 33.357
3610 1 20.195 26.048 9.132
3611 1 17.622 35.013 -1.993
3612 1 24.538 30.877 10.496
3613 1 -7.119 10.195 62.662
3614 1 -8.904 7.518 65.321
3615 1 -9.750 5.690 49.359
3616 1 24.360 -4.681 5.110
3617 1 21.106 -3.032 16.836
3618 1 18.948 -14.898 8.680
3619 1 18.550 10.479 39.680
3620 1 20.128 13.310 27.072
3621 1 18.746 10.981 34.232
3622 1 7.845 10.648 18.462
3623 1 7.859 27.733 17.459
3624 1 -4.082 8.482 12.219
3625 1 28.041 19.374 29.313
3626 1 40.098 14.035 14.220
3627 1 34.944 10.671 21.164
3628 1 28.286 51.534 10.361
3629 1 23.501 37.766 9.896
3630 1 28.770 52.242 5.269
3631 1 -5.733 22.205 55.219
3632 1 -8.077 20.509 51.283
3633 1 -4.795 24.086 37.161
3634 1 45.806 34.446 19.044
3635 1 46.895 38.378 28.093
3636 1 49.174 36.290 19.231
3637 1 13.560 19.338 -2.786
3638 1 15.223 30.752 -11.821
3639 1 11.832 18.081 -15.748
3640 1 75.765 -19.388 71.700
3641 1 80.212 -11.082 58.697
3642 1 74.079 -14.672 59.949
3643 1 17.989 21.724 51.409
3644 1 11.219 23.237 56.620
3645 1 20.634 32.247 56.725
3646 1 -0.370 22.823 35.663
3647 1 10.706 31.271 38.904
3648 1 1.627 20.708 34.360
3649 1 60.658 53.705 5.766
3650 1 54.363 53.530 16.706
3651 1 52.702 54.635 9.975
3652 1 54.964 -2.644 53.018
3653 1 47.662 -1.060 54.136
3654 1 54.253 -7.752 48.924
3655 1 -9.841 -13.215 55.948
3656 1 -5.477 -5.407 55.274
3657 1 -7.351 -8.075 54.186
3658 1 3.751 27.819 35.905
3659 1 18.915 27.904 37.996
3660 1 14.584 25.325 27.819
3661 1 30.839 5.763 44.565
3662 1 33.078 0.332 36.747
3663 1 25.420 8.680 27.821
3664 1 -37.117 1.770 20.542
3665 1 -41.169 7.312 27.310
3666 1 -40.434 8.943 12.066
3667 1 77.037 50.715 13.358
3668 1 77.188 38.853 12.206
3669 1 78.147 43.421 21.397
3670 1 6.834 53.592 4.584
3671 1 9.734 42.756 12.609
3672 1 14.703 42.959 -1.625
3673 1 48.302 -12.510 63.609
3674 1 44.263 -14.698 57.428
3675 1 52.322 -5.992 55.692
3676 1 1.644 3.168 20.101
3677 1 2.492 9.140 30.969
3678 1 -2.128 8.373 22.997
3679 1 -32.728 70.401 41.293
3680 1 -31.054 59.878 48.261
3681 1 -25.921 72.007 39.464
3682 1 49.397 -21.390 39.972
3683 1 41.455 -38.475 17.011
3684 1 42.037 -27.794 35.238
3685 1 28.069 25.982 7.473
3686 1 18.597 15.988 0.944
3687 1 17.473 23.840 5.735
3688 1 0.972 -3.975 20.020
3689 1 -1.008 -4.666 19.546
3690 1 -9.779 -11.223 11.487
3691 1 -33.976 60.040 -10.447
3692 1 -30.121 58.456 -3.702
3693 1 -28.306 59.686 -0.171
3694 1 -11.334 23.286 -5.905
3695 1 -8.018 25.398 -7.863
3696 1 -17.861 25.822 2.351
3697 1 11.752 -19.339 37.510
3698 1 4.917 -21.155 22.478
3699 1 13.309 -20.503 18.562
3700 1 21.946 58.416 38.407
3701 1 26.087 49.408 42.500
3702 1 26.109 53.333 36.049
3703 1 16.888 49.284 30.483
3704 1 14.588 34.892 23.938
3705 1 18.477 37.540 35.645
3706 1 39.755 4.400 14.645
3707 1 39.450 12.049 20.098
3708 1 35.571 4.540 19.411
3709 1 25.769 26.361 -42.130
3710 1 31.432 28.520 -36.948
3711 1 30.017 16.073 -34.693
3712 1 81.369 44.829 45.934
3713 1 77.202 49.363 34.189
3714 1 73.830 45.220 50.023
3715 1 23.554 47.254 19.451
3716 1 17.236 38.184 27.005
3717 1 8.917 38.213 26.753
3718 1 36.045 20.290 38.244
3719 1 40.241 31.063 31.859
3720 1 33.830 23.128 34.098
3721 1 44.460 31.661 48.884
3722 1 41.950 28.925 40.208
3723 1 41.715 28.676 50.359
3724 1 -6.046 42.910 8.556
3725 1 7.570 44.496 8.066
3726 1 -4.627 34.088 11.182
3727 1 9.201 66.142 25.893
3728 1 14.446 54.361 12.321
3729 1 17.042 71.823 27.091
3730 1 -23.785 67.909 49.027
3731 1 -18.102 64.186 41.524
3732 1 -29.716 61.837 45.112
3733 1 -21.027 -1.014 39.456
3734 1 -26.981 -2.214 35.566
3735 1 -20.103 1.296 37.480
3736 1 -18.335 53.571 75.405
3737 1 -23.551 43.709 58.819
3738 1 -23.118 44.942 63.202
3739 1 21.335 59.320 28.137
3740 1 24.050 57.856 25.174
3741 1 21.992 64.282 33.230
3742 1 -28.535 18.846 13.836
3743 1 -25.064 8.301 18.249
3744 1 -27.745 16.778 8.512
3745 1 13.645 74.963 35.718
3746 1 12.083 76.046 33.866
3747 1 11.464 78.730 36.856
3748 1 19.816 54.128 26.122
3749 1 28.368 52.950 33.195
3750 1 14.449 49.752 18.468
3751 1 41.621 38.940 7.389
3752 1 44.261 50.374 -9.196
3753 1 37.581 38.099 3.932
3754 1 21.761 37.793 -27.098
3755 1 14.857 37.012 -21.662
3756 1 18.211 36.301 -28.654
3757 1 15.457 24.795 90.143
3758 1 11.252 17.256 87.003
3759 1 23.406 5.808 93.305
3760 1 14.843 14.178 33.164
3761 1 12.448 6.640 28.389
3762 1 20.167 4.535 28.239
3763 1 25.616 55.445 97.635
3764 1 23.988 62.633 98.819
3765 1 29.439 68.983 92.955
3766 1 -9.092 25.364 39.463
3767 1 0.726 32.402 34.021
3768 1 -20.464 27.776 50.420
3769 1 -9.902 59.047 -14.333
3770 1 -5.628 61.710 -14.930
3771 1 -10.428 54.910 -23.719
3772 1 -20.013 63.252 49.436
3773 1 -12.963 49.762 54.639
3774 1 -17.574 64.402 53.794
3775 1 36.148 58.362 42.270
3776 1 27.964 52.249 31.706
3777 1 36.518 58.989 20.589
3778 1 15.547 99.355 40.974
3779 1 11.964 99.157 30.246
3780 1 8.245 102.110 31.325
3781 1 39.066 83.857 77.139
3782 1 39.219 81.854 52.577
3783 1 33.916 70.176 57.875
3784 1 -13.763 19.728 14.955
3785 1 -8.241 9.573 18.286
3786 1 -24.863 10.704 19.388
3787 1 5.462 35.005 37.180
3788 1 15.069 28.184 32.825
3789 1 20.860 35.342 44.699
3790 1 16.158 40.321 55.010
3791 1 29.229 42.379 42.874
3792 1 24.255 40.592 52.098
3793 1 17.485 38.464 10.820
3794 1 8.696 46.773 12.707
3795 1 18.668 47.065 13.346
3796 1 54.721 24.011 33.320
3797 1 52.199 20.166 32.955
3798 1 47.889 16.726 13.490
3799 1 52.197 47.618 50.413
3800 1 41.346 41.799 65.808
3801 1 48.174 38.681 61.537
3802 1 -18.336 29.873 24.327
3803 1 -19.681 16.259 34.294
3804 1 -19.049 21.042 29.631
3805 1 7.908 45.804 30.779
3806 1 7.915 36.786 34.583
3807 1 10.954 35.575 35.309
3808 1 13.565 -0.969 29.365
3809 1 5.353 -7.293 37.217
3810 1 9.225 -5.704 31.878
3811 1 -28.656 -4.339 24.840
3812 1 -24.196 6.460 7.004
3813 1 -31.252 5.672 -2.413
3814 1 37.277 54.309 10.305
3815 1 37.865 42.008 19.201
3816 1 41.306 45.439 15.959
3817 1 22.849 6.690 23.217
3818 1 13.182 24.681 27.982
3819 1 11.422 5.257 14.575
3820 1 21.787 20.243 41.812
3821 1 35.004 16.995 37.712
3822 1 32.990 20.638 39.630
3823 1 -10.017 8.026 25.496
3824 1 0.280 13.479 38.924
3825 1 -17.652 14.710 27.181
3826 1 53.292 76.340 16.127
3827 1 51.859 76.849 28.726
3828 1 46.849 64.900 25.914
3829 1 45.770 8.439 40.066
3830 1 44.716 9.092 29.966
3831 1 40.819 15.208 40.940
3832 1 35.316 45.264 26.087
3833 1 31.150 42.490 42.556
3834 1 34.092 36.658 39.598
3835 1 52.876 50.914 35.489
3836 1 54.928 53.660 47.248
3837 1 46.165 60.158 42.682
3838 1 56.418 19.038 16.340
3839 1 60.231 36.591 18.242
3840 1 53.134 15.618 15.571
3841 1 21.578 15.202 81.792
3842 1 7.460 18.962 89.808
3843 1 11.018 13.819 88.901
3844 1 31.550 -16.144 64.230
3845 1 34.868 -15.680 68.750
3846 1 21.069 -13.217 70.414
3847 1 27.303 19.031 42.117
3848 1 28.064 24.946 57.044
3849 1 12.611 22.546 44.096
3850 1 -17.300 7.877 39.017
3851 1 -20.179 13.177 50.407
3852 1 -22.928 11.562 44.863
3853 1 -8.604 23.752 13.838
3854 1 -7.115 5.603 7.038
3855 1 -1.370 14.769 18.134
3856 1 26.752 -6.238 23.867
3857 1 27.909 -11.326 20.709
3858 1 21.458 -17.532 28.604
3859 1 19.283 38.295 65.599
3860 1 18.290 23.277 51.980
3861 1 18.756 24.505 58.176
3862 1 26.615 32.456 73.491
3863 1 32.170 41.840 87.877
3864 1 23.837 25.440 75.522
3865 1 54.749 -13.010 39.240
3866 1 55.117 7.217 57.389
3867 1 46.421 -3.302 56.914
3868 1 12.107 -20.730 34.117
3869 1 13.241 -19.633 21.889
3870 1 23.970 -19.284 34.501
3871 1 40.494 -3.898 62.708
3872 1 50.613 8.273 74.979
3873 1 34.307 3.216 74.677
3874 1 33.294 -5.973 78.323
3875 1 27.113 6.509 70.487
3876 1 29.530 -1.398 67.585
3877 1 66.276 11.727 64.452
3878 1 72.084 9.434 71.663
3879 1 62.722 11.393 75.417
3880 1 -15.836 -9.828 54.028
3881 1 -6.376 -0.634 51.157
3882 1 -6.632 -5.524 61.346
3883 1 8.541 20.057 37.374
3884 1 -5.048 13.970 26.955
3885 1 -2.543 22.459 29.684
3886 1 5.071 21.270 13.822
3887 1 -0.760 27.440 8.276
3888 1 -1.728 27.407 15.159
3889 1 -33.431 3.365 73.667
3890 1 -34.907 6.863 62.769
3891 1 -39.233 9.937 56.045
3892 1 -3.251 47.993 12.540
3893 1 -0.541 52.395 25.194
3894 1 -7.111 51.989 3.484
3895 1 -9.247 -3.652 16.755
3896 1 -12.241 0.523 27.310
3897 1 -15.108 -16.675 30.439
3898 1 36.556 -20.851 35.360
3899 1 42.913 -21.428 29.197
3900 1 41.915 -30.266 38.009
3901 1 62.018 25.199 1.615
3902 1 64.576 40.761 14.903
3903 1 55.417 29.690 6.578
3904 1 -1.005 -19.516 9.521
3905 1 8.316 -13.777 -9.173
3906 1 6.887 -19.715 -12.061
3907 1 35.450 9.981 -3.341
3908 1 37.168 17.626 -6.262
3909 1 32.512 12.570 0.448
3910 1 48.071 24.409 20.638
3911 1 41.001 26.982 31.463
3912 1 47.968 33.241 28.862
3913 1 34.366 -27.869 8.750
3914 1 29.162 -15.516 13.784
3915 1 25.402 -32.352 9.562
3916 1 77.431 -7.270 15.718
3917 1 81.357 4.281 -5.351
3918 1 79.029 -2.271 13.397
3919 1 -9.032 -31.650 27.568
3920 1 -3.427 -29.768 38.589
3921 1 -4.498 -35.719 45.929
3922 1 -14.769 4.702 23.217
3923 1 -25.493 5.372 36.287
3924 1 -11.629 7.596 21.245
3925 1 19.494 46.620 -10.667
3926 1 25.726 56.432 5.089
3927 1 30.641 40.212 -6.760
3928 1 -2.480 -8.317 34.173
3929 1 -2.044 -4.051 29.459
3930 1 -3.461 -5.180 38.825
3931 1 33.409 27.730 49.903
3932 1 33.476 27.920 64.760
3933 1 30.597 38.166 58.454
3934 1 46.428 19.805 50.862
3935 1 43.341 5.655 54.437
3936 1 35.856 -0.108 53.376
3937 1 -20.342 6.018 14.802
3938 1 -24.486 -1.267 21.427
3939 1 -25.513 10.994 20.769
3940 1 47.751 22.126 80.607
3941 1 43.893 14.252 79.597
3942 1 46.017 9.633 85.097
3943 1 56.653 -3.066 11.614
3944 1 57.876 -7.908 15.696
3945 1 59.342 -8.902 16.110
3946 1 63.410 0.246 39.892
3947 1 61.281 -3.877 45.781
3948 1 59.904 7.962 32.146
3949 1 44.350 35.672 63.417
3950 1 56.374 26.457 51.180
3951 1 54.019 28.929 49.625
3952 1 41.538 -60.801 -4.970
3953 1 43.157 -66.070 2.211
3954 1 35.269 -55.749 5.142
3955 1 63.914 18.339 74.775
3956 1 62.416 23.298 51.196
3957 1 65.063 9.908 53.482
3958 1 51.340 34.223 -17.593
3959 1 48.276 31.778 -27.321
3960 1 57.842 24.017 -30.053
3961 1 -37.479 19.330 50.779
3962 1 -40.731 18.639 67.355
3963 1 -37.655 22.582 61.475
3964 1 -15.000 35.667 38.767
3965 1 -24.281 45.415 44.567
3966 1 -14.631 41.012 45.403
3967 1 -2.544 -11.262 63.464
3968 1 12.018 -22.947 54.275
3969 1 7.383 -24.315 56.639
3970 1 21.206 44.378 56.776
3971 1 28.396 29.247 47.753
3972 1 29.468 23.700 40.542
3973 1 42.499 -19.862 13.342
3974 1 44.211 -13.693 13.554
3975 1 51.021 -13.207 21.460
3976 1 12.841 6.327 76.891
3977 1 19.609 5.980 72.207
3978 1 7.526 1.412 82.058
3979 1 59.747 -10.773 34.133
3980 1 54.658 -4.962 34.198
3981 1 64.789 -1.726 38.907
3982 1 20.921 15.788 37.069
3983 1 16.601 1.168 35.011
3984 1 21.929 7.818 36.572
3985 1 44.205 44.778 15.748
3986 1 48.241 41.212 4.905
3987 1 41.749 42.991 14.166
3988 1 23.218 43.524 26.149
3989 1 24.424 57.131 29.708
3990 1 30.482 44.034 36.860
3991 1 25.253 -1.386 23.761
3992 1 29.006 -14.531 17.445
3993 1 34.041 -9.268 27.277
3994 1 22.626 5.400 52.907
3995 1 32.638 5.530 47.946
3996 1 35.909 6.740 49.680
3997 1 21.082 76.118 20.420
3998 1 13.103 66.765 15.254
3999 1 21.723 72.045 6.829
4000 1 21.764 33.066 54.021
4001 1 8.986 45.551 45.145
4002 1 12.757 42.988 48.083
4003 1 18.013 21.309 38.879
4004 1 14.857 11.152 50.694
4005 1 24.572 19.183 41.767
4006 1 71.036 -5.689 86.991
4007 1 66.221 -8.429 79.929
4008 1 67.565 -7.063 81.256
4009 1 36.976 28.155 13.036
4010 1 41.809 27.533 25.737
4011 1 40.018 34.936 13.855
4012 1 -9.715 -4.991 60.046
4013 1 -1.817 1.800 61.315
4014 1 -0.962 -3.992 74.397
4015 1 7.963 41.184 66.163
4016 1 10.370 44.003 61.156
4017 1 13.814 43.462 65.760
4018 1 27.554 43.269 36.934
4019 1 20.568 52.560 35.534
4020 1 28.745 41.500 34.212
4021 1 41.160 -13.541 59.386
4022 1 49.298 2.326 54.336
4023 1 35.272 -2.513 48.265
4024 1 19.585 15.836 43.916
4025 1 27.094 28.788 36.989
4026 1 25.194 27.380 42.323
4027 1 57.080 -12.028 32.567
4028 1 58.544 -9.110 31.141
4029 1 62.015 -4.516 21.914
4030 1 -7.719 67.757 -12.235
4031 1 -10.743 73.208 -8.385
4032 1 -10.930 70.934 -9.970
4033 1 2.983 31.434 32.043
4034 1 0.618 35.299 25.382
4035 1 -6.296 40.643 27.405
4036 1 14.221 9.970 27.924
4037 1 11.444 7.005 20.249
4038 1 17.139 18.137 18.057
4039 1 65.669 -11.890 29.988
4040 1 60.617 -18.723 30.475
4041 1 60.002 -19.311 24.912
4042 1 40.745 36.906 55.834
4043 1 43.981 42.256 53.881
4044 1 38.868 49.261 58.668
4045 1 -39.311 24.587 39.575
4046 1 -42.640 20.857 46.951
4047 1 -35.570 30.540 64.099
4048 1 18.943 57.985 67.673
4049 1 10.232 52.469 58.118
4050 1 11.719 54.851 56.542
4051 1 -7.946 24.131 21.534
4052 1 -6.487 24.166 14.885
4053 1 -4.975 24.318 7.633
4054 1 11.641 47.700 54.089
4055 1 4.576 35.276 60.033
4056 1 -0.760 38.321 66.782
4057 1 15.861 -2.221 55.730
4058 1 25.781 -6.098 45.066
4059 1 23.642 -0.855 47.125
4060 1 53.809 5.686 16.867
4061 1 50.011 4.379 20.357
4062 1 55.102 -6.831 33.991
4063 1 7.290 37.061 30.681
4064 1 6.596 42.664 37.645
4065 1 -2.224 37.338 36.894
4066 1 68.106 12.630 18.103
4067 1 66.055 9.962 39.379
4068 1 62.831 17.009 38.129
4069 1 34.431 57.747 42.335
4070 1 27.764 51.555 32.609
4071 1 23.409 48.307 49.113
4072 1 4.054 5.662 -2.772
4073 1 3.534 9.220 15.899
4074 1 -3.957 18.138 -0.634
4075 1 62.531 35.392 27.008
4076 1 54.709 32.447 0.628
4077 1 47.842 23.099 10.363
4078 1 0.246 26.559 30.154
4079 1 10.298 22.984 31.294
4080 1 11.397 25.401 41.890
4081 1 27.424 23.668 59.786
4082 1 32.603 24.046 58.554
4083 1 35.430 22.292 56.908
4084 1 20.338 52.467 53.538
4085 1 19.607 49.119 66.038
4086 1 11.996 38.190 44.524
4087 1 -18.589 45.564 6.314
4088 1 -23.860 36.428 17.383
4089 1 -24.572 40.709 7.036
4090 1 -23.420 36.583 56.024
4091 1 -25.181 38.708 62.560
4092 1 -31.937 43.239 63.987
4093 1 21.344 40.550 0.028
4094 1 28.139 44.466 7.821
4095 1 32.274 38.657 -5.771
4096 1 23.789 27.807 11.134
4097 1 29.309 32.528 14.281
4098 1 10.851 28.697 14.592
4099 1 -2.268 64.526 32.881
4100 1 -5.418 61.715 32.348
4101 1 4.635 64.473 28.844
4102 1 37.334 38.937 -1.566
4103 1 34.114 44.195 -12.753
4104 1 39.595 42.090 3.949
4105 1 13.494 -1.133 31.423
4106 1 15.482 -8.186 18.460
4107 1 11.881 -18.524 22.176
4108 1 33.294 37.054 77.485
4109 1 25.222 61.332 69.155
4110 1 28.637 54.197 69.906
4111 1 45.090 -9.736 30.866
4112 1 35.556 -4.166 24.304
4113 1 34.929 -10.008 19.405
4114 1 37.403 29.902 49.983
4115 1 40.053 31.531 56.800
4116 1 35.473 41.128 64.102
4117 1 -33.009 25.447 71.305
4118 1 -37.995 21.612 68.301
4119 1 -29.489 21.930 68.782
4120 1 -10.353 66.818 47.340
4121 1 -11.352 69.476 44.590
4122 1 0.793 78.102 35.607
4123 1 12.889 65.394 23.260
4124 1 23.461 75.400 14.793
4125 1 7.738 70.468 -2.237
4126 1 36.671 30.265 34.449
4127 1 42.642 31.248 37.713
4128 1 37.735 20.047 32.156
4129 1 22.320 21.010 48.439
4130 1 11.888 16.804 38.178
4131 1 9.454 25.583 38.315
4132 1 -4.990 53.056 24.194
4133 1 -6.838 62.287 30.520
4134 1 -5.256 56.712 27.431
4135 1 22.109 41.364 89.635
4136 1 20.216 34.206 68.502
4137 1 17.459 35.839 76.005
4138 1 -9.200 43.285 17.485
4139 1 -19.984 31.374 24.229
4140 1 -11.696 43.658 7.622
4141 1 46.438 33.793 16.008
4142 1 45.652 29.781 26.726
4143 1 50.892 26.035 27.647
4144 1 -1.063 57.476 55.270
4145 1 -17.891 60.197 39.202
4146 1 -14.332 47.237 38.386
4147 1 42.193 48.209 41.246
4148 1 33.131 41.199 42.214
4149 1 28.917 48.819 42.109
4150 1 17.110 47.449 4.028
4151 1 16.512 44.756 27.360
4152 1 12.739 56.812 26.957
4153 1 8.150 61.840 32.104
4154 1 11.752 51.585 47.064
4155 1 5.099 56.208 49.215
4156 1 -34.893 59.457 44.402
4157 1 -30.628 52.046 48.500
4158 1 -28.677 57.843 38.930
4159 1 -0.115 -0.879 35.876
4160 1 6.212 -1.389 6.712
4161 1 -2.280 8.296 27.669
4162 1 -4.380 35.894 26.926
4163 1 -8.063 47.355 17.641
4164 1 -8.311 44.003 40.781
4165 1 26.063 45.227 15.686
4166 1 24.060 31.864 19.847
4167 1 23.544 49.075 26.029
4168 1 14.684 72.660 19.111
4169 1 11.138 74.407 12.324
4170 1 14.594 75.374 3.503
4171 1 27.515 32.090 74.264
4172 1 25.508 30.283 53.203
4173 1 23.625 34.029 62.812
4174 1 8.350 26.934 38.884
4175 1 9.728 21.032 24.313
4176 1 12.992 27.596 40.189
4177 1 12.604 49.581 15.331
4178 1 32.609 47.141 19.738
4179 1 16.697 39.073 18.964
4180 1 52.908 35.454 60.735
4181 1 51.543 39.278 48.793
4182 1 42.842 37.746 47.154
4183 1 15.202 37.741 62.804
4184 1 5.378 31.848 64.299
4185 1 2.719 28.797 71.598
4186 1 23.713 2.040 -0.172
4187 1 31.528 -0.200 1.806
4188 1 30.090 3.428 -7.514
4189 1 7.205 38.583 70.306
4190 1 16.070 34.650 65.518
4191 1 7.905 25.533 61.714
4192 1 62.790 22.580 39.404
4193 1 67.199 22.320 24.023
4194 1 69.294 25.650 36.630
4195 1 0.112 56.994 24.555
4196 1 -2.700 73.022 16.823
4197 1 5.800 69.993 21.407
4198 1 -25.784 9.625 30.868
4199 1 -27.087 7.605 37.714
4200 1 -27.544 18.910 27.141
4201 1 8.246 34.455 6.118
4202 1 -5.442 39.013 4.236
4203 1 -0.397 28.225 4.203
4204 1 -11.709 -11.319 84.544
4205 1 -7.708 -13.277 82.586
4206 1 -6.349 2.046 71.514
4207 1 42.099 63.871 46.600
4208 1 46.055 60.134 44.782
4209 1 53.704 54.486 42.748
4210 1 18.399 63.697 56.716
4211 1 16.218 73.304 65.755
4212 1 14.719 73.649 59.191
4213 1 47.693 44.701 40.024
4214 1 57.619 42.180 34.874
4215 1 50.333 41.948 35.540
4216 1 36.133 6.660 28.997
4217 1 39.371 8.298 36.091
4218 1 30.557 6.901 36.223
4219 1 29.779 37.554 20.970
4220 1 35.353 43.487 10.878
4221 1 29.557 49.764 17.242
4222 1 23.200 65.526 39.395
4223 1 14.730 71.710 30.365
4224 1 20.680 66.134 47.319
4225 1 -14.528 68.002 24.119
4226 1 -11.400 65.582 20.987
4227 1 -9.783 78.988 18.699
4228 1 77.755 22.885 24.840
4229 1 83.270 25.806 24.875
4230 1 86.887 18.272 25.820
4231 1 51.232 11.217 5.580
4232 1 50.551 4.282 5.102
4233 1 51.121 16.027 7.592
4234 1 -45.910 -25.014 54.894
4235 1 -36.193 -13.852 49.141
4236 1 -39.127 -24.633 48.718
4237 1 20.449 -44.210 81.347
4238 1 22.984 -44.205 75.012
4239 1 29.359 -35.302 86.914
4240 1 5.374 1.090 60.444
4241 1 11.462 -6.525 55.046
4242 1 7.187 -5.637 58.362
4243 1 25.129 24.992 17.667
4244 1 25.249 28.444 7.773
4245 1 20.200 23.758 13.444
4246 1 -25.799 -21.275 8.478
4247 1 -24.598 -11.326 16.803
4248 1 -23.861 -20.395 11.659
4249 1 23.100 -3.789 88.606
4250 1 10.172 -5.997 104.869
4251 1 14.576 -3.855 94.861
4252 1 60.874 -22.494 10.019
4253 1 61.873 -26.287 1.599
4254 1 60.382 -30.880 10.206
4255 1 2.713 -4.875 -4.126
4256 1 3.935 0.458 -10.256
4257 1 5.637 -0.390 6.742
4258 1 61.979 -33.155 54.502
4259 1 70.733 -46.909 71.060
4260 1 56.659 -40.710 63.339
4261 1 4.766 13.704 60.707
4262 1 4.355 3.240 58.292
4263 1 8.292 6.773 61.080
4264 1 6.878 -5.759 29.739
4265 1 1.852 3.592 48.068
4266 1 6.111 -7.922 40.085
4267 1 22.864 18.430 41.213
4268 1 20.612 28.549 41.567
4269 1 14.275 11.479 41.236
4270 1 31.741 -12.909 60.053
4271 1 25.616 -8.675 62.687
4272 1 24.036 -11.008 49.502
4273 1 23.692 0.865 46.146
4274 1 16.145 17.001 45.585
4275 1 11.167 5.000 41.549
4276 1 7.066 45.566 41.887
4277 1 11.008 42.651 28.989
4278 1 10.641 48.719 40.880
4279 1 -27.649 -31.861 35.958
4280 1 -34.383 -31.424 16.118
4281 1 -22.816 -36.385 36.917
4282 1 -8.059 26.232 44.027
4283 1 -6.375 19.001 43.436
4284 1 -8.938 22.359 48.616
4285 1 8.003 39.285 38.357
4286 1 8.442 42.804 33.642
4287 1 9.135 41.841 36.467
4288 1 -5.225 26.627 62.120
4289 1 -16.146 17.889 49.901
4290 1 -9.269 10.703 70.936
4291 1 48.113 8.759 54.199
4292 1 47.572 11.047 54.586
4293 1 41.650 5.062 39.771
4294 1 21.464 -3.698 71.015
4295 1 19.727 4.346 76.049
4296 1 19.019 2.697 80.290
4297 1 26.172 -22.937 75.789
4298 1 33.494 -24.120 81.724
4299 1 31.346 -10.288 74.902
4300 1 19.586 4.595 37.890
4301 1 30.518 -2.002 46.312
4302 1 17.831 2.906 34.887
4303 1 66.604 1.663 45.056
4304 1 64.945 4.121 47.394
4305 1 77.751 4.646 44.193
4306 1 62.281 56.255 30.507
4307 1 61.115 64.016 40.426
4308 1 54.672 57.020 31.443
4309 1 66.154 -22.545 27.529
4310 1 74.719 -15.624 15.337
4311 1 71.506 -21.313 29.732
4312 1 9.881 50.484 49.978
4313 1 11.133 41.211 41.432
4314 1 7.361 50.430 43.603
4315 1 17.931 3.494 55.311
4316 1 15.412 4.416 39.759
4317 1 20.668 18.033 50.112
4318 1 -30.265 -15.237 69.869
4319 1 -29.891 -8.332 53.546
4320 1 -31.878 -19.418 60.058
4321 1 -21.673 -15.554 12.523
4322 1 -20.486 -6.314 8.170
4323 1 -13.258 -8.672 27.864
4324 1 28.648 21.622 49.825
4325 1 30.156 23.070 51.794
4326 1 30.316 24.333 53.594
4327 1 20.064 -8.796 56.316
4328 1 8.307 -5.707 52.552
4329 1 16.313 -7.930 46.746
4330 1 26.018 -42.692 51.399
4331 1 28.636 -35.673 44.728
4332 1 29.404 -36.817 46.292
4333 1 48.887 2.304 51.878
4334 1 39.389 7.588 44.364
4335 1 45.264 4.355 35.034
4336 1 36.570 46.437 25.546
4337 1 34.861 38.895 22.372
4338 1 37.421 33.648 25.510
4339 1 26.227 -18.659 63.136
4340 1 21.411 -14.665 45.734
4341 1 29.554 -29.357 44.694
4342 1 69.485 40.772 21.235
4343 1 64.013 42.104 27.316
4344 1 68.542 37.870 27.202
4345 1 11.008 1.492 77.824
4346 1 15.462 9.882 85.013
4347 1 14.215 1.293 75.219
4348 1 11.418 5.182 -4.207
4349 1 20.187 14.509 0.329
4350 1 17.503 8.334 -15.935
4351 1 -32.654 6.694 34.400
4352 1 -23.591 13.056 40.742
4353 1 -26.396 6.799 27.972
4354 1 10.264 -42.948 62.528
4355 1 -7.584 -43.769 68.294
4356 1 9.866 -40.220 61.206
4357 1 -20.906 59.629 47.750
4358 1 -38.884 75.845 55.741
4359 1 -35.417 68.561 50.154
4360 1 38.799 -36.785 57.573
4361 1 29.794 -38.088 66.436
4362 1 35.547 -37.390 63.816
4363 1 -25.570 5.707 49.702
4364 1 -25.262 1.079 61.977
4365 1 -15.565 0.482 64.721
4366 1 -11.345 20.948 14.752
4367 1 -4.667 17.727 11.050
4368 1 -17.833 18.477 -0.395
4369 1 5.423 44.255 10.836
4370 1 4.048 42.631 6.495
4371 1 2.778 41.351 3.314
4372 1 56.506 -0.233 40.598
4373 1 53.363 -10.988 32.922
4374 1 56.479 -10.593 46.919
4375 1 15.631 -3.026 73.991
4376 1 16.029 -10.178 70.775
4377 1 19.971 -4.558 66.200
4378 1 26.586 -9.401 61.242
4379 1 23.044 -12.953 49.958
4380 1 21.907 -2.365 54.663
4381 1 30.892 11.338 97.787
4382 1 27.772 17.285 96.144
4383 1 30.656 16.023 87.251
4384 1 24.429 14.366 54.691
4385 1 26.304 7.724 55.782
4386 1 22.295 14.456 39.213
4387 1 -26.672 0.403 21.825
4388 1 -24.605 18.567 45.961
4389 1 -21.914 9.971 33.205
4390 1 20.123 59.756 -7.601
4391 1 26.568 54.071 2.572
4392 1 21.191 60.968 -4.855
4393 1 1.845 16.799 50.626
4394 1 6.325 19.856 39.458
4395 1 -4.926 21.768 44.894
4396 1 40.121 33.685 26.273
4397 1 45.066 27.714 16.206
4398 1 35.728 47.009 24.937
4399 1 62.699 16.738 38.090
4400 1 59.062 17.408 39.640
4401 1 52.818 22.837 33.292
4402 1 55.220 -7.506 42.948
4403 1 58.651 -29.410 38.631
4404 1 51.347 -22.930 37.870
4405 1 78.904 -41.692 53.274
4406 1 81.851 -24.839 50.506
4407 1 82.565 -31.757 42.892
4408 1 -31.176 44.534 68.937
4409 1 -32.639 48.072 68.670
4410 1 -39.184 42.919 68.084
4411 1 -59.501 3.631 50.283
4412 1 -63.613 16.034 56.749
4413 1 -64.515 6.168 46.403
4414 1 -17.699 97.559 72.204
4415 1 -10.563 97.751 66.688
4416 1 -15.663 83.792 77.599
4417 1 7.150 29.377 45.416
4418 1 7.154 38.608 48.693
4419 1 1.125 27.699 45.817
4420 1 60.898 32.752 36.614
4421 1 54.098 29.008 41.575
4422 1 66.364 21.141 28.572
4423 1 75.953 12.148 57.965
4424 1 69.962 13.615 43.848
4425 1 76.149 12.185 49.590
4426 1 -16.562 28.713 65.005
4427 1 -16.181 28.646 56.595
4428 1 -14.349 31.538 72.690
4429 1 -35.269 12.709 9.815
4430 1 -33.218 27.829 16.070
4431 1 -30.934 20.256 12.161
4432 1 12.446 30.149 35.615
4433 1 19.254 27.338 27.636
4434 1 23.555 32.498 34.862
4435 1 26.438 -11.715 38.146
4436 1 31.262 -15.841 47.232
4437 1 27.868 -13.723 56.842
4438 1 56.907 -19.774 54.877
4439 1 51.518 -21.220 67.926
4440 1 53.067 -9.909 58.632
4441 1 74.040 -26.724 39.794
4442 1 70.117 -19.146 54.559
4443 1 71.098 -23.911 39.227
4444 1 25.839 50.225 60.365
4445 1 20.612 53.390 51.765
4446 1 26.142 50.346 64.160
4447 1 43.762 13.521 -4.957
4448 1 46.683 14.997 -5.006
4449 1 33.872 20.226 0.153
4450 1 -12.968 35.626 28.232
4451 1 -17.973 33.573 23.695
4452 1 -21.256 25.663 26.957
4453 1 39.694 28.536 43.819
4454 1 37.808 29.235 47.881
4455 1 38.669 25.599 37.569
4456 1 43.940 -4.785 28.341
4457 1 41.455 -0.658 30.300
4458 1 39.029 -1.218 30.784
4459 1 13.708 34.922 58.058
4460 1 15.833 32.340 43.967
4461 1 6.955 32.801 49.628
4462 1 20.355 1.291 10.569
4463 1 15.690 -3.296 4.210
4464 1 11.526 -2.764 11.329
4465 1 38.100 51.654 29.187
4466 1 37.568 37.913 33.674
4467 1 41.185 56.325 32.050
4468 1 22.782 97.652 14.258
4469 1 27.887 97.188 6.588
4470 1 25.144 88.985 7.087
4471 1 -16.362 -36.647 64.738
4472 1 -30.218 -35.411 56.956
4473 1 -20.945 -20.754 59.585
4474 1 49.227 28.298 12.870
4475 1 45.669 28.862 15.459
4476 1 47.293 23.220 18.182
4477 1 -17.647 23.308 54.107
4478 1 -20.249 25.376 53.646
4479 1 -19.755 24.284 48.136
4480 1 43.959 -10.378 57.534
4481 1 43.880 0.585 73.862
4482 1 42.466 6.744 65.456
4483 1 41.976 33.519 35.884
4484 1 57.683 35.484 30.648
4485 1 48.432 34.103 35.978
4486 1 25.879 4.690 15.526
4487 1 24.191 12.720 24.870
4488 1 27.049 15.617 9.615
4489 1 -30.347 62.284 26.266
4490 1 -23.606 76.893 31.164
4491 1 -35.677 71.832 24.923
4492 1 21.138 -43.291 52.860
4493 1 22.347 -44.381 43.097
4494 1 19.165 -29.712 27.433
4495 1 -0.972 29.080 44.454
4496 1 -4.375 25.142 39.882
4497 1 -9.823 19.049 43.717
4498 1 3.823 4.211 70.495
4499 1 10.660 4.368 76.320
4500 1 16.701 6.316 72.764
4501 1 22.332 -4.449 48.923
4502 1 23.295 -8.115 43.735
4503 1 22.964 7.239 49.631
4504 1 15.732 17.131 48.173
4505 1 9.765 12.732 49.604
4506 1 8.903 22.118 41.829
4507 1 13.105 49.042 23.453
4508 1 25.602 43.981 31.838
4509 1 16.281 59.253 52.197
4510 1 39.915 60.523 64.982
4511 1 37.600 58.824 51.622
4512 1 42.852 51.132 65.528
4513 1 38.473 27.109 68.837
4514 1 29.014 23.630 66.120
4515 1 25.709 19.690 83.465
4516 1 4.170 48.561 62.245
4517 1 4.453 41.357 59.138
4518 1 -2.360 44.832 60.022
4519 1 21.785 15.737 17.842
4520 1 14.387 19.171 33.649
4521 1 10.322 10.598 11.616
4522 1 15.403 40.893 48.801
4523 1 5.585 44.196 49.377
4524 1 19.024 47.583 54.734
4525 1 7.379 54.267 2.577
4526 1 6.986 42.312 11.199
4527 1 10.238 47.051 1.122
4528 1 35.889 -23.113 30.831
4529 1 35.734 -24.932 44.772
4530 1 32.371 -28.042 37.122
4531 1 -17.725 4.763 23.309
4532 1 -15.739 13.195 23.921
4533 1 -13.109 10.478 25.467
4534 1 -9.223 13.970 46.104
4535 1 -8.020 23.013 51.462
4536 1 -9.374 25.450 34.909
4537 1 6.506 24.749 88.788
4538 1 5.375 23.836 105.150
4539 1 13.354 29.971 89.331
4540 1 27.373 23.690 11.635
4541 1 16.993 22.530 0.860
4542 1 16.087 24.564 4.050
4543 1 68.861 7.077 77.504
4544 1 67.602 14.040 75.263
4545 1 68.284 8.546 73.572
4546 1 88.246 17.317 60.587
4547 1 92.239 17.535 48.123
4548 1 88.258 15.994 59.724
4549 1 26.298 59.093 88.976
4550 1 25.813 65.835 70.832
4551 1 34.246 64.194 85.089
4552 1 50.519 53.694 90.412
4553 1 49.345 42.192 99.183
4554 1 47.967 48.453 76.399
4555 1 3.944 55.622 49.759
4556 1 4.167 62.667 50.867
4557 1 3.254 47.862 53.219
4558 1 18.125 25.095 3.716
4559 1 22.471 23.857 15.886
4560 1 21.575 27.835 20.094
4561 1 -24.825 14.877 42.698
4562 1 -28.630 27.470 43.746
4563 1 -21.053 18.992 54.770
4564 1 49.275 66.400 41.515
4565 1 47.400 59.354 40.671
4566 1 48.559 62.846 35.208
4567 1 13.307 24.464 23.022
4568 1 9.461 35.828 33.284
4569 1 8.888 35.640 32.226
4570 1 5.993 35.213 77.711
4571 1 8.805 39.675 75.992
4572 1 -2.813 46.337 61.062
4573 1 32.247 38.137 34.326
4574 1 31.488 34.231 27.226
4575 1 34.687 26.239 9.464
4576 1 31.673 29.939 19.156
4577 1 31.176 28.793 35.348
4578 1 34.514 24.028 16.598
4579 1 -24.970 40.476 40.311
4580 1 -25.122 56.138 43.557
4581 1 -26.732 41.057 40.343
4582 1 12.235 26.789 18.301
4583 1 2.035 31.509 18.907
4584 1 17.760 36.397 21.006
4585 1 35.412 -4.278 36.145
4586 1 36.243 -7.123 26.489
4587 1 33.575 1.857 26.223
4588 1 24.398 10.740 46.530
4589 1 21.552 6.782 63.403
4590 1 17.644 16.859 40.811
4591 1 49.179 53.679 46.942
4592 1 56.007 65.356 36.784
4593 1 38.090 52.838 46.384
4594 1 4.970 58.675 20.242
4595 1 -3.237 60.161 23.290
4596 1 15.492 57.437 28.523
4597 1 6.052 52.212 47.643
4598 1 3.096 56.398 53.382
4599 1 2.963 51.499 54.066
4600 1 0.143 55.749 52.879
4601 1 -5.953 58.809 59.073
4602 1 -3.143 58.474 50.092
4603 1 -16.776 21.146 56.768
4604 1 -20.895 29.203 81.813
4605 1 -22.627 23.863 67.321
4606 1 -15.970 30.435 54.498
4607 1 -10.962 27.876 47.299
4608 1 -11.322 20.030 51.735
4609 1 -9.222 73.391 56.757
4610 1 -4.026 80.761 53.048
4611 1 -2.520 75.527 41.857
4612 1 19.097 33.051 33.398
4613 1 23.364 33.029 39.777
4614 1 17.972 40.116 47.710
4615 1 43.481 61.581 30.391
4616 1 42.712 68.362 37.599
4617 1 46.269 66.026 43.716
4618 1 36.857 92.797 36.044
4619 1 41.500 86.912 39.808
4620 1 38.237 89.453 42.138
4621 1 54.143 19.095 55.799
4622 1 47.763 13.717 47.829
4623 1 47.011 21.099 65.137
4624 1 36.510 77.619 35.695
4625 1 40.060 79.330 48.368
4626 1 36.995 70.989 40.889
4627 1 -3.811 61.924 9.443
4628 1 -2.830 61.109 26.127
4629 1 -1.930 63.823 23.818
4630 1 92.524 -7.821 46.903
4631 1 92.345 -18.114 34.025
4632 1 86.664 -2.006 49.826
4633 1 5.645 -24.149 49.885
4634 1 6.948 -18.553 50.976
4635 1 13.501 -10.566 57.413
4636 1 11.267 -26.288 14.473
4637 1 7.350 -23.258 17.895
4638 1 2.034 -35.504 19.057
4639 1 3.134 48.657 64.407
4640 1 -5.110 53.866 56.366
4641 1 -2.416 54.381 73.927
4642 1 15.544 2.401 34.903
4643 1 7.309 -6.075 40.437
4644 1 7.945 -1.109 38.060
4645 1 14.173 25.896 44.037
4646 1 12.619 25.653 44.463
4647 1 12.449 31.659 49.941
4648 1 21.701 3.955 60.695
4649 1 24.888 3.944 56.071
4650 1 33.731 2.455 56.492
4651 1 -37.854 -7.497 61.731
4652 1 -39.187 -3.262 67.904
4653 1 -36.378 0.548 58.713
4654 1 -7.582 -22.077 52.686
4655 1 -12.470 -18.631 45.624
4656 1 -9.485 -11.738 37.214
4657 1 19.756 6.555 45.980
4658 1 15.325 1.783 36.289
4659 1 16.924 12.623 41.906
4660 1 12.639 -14.210 50.789
4661 1 12.773 -21.412 55.704
4662 1 11.597 -6.607 51.905
4663 1 27.296 -36.703 30.913
4664 1 20.936 -34.476 35.753
4665 1 25.477 -29.985 37.304
4666 1 42.925 -0.701 33.249
4667 1 50.113 9.192 44.921
4668 1 50.472 -0.128 33.485
4669 1 44.777 10.027 64.165
4670 1 51.163 11.326 69.705
4671 1 48.471 5.757 50.423
4672 1 -18.372 26.162 33.122
4673 1 -22.304 19.997 24.528
4674 1 -30.912 21.930 31.861
4675 1 -17.602 5.622 58.121
4676 1 -17.257 14.703 63.120
4677 1 -15.763 8.406 66.148
4678 1 38.049 0.624 50.620
4679 1 36.982 0.494 55.805
4680 1 40.473 6.903 50.182
4681 1 21.473 -15.612 37.105
4682 1 28.797 -5.331 30.549
4683 1 23.204 -3.802 17.519
4684 1 -29.557 16.532 94.812
4685 1 -29.670 16.824 91.321
4686 1 -30.052 24.904 90.195
4687 1 -24.947 -17.657 65.603
4688 1 -10.251 -7.273 53.662
4689 1 -15.640 -17.578 60.262
4690 1 43.577 -0.041 49.098
4691 1 38.650 3.111 45.661
4692 1 43.313 9.144 46.643
4693 1 1.972 -26.207 -12.390
4694 1 4.086 -7.111 -3.280
4695 1 8.002 -9.340 -2.652
4696 1 24.615 -1.903 17.423
4697 1 32.463 -0.561 20.631
4698 1 17.862 5.871 27.801
4699 1 42.873 -13.202 -0.331
4700 1 36.187 -19.436 -11.772
4701 1 47.289 -18.623 5.627
4702 1 42.761 -13.158 16.423
4703 1 36.516 -23.099 7.210
4704 1 44.744 -18.859 14.293
4705 1 65.375 -35.408 25.134
4706 1 66.137 -42.127 32.347
4707 1 65.980 -29.429 32.801
4708 1 69.193 -34.947 27.088
4709 1 59.591 -41.259 39.815
4710 1 64.211 -37.990 31.995
4711 1 -20.428 -6.487 51.014
4712 1 -11.946 -12.846 55.485
4713 1 -10.099 -18.649 43.995
4714 1 13.162 5.006 45.369
4715 1 17.717 -4.269 46.030
4716 1 6.036 -9.331 42.429
4717 1 -24.719 4.164 97.455
4718 1 -28.425 -2.808 106.944
4719 1 -19.560 0.042 86.369
4720 1 12.783 38.787 64.814
4721 1 20.091 36.187 59.815
4722 1 17.301 29.990 71.828
4723 1 8.500 22.284 64.576
4724 1 9.773 14.329 75.899
4725 1 12.741 10.446 59.382
4726 1 42.649 13.669 35.713
4727 1 41.188 5.094 37.072
4728 1 51.563 0.537 37.202
4729 1 -3.924 45.844 42.946
4730 1 -7.931 41.145 54.368
4731 1 -2.255 43.735 41.997
4732 1 25.024 11.596 11.281
4733 1 33.858 5.822 17.072
4734 1 27.656 -0.341 19.642
4735 1 30.007 0.901 10.233
4736 1 43.966 14.222 15.884
4737 1 44.704 6.969 16.212
4738 1 -3.459 -2.694 39.296
4739 1 2.095 -8.052 44.955
4740 1 12.878 -9.141 50.171
4741 1 34.563 -2.112 100.983
4742 1 32.608 0.288 97.606
4743 1 38.744 -5.124 103.393
4744 1 52.762 2.386 44.286
4745 1 58.909 5.218 32.759
4746 1 57.814 1.585 48.072
4747 1 54.590 -11.548 62.547
4748 1 50.517 -11.428 69.910
4749 1 51.844 -5.721 58.359
4750 1 -42.836 -2.791 56.000
4751 1 -45.132 5.175 58.420
4752 1 -26.133 6.030 57.299
4753 1 11.510 41.012 34.892
4754 1 17.289 46.146 31.831
4755 1 12.513 43.062 27.576
4756 1 -0.573 31.747 39.051
4757 1 -2.698 37.722 32.933
4758 1 -12.670 24.093 38.506
4759 1 37.789 25.604 6.641
4760 1 34.631 24.445 -2.384
4761 1 32.136 40.928 13.301
4762 1 30.875 -19.916 34.205
4763 1 32.350 -15.353 17.542
4764 1 30.402 -9.264 29.768
4765 1 10.274 -20.102 76.552
4766 1 10.576 -19.373 78.127
4767 1 21.327 -3.472 83.058
4768 1 46.721 35.715 2.205
4769 1 45.273 31.919 18.638
4770 1 34.709 26.728 3.313
4771 1 33.855 15.882 34.190
4772 1 29.670 13.124 31.828
4773 1 26.799 14.626 43.820
4774 1 42.983 -3.064 58.878
4775 1 32.597 -8.579 55.236
4776 1 34.714 6.461 58.961
4777 1 44.475 -8.199 11.267
4778 1 34.525 -6.363 7.315
4779 1 39.834 -4.887 0.433
4780 1 24.747 42.601 36.639
4781 1 24.740 38.233 39.394
4782 1 32.707 35.324 31.284
4783 1 33.420 -12.109 25.192
4784 1 33.891 -25.563 16.632
4785 1 34.264 -25.834 25.796
4786 1 15.518 21.584 17.268
4787 1 17.768 19.489 18.606
4788 1 15.645 20.760 11.235
4789 1 -8.849 37.852 21.039
4790 1 -1.978 38.872 14.875
4791 1 -2.034 31.095 17.738
4792 1 0.438 24.005 50.140
4793 1 -0.575 26.965 45.060
4794 1 -0.969 22.314 54.157
4795 1 5.191 3.453 41.938
4796 1 -4.744 10.396 56.991
4797 1 -5.261 4.420 41.571
4798 1 29.412 28.745 57.018
4799 1 28.725 27.089 41.073
4800 1 33.687 34.288 45.491
4801 1 31.013 -5.222 20.368
4802 1 28.139 -2.832 21.333
4803 1 26.797 0.540 16.506
4804 1 34.903 8.036 29.416
4805 1 21.707 13.665 32.087
4806 1 24.184 27.928 29.513
4807 1 33.397 52.528 75.242
4808 1 34.395 33.716 65.496
4809 1 30.240 38.815 53.346
4810 1 90.225 24.295 32.001
4811 1 80.436 23.649 31.810
4812 1 76.338 25.973 39.117
4813 1 48.976 41.485 46.131
4814 1 53.139 39.213 51.950
4815 1 46.458 33.715 42.886
4816 1 -10.107 -8.308 56.061
4817 1 -15.135 -11.226 67.866
4818 1 -6.868 -0.713 65.728
4819 1 2.836 71.777 39.307
4820 1 -2.593 65.632 41.477
4821 1 5.533 66.165 35.501
4822 1 -20.056 -1.139 69.941
4823 1 -29.140 -6.455 54.124
4824 1 -22.829 -3.197 62.164
4825 1 29.993 48.992 75.213
4826 1 34.020 41.768 72.922
4827 1 38.215 34.609 72.052
4828 1 94.328 26.657 48.163
4829 1 91.109 40.552 68.050
4830 1 88.807 39.807 50.342
4831 1 23.568 11.179 62.810
4832 1 28.208 16.979 70.643
4833 1 28.366 18.292 65.876
4834 1 8.004 -21.408 49.996
4835 1 8.937 -16.278 46.102
4836 1 12.062 -14.336 45.208
4837 1 74.315 -15.420 48.798
4838 1 89.082 -0.698 50.763
4839 1 78.324 -2.788 38.032
4840 1 9.541 51.429 39.320
4841 1 19.221 60.769 34.152
4842 1 8.411 49.108 34.428
4843 1 -17.460 -9.849 51.798
4844 1 -19.344 -14.512 49.019
4845 1 -16.684 -2.026 34.129
4846 1 -13.527 67.298 18.513
4847 1 -10.454 64.863 25.573
4848 1 -17.862 65.272 26.813
4849 1 35.783 22.476 43.605
4850 1 31.005 23.690 54.668
4851 1 31.348 36.548 43.452
4852 1 25.087 23.869 2.270
4853 1 25.713 24.007 -10.683
4854 1 25.174 22.709 -7.086
4855 1 -2.281 44.408 41.027
4856 1 -3.037 48.252 31.739
4857 1 -0.152 46.249 33.394
4858 1 84.654 1.857 54.489
4859 1 90.861 7.055 59.406
4860 1 75.352 -0.931 64.154
4861 1 40.795 31.183 40.607
4862 1 36.982 30.877 54.728
4863 1 35.743 31.571 52.582
4864 1 -27.114 35.246 49.553
4865 1 -36.653 17.117 55.868
4866 1 -23.914 17.370 60.027
4867 1 -23.672 49.510 88.672
4868 1 -24.117 59.785 95.513
4869 1 -28.202 60.491 77.212
4870 1 -15.394 12.585 8.374
4871 1 -25.479 15.727 13.818
4872 1 -16.181 12.121 4.333
4873 1 16.808 53.238 40.462
4874 1 9.798 61.179 53.084
4875 1 14.566 53.500 51.465
4876 1 49.906 45.628 63.911
4877 1 48.238 42.521 63.900
4878 1 56.384 31.963 59.102
4879 1 11.334 29.249 29.379
4880 1 10.341 42.424 23.954
4881 1 9.065 31.552 20.803
4882 1 52.878 31.705 68.877
4883 1 53.544 31.676 62.460
4884 1 51.137 47.959 58.552
4885 1 28.716 27.362 76.229
4886 1 30.791 34.544 73.771
4887 1 35.047 28.391 67.395
4888 1 -25.170 9.358 49.709
4889 1 -33.083 6.883 57.091
4890 1 -28.326 5.734 45.050
4891 1 5.882 42.967 61.320
4892 1 8.963 44.896 63.349
4893 1 5.030 47.297 75.495
4894 1 -10.589 33.243 37.354
4895 1 -4.479 50.722 19.006
4896 1 -14.231 36.266 19.978
4897 1 6.137 35.848 19.700
4898 1 0.958 34.428 11.543
4899 1 3.887 36.338 25.200
4900 1 7.984 35.740 46.855
4901 1 13.949 39.332 59.164
4902 1 16.267 39.811 36.335
4903 1 -26.998 55.502 38.525
4904 1 -36.973 48.857 40.162
4905 1 -25.954 41.892 36.486
4906 1 36.045 50.444 70.800
4907 1 30.342 49.638 73.979
4908 1 41.471 54.775 84.154
4909 1 55.913 8.948 32.398
4910 1 43.974 6.918 43.748
4911 1 48.534 -4.144 41.902
4912 1 -10.278 66.242 63.050
4913 1 -7.112 63.992 47.400
4914 1 -5.727 53.590 51.782
4915 1 46.601 13.969 23.490
4916 1 42.059 13.419 39.191
4917 1 52.353 15.450 21.958
4918 1 -18.851 12.699 35.157
4919 1 -24.928 11.445 21.448
4920 1 -15.356 9.201 37.633
4921 1 67.830 11.229 57.027
4922 1 63.869 15.828 62.255
4923 1 63.630 5.527 65.598
4924 1 15.653 4.354 33.818
4925 1 24.345 16.062 27.281
4926 1 20.999 7.653 34.933
4927 1 59.962 63.956 45.563
4928 1 63.241 68.420 46.774
4929 1 73.085 41.548 54.763
4930 1 14.153 37.846 60.163
4931 1 15.193 31.505 55.117
4932 1 8.681 30.848 44.905
4933 1 50.290 56.248 28.819
4934 1 49.582 57.228 19.789
4935 1 43.031 47.650 36.899
4936 1 19.638 17.187 24.675
4937 1 28.838 14.609 10.223
4938 1 26.511 12.661 21.047
4939 1 12.071 83.290 49.255
4940 1 19.568 86.149 54.056
4941 1 11.087 67.192 38.784
4942 1 30.320 22.678 24.300
4943 1 25.585 41.915 19.983
4944 1 32.616 38.029 23.603
4945 1 27.410 17.040 62.855
4946 1 27.943 16.965 49.750
4947 1 19.909 21.103 50.222
4948 1 14.041 2.405 -13.192
4949 1 18.993 8.709 -14.193
4950 1 12.558 11.022 -25.642
4951 1 8.150 57.791 54.167
4952 1 10.846 60.261 55.024
4953 1 5.276 62.571 47.472
4954 1 -1.765 76.507 56.486
4955 1 0.420 76.224 46.767
4956 1 -1.937 80.891 66.266
4957 1 -30.488 26.885 70.837
4958 1 -26.505 29.109 81.787
4959 1 -17.662 37.139 77.535
4960 1 5.771 37.956 60.861
4961 1 6.361 39.239 53.248
4962 1 -7.541 44.363 70.830
4963 1 26.124 84.478 40.140
4964 1 19.388 86.748 47.985
4965 1 26.475 79.754 47.686
4966 1 4.682 42.840 27.979
4967 1 1.484 42.654 21.184
4968 1 -1.110 48.167 32.546
4969 1 -4.371 30.574 32.470
4970 1 -8.962 41.393 27.076
4971 1 -9.814 26.350 31.616
4972 1 0.505 24.821 39.917
4973 1 -7.515 31.403 44.646
4974 1 -0.823 30.536 51.998
4975 1 19.508 4.758 38.367
4976 1 15.491 13.898 22.776
4977 1 23.936 10.293 16.890
4978 1 60.088 23.075 39.519
4979 1 71.048 15.797 65.116
4980 1 70.233 1.342 48.181
4981 1 26.072 31.282 58.809
4982 1 32.004 34.824 46.819
4983 1 24.260 35.896 54.708
4984 1 31.629 11.253 66.222
4985 1 31.589 4.733 59.313
4986 1 25.698 2.524 71.732
4987 1 20.528 31.843 50.627
4988 1 16.812 28.632 63.794
4989 1 15.422 38.173 60.602
4990 1 -20.328 35.420 39.491
4991 1 -11.645 38.656 35.629
4992 1 -12.209 45.097 40.134
4993 1 2.867 45.311 8.188
4994 1 13.740 43.265 17.677
4995 1 1.966 52.430 8.373
4996 1 36.824 74.076 17.899
4997 1 35.573 73.822 27.429
4998 1 41.506 66.945 13.550
4999 1 -8.040 58.624 52.398
5000 1 -4.290 53.015 70.048
5001 1 -1.447 46.344 69.835
5002 1 2.111 45.527 51.499
5003 1 5.817 48.912 51.976
5004 1 3.590 39.957 49.347
5005 1 -2.329 36.265 69.910
5006 1 5.711 30.522 58.149
5007 1 5.919 37.545 80.236
5008 1 -12.631 42.953 24.937
5009 1 -12.405 40.217 48.845
5010 1 0.123 52.312 35.187
5011 1 22.598 40.708 47.200
5012 1 15.761 37.021 65.517
5013 1 18.156 43.759 57.994
5014 1 0.417 31.906 52.478
5015 1 4.441 25.094 59.046
5016 1 -2.293 27.387 50.247
5017 1 58.938 29.805 28.584
5018 1 63.207 27.474 24.654
5019 1 58.681 30.449 11.700
5020 1 31.157 21.405 23.510
5021 1 37.523 17.072 12.477
5022 1 35.355 22.995 7.074
5023 1 15.824 56.225 62.384
5024 1 15.465 62.960 49.891
5025 1 16.273 63.849 59.009
5026 1 8.894 33.446 66.029
5027 1 4.877 44.121 62.673
5028 1 12.552 48.616 62.430
5029 1 -3.402 43.030 15.359
5030 1 -9.316 45.264 9.590
5031 1 -14.231 37.983 18.367
5032 1 -15.474 18.170 38.881
5033 1 -25.828 20.065 36.455
5034 1 -24.387 19.518 36.615
5035 1 55.901 39.447 17.008
5036 1 43.073 37.964 17.111
5037 1 43.647 32.602 36.892
5038 1 5.112 49.387 43.868
5039 1 -3.686 44.036 36.053
5040 1 0.955 50.195 33.227
5041 1 3.041 58.999 57.191
5042 1 -6.809 62.840 56.275
5043 1 -7.800 60.688 65.015
5044 1 10.867 28.529 75.419
5045 1 16.220 34.704 71.907
5046 1 -1.649 32.012 74.774
5047 1 9.515 8.351 35.113
5048 1 11.922 5.248 47.442
5049 1 5.654 7.613 41.399
5050 1 25.756 28.277 -0.506
5051 1 36.381 27.638 0.523
5052 1 24.630 32.087 -0.518
5053 1 -13.752 50.909 48.196
5054 1 -11.282 55.482 37.232
5055 1 -12.589 50.834 39.250
5056 1 46.389 -3.732 32.911
5057 1 46.398 2.714 43.668
5058 1 41.147 2.270 42.296
5059 1 69.406 22.439 28.371
5060 1 72.293 43.553 25.299
5061 1 66.066 40.346 34.329
5062 1 54.103 43.486 38.181
5063 1 42.121 45.547 35.160
5064 1 46.145 48.244 34.465
5065 1 71.387 85.983 27.076
5066 1 69.855 88.551 32.981
5067 1 63.938 86.996 42.369
5068 1 -26.036 14.756 53.550
5069 1 -19.140 10.033 45.718
5070 1 -19.124 9.933 36.211
5071 1 -20.674 -42.907 61.501
5072 1 -25.071 -41.004 65.970
5073 1 -26.964 -38.337 60.321
5074 1 -10.899 -35.462 65.736
5075 1 -1.276 -16.331 67.110
5076 1 -15.523 -27.099 65.868
5077 1 2.898 -46.176 60.192
5078 1 3.443 -42.349 54.876
5079 1 1.642 -49.090 51.079
5080 1 10.408 12.640 47.876
5081 1 16.049 23.242 38.166
5082 1 14.415 7.583 37.352
5083 1 8.364 5.793 94.644
5084 1 22.905 6.256 91.482
5085 1 10.514 2.725 93.595
5086 1 29.251 -37.308 44.602
5087 1 31.693 -24.434 31.100
5088 1 23.953 -33.913 45.010
5089 1 25.407 -17.020 41.221
5090 1 35.448 -11.717 31.199
5091 1 28.790 -12.658 43.983
5092 1 33.469 7.445 63.981
5093 1 41.038 -8.338 53.413
5094 1 30.415 4.080 60.352
5095 1 47.898 18.539 25.695
5096 1 40.748 13.675 35.219
5097 1 53.413 10.643 26.051
5098 1 24.146 -8.186 53.594
5099 1 13.439 -7.090 56.268
5100 1 18.436 -31.340 55.227
5101 1 56.377 32.087 47.767
5102 1 51.993 21.745 48.332
5103 1 59.979 21.987 52.236
5104 1 36.212 -39.861 44.373
5105 1 31.727 -30.509 44.755
5106 1 38.553 -36.265 57.851
5107 1 -58.067 24.800 91.464
5108 1 -60.186 16.962 81.870
5109 1 -63.023 25.461 103.729
5110 1 0.896 5.933 47.372
5111 1 -3.908 -3.464 45.094
5112 1 -13.339 -15.169 46.212
5113 1 27.827 2.914 48.737
5114 1 30.535 3.745 30.709
5115 1 26.440 7.611 29.519
5116 1 50.821 17.868 50.237
5117 1 51.165 13.411 25.516
5118 1 46.799 16.451 34.518
5119 1 45.224 10.629 5.251
5120 1 35.487 -0.051 24.085
5121 1 35.738 11.294 8.133
5122 1 -16.256 -1.225 9.322
5123 1 -11.469 -9.787 13.870
5124 1 -9.344 7.226 27.590
5125 1 12.442 36.131 2.518
5126 1 24.873 35.826 -1.304
5127 1 14.937 28.388 13.451
5128 1 -18.062 40.468 65.311
5129 1 -9.070 33.746 51.899
5130 1 -11.575 34.217 38.485
5131 1 71.967 28.392 21.697
5132 1 72.945 41.528 20.493
5133 1 83.468 29.947 20.208
5134 1 20.235 0.446 29.126
5135 1 21.290 -19.243 35.252
5136 1 15.774 -22.650 33.418
5137 1 47.527 -60.783 50.948
5138 1 51.979 -60.553 55.697
5139 1 53.523 -49.691 45.891
5140 1 17.051 -19.436 72.652
5141 1 15.928 -28.108 66.168
5142 1 14.393 -26.556 59.654
5143 1 24.380 -52.533 41.048
5144 1 23.362 -59.080 48.097
5145 1 26.377 -47.063 46.214
5146 1 9.936 9.118 33.123
5147 1 14.421 -3.102 30.607
5148 1 3.537 6.337 24.351
5149 1 -6.503 22.934 79.005
5150 1 4.303 25.554 71.360
5151 1 -0.270 23.666 79.324
5152 1 1.164 -6.227 52.615
5153 1 -1.946 -8.882 51.264
5154 1 -1.966 -6.489 56.203
5155 1 50.999 47.575 34.084
5156 1 44.603 41.757 26.396
5157 1 39.794 40.464 37.844
5158 1 -30.465 -5.226 59.968
5159 1 -35.092 -1.399 29.912
5160 1 -26.581 5.240 55.703
5161 1 -10.571 20.696 67.949
5162 1 -13.993 28.739 68.825
5163 1 -8.129 26.400 51.635
5164 1 -28.846 -9.274 54.402
5165 1 -25.422 1.721 60.964
5166 1 -27.722 -4.852 51.345
5167 1 23.232 35.774 48.897
5168 1 25.727 33.811 28.082
5169 1 26.275 33.249 37.675
5170 1 13.244 28.912 25.003
5171 1 12.898 42.231 37.671
5172 1 3.032 36.470 37.444
5173 1 54.584 29.824 71.030
5174 1 50.834 33.974 72.021
5175 1 52.155 27.968 61.268
5176 1 46.307 39.702 57.269
5177 1 45.841 41.173 60.044
5178 1 49.068 47.371 55.318
5179 1 67.880 -24.366 44.373
5180 1 66.440 -25.907 41.812
5181 1 68.156 -25.672 56.762
5182 1 64.691 -33.627 50.851
5183 1 68.168 -30.684 53.741
5184 1 61.448 -23.999 52.580
5185 1 -24.342 45.259 80.766
5186 1 -23.690 49.982 64.803
5187 1 -21.531 44.385 70.919
5188 1 8.100 57.986 77.047
5189 1 -1.626 56.224 68.745
5190 1 3.335 65.605 86.184
5191 1 8.098 17.007 26.946
5192 1 5.181 21.315 37.254
5193 1 8.765 2.605 23.719
5194 1 37.636 59.402 65.411
5195 1 28.067 65.154 73.616
5196 1 26.766 58.205 72.662
5197 1 24.852 13.430 50.338
5198 1 29.619 26.203 47.550
5199 1 30.186 13.555 46.216
5200 1 2.924 42.176 40.328
5201 1 18.192 28.170 33.209
5202 1 14.828 41.738 33.727
5203 1 45.723 -9.165 38.343
5204 1 53.173 -10.386 35.608
5205 1 49.400 -15.731 32.069
5206 1 42.569 12.985 29.475
5207 1 43.912 14.740 28.059
5208 1 44.426 15.129 12.485
5209 1 0.310 33.853 -19.003
5210 1 -6.209 39.284 -8.999
5211 1 10.763 37.652 -7.645
5212 1 6.798 12.688 51.236
5213 1 1.386 12.236 44.617
5214 1 -1.596 20.392 52.038
5215 1 17.701 8.545 47.295
5216 1 13.634 12.929 64.141
5217 1 16.793 8.047 66.766
5218 1 28.278 -21.022 31.642
5219 1 34.861 -25.090 35.161
5220 1 29.941 -22.599 36.282
5221 1 71.917 -17.530 64.933
5222 1 66.550 -13.792 48.738
5223 1 74.446 -9.667 45.197
5224 1 -16.404 -15.836 42.292
5225 1 -20.331 -9.010 49.705
5226 1 -20.995 -27.287 35.947
5227 1 9.099 20.348 64.807
5228 1 8.513 26.897 67.564
5229 1 13.339 26.125 76.815
5230 1 35.930 36.982 71.220
5231 1 31.111 27.419 58.380
5232 1 35.883 36.617 64.241
5233 1 25.644 -6.212 31.792
5234 1 21.901 0.349 43.077
5235 1 30.633 1.922 35.928
5236 1 6.457 24.499 0.113
5237 1 9.467 13.838 5.244
5238 1 4.550 20.386 1.548
5239 1 16.379 42.003 67.075
5240 1 17.520 57.257 71.431
5241 1 17.069 56.860 75.225
5242 1 -9.399 55.964 51.380
5243 1 -6.278 55.742 54.228
5244 1 1.383 60.149 61.814
5245 1 57.208 2.292 36.757
5246 1 47.656 -5.175 41.951
5247 1 63.620 0.269 37.808
5248 1 49.447 12.108 4.589
5249 1 43.311 8.453 24.814
5250 1 50.012 4.161 16.223
5251 1 6.521 0.764 27.880
5252 1 8.539 -4.835 24.041
5253 1 5.497 3.394 13.954
5254 1 35.067 -3.757 66.853
5255 1 33.224 -9.554 71.426
5256 1 28.662 -13.952 82.997
5257 1 88.797 68.850 12.578
5258 1 89.540 73.916 17.401
5259 1 88.215 73.211 7.718
5260 1 24.689 48.443 62.401
5261 1 26.202 43.872 76.891
5262 1 29.389 34.973 63.472
5263 1 39.586 17.351 81.859
5264 1 45.418 16.651 79.554
5265 1 41.936 12.835 72.964
5266 1 4.004 15.366 26.604
5267 1 9.658 1.865 35.180
5268 1 4.069 1.748 42.044
5269 1 -19.683 4.478 91.291
5270 1 -16.963 3.988 81.733
5271 1 -15.894 17.605 85.400
5272 1 32.253 10.595 57.277
5273 1 34.078 16.639 63.597
5274 1 24.045 -4.713 56.859
5275 1 36.300 37.904 66.986
5276 1 33.779 41.760 54.844
5277 1 39.248 35.871 68.747
5278 1 21.641 42.003 55.396
5279 1 22.808 23.220 58.053
5280 1 19.005 34.656 68.619
5281 1 42.056 -13.111 24.568
5282 1 52.688 -7.945 15.880
5283 1 45.109 -13.141 21.051
5284 1 29.797 15.397 37.020
5285 1 28.049 23.851 46.484
5286 1 38.689 25.030 41.861
5287 1 61.341 38.762 29.951
5288 1 53.249 35.757 46.626
5289 1 60.979 41.031 28.531
5290 1 24.265 -16.858 51.145
5291 1 33.728 -13.914 75.532
5292 1 27.123 -3.563 66.562
5293 1 10.719 15.134 42.273
5294 1 12.208 16.833 38.968
5295 1 14.141 7.019 26.053
5296 1 -9.538 3.801 50.186
5297 1 -10.914 5.775 50.035
5298 1 -6.992 11.172 45.873
5299 1 37.734 4.383 67.022
5300 1 33.901 1.276 62.694
5301 1 28.366 -4.832 61.646
5302 1 11.625 28.099 17.742
5303 1 2.513 16.119 19.702
5304 1 12.518 24.025 11.223
5305 1 26.797 24.075 15.278
5306 1 27.210 15.356 23.651
5307 1 19.606 13.633 21.552
5308 1 0.355 29.716 54.958
5309 1 0.665 35.020 55.148
5310 1 4.410 30.209 56.582
5311 1 35.320 87.009 11.323
5312 1 32.780 91.561 15.435
5313 1 30.767 86.778 20.120
5314 1 21.517 50.452 66.341
5315 1 15.218 54.086 68.966
5316 1 25.998 54.915 71.343
5317 1 14.872 -5.543 28.532
5318 1 11.507 -7.876 32.906
5319 1 14.193 -3.429 29.605
5320 1 -7.642 30.856 40.055
5321 1 -3.814 41.823 40.324
5322 1 -11.026 41.487 46.301
5323 1 -16.565 13.551 35.259
5324 1 -21.710 9.495 37.325
5325 1 -14.561 13.689 40.728
5326 1 39.035 13.007 50.604
5327 1 34.008 20.223 39.477
5328 1 42.784 22.146 46.637
5329 1 10.428 23.129 18.272
5330 1 18.471 15.435 28.110
5331 1 4.704 18.319 3.001
5332 1 25.611 40.827 101.291
5333 1 33.422 55.848 80.136
5334 1 21.923 49.880 91.079
5335 1 38.354 45.422 37.840
5336 1 37.057 49.397 42.689
5337 1 40.009 43.093 37.675
5338 1 18.584 11.285 66.526
5339 1 11.039 19.538 55.144
5340 1 19.650 13.161 59.366
5341 1 8.340 41.375 43.067
5342 1 13.133 37.671 37.094
5343 1 -0.094 43.240 46.422
5344 1 53.357 -9.188 40.848
5345 1 37.961 -12.368 47.760
5346 1 54.147 -7.934 46.280
5347 1 7.116 26.181 71.784
5348 1 9.419 28.375 72.637
5349 1 9.076 43.564 68.669
5350 1 -22.741 11.681 29.837
5351 1 -23.377 14.581 33.894
5352 1 -28.967 7.981 41.593
5353 1 5.595 18.700 37.111
5354 1 2.254 20.323 32.634
5355 1 3.839 11.995 34.121
5356 1 -14.112 30.251 34.728
5357 1 -8.635 35.448 31.979
5358 1 -10.110 38.179 25.590
5359 1 7.355 45.032 75.715
5360 1 19.022 47.163 85.124
5361 1 9.918 39.202 86.275
5362 1 -3.413 51.385 81.187
5363 1 8.994 38.440 72.346
5364 1 4.727 47.412 70.509
5365 1 5.540 47.941 77.836
5366 1 5.331 47.491 63.011
5367 1 13.465 56.819 72.333
5368 1 20.880 0.334 51.549
5369 1 19.405 11.016 54.301
5370 1 27.888 10.072 54.386
5371 1 -15.395 31.359 17.124
5372 1 -21.569 25.582 31.142
5373 1 -15.879 30.368 36.622
5374 1 4.618 75.252 48.831
5375 1 6.384 75.853 49.838
5376 1 5.916 76.444 45.464
5377 1 11.026 -17.836 41.855
5378 1 11.785 -14.320 51.609
5379 1 7.304 -18.182 44.926
5380 1 26.807 18.994 69.616
5381 1 26.218 24.044 58.781
5382 1 22.923 20.275 55.518
5383 1 36.548 51.242 10.840
5384 1 35.434 54.375 22.304
5385 1 35.895 46.151 22.079
5386 1 -2.445 89.402 66.906
5387 1 -11.772 90.860 61.684
5388 1 -17.715 90.336 58.568
5389 1 31.539 16.999 58.456
5390 1 30.673 32.740 52.395
5391 1 20.962 28.551 53.748
5392 1 -22.767 49.262 44.680
5393 1 -21.641 48.920 32.939
5394 1 -21.186 38.180 32.977
5395 1 27.270 35.113 100.889
5396 1 26.869 37.711 107.874
5397 1 25.733 42.085 114.219
5398 1 13.617 -11.701 40.503
5399 1 19.539 -13.461 40.432
5400 1 18.041 -7.016 44.094
5401 1 63.703 26.238 61.146
5402 1 73.165 25.128 53.073
5403 1 76.126 35.981 52.751
5404 1 -0.971 6.443 25.479
5405 1 -3.727 -0.234 24.094
5406 1 -2.365 22.192 9.947
5407 1 13.124 39.986 64.675
5408 1 22.854 47.069 65.115
5409 1 25.415 52.395 65.887
5410 1 4.662 36.545 76.066
5411 1 6.776 40.684 86.830
5412 1 9.492 45.784 68.566
5413 1 13.954 45.231 36.580
5414 1 19.016 48.819 31.462
5415 1 23.372 58.714 45.324
5416 1 15.396 -2.131 58.131
5417 1 21.859 5.067 61.312
5418 1 21.576 -1.477 48.676
5419 1 58.625 62.019 26.865
5420 1 62.565 64.479 29.100
5421 1 58.466 59.214 39.384
5422 1 33.205 36.109 38.103
5423 1 25.660 33.535 43.693
5424 1 31.872 36.571 47.906
5425 1 -4.981 22.441 38.530
5426 1 -11.467 20.762 44.394
5427 1 -8.753 19.011 40.692
5428 1 13.051 27.994 60.958
5429 1 8.789 26.821 58.966
5430 1 7.715 35.970 63.746
5431 1 -17.439 16.137 37.893
5432 1 -19.662 10.054 40.787
5433 1 -17.199 7.351 40.806
5434 1 16.432 -5.372 37.754
5435 1 20.418 -8.482 34.730
5436 1 12.252 -11.277 28.364
5437 1 27.507 67.673 5.701
5438 1 17.330 60.345 10.108
5439 1 15.483 66.922 11.994
5440 1 -3.520 58.342 40.722
5441 1 4.238 64.910 55.668
5442 1 -0.497 59.731 48.943
5443 1 -5.727 26.031 77.188
5444 1 -10.211 24.166 68.208
5445 1 -12.604 24.040 73.799
5446 1 29.021 69.200 32.912
5447 1 33.475 51.163 50.708
5448 1 38.664 61.298 39.264
5449 1 -55.903 42.368 17.802
5450 1 -56.242 51.278 25.851
5451 1 -55.580 41.477 23.078
5452 1 20.955 25.710 21.166
5453 1 30.673 27.282 30.609
5454 1 20.272 25.547 27.406
5455 1 6.739 35.626 14.572
5456 1 -1.125 25.457 19.239
5457 1 7.802 30.817 26.198
5458 1 5.475 22.946 96.788
5459 1 4.595 13.212 75.256
5460 1 8.998 26.886 75.967
5461 1 51.957 35.395 71.071
5462 1 49.361 30.211 77.808
5463 1 51.795 12.930 63.839
5464 1 2.920 45.962 48.479
5465 1 10.705 43.766 40.793
5466 1 0.586 53.321 39.087
5467 1 -1.774 29.716 57.462
5468 1 0.724 46.238 44.895
5469 1 3.209 42.436 53.625
5470 1 -10.581 24.079 73.366
5471 1 -17.085 24.473 77.096
5472 1 -18.184 32.888 72.752
5473 1 -14.409 16.715 72.971
5474 1 -13.260 11.588 81.755
5475 1 -19.226 11.072 77.760
5476 1 0.881 49.838 51.411
5477 1 10.967 61.744 48.480
5478 1 9.604 55.722 49.566
5479 1 44.374 53.398 93.482
5480 1 39.885 44.716 75.554
5481 1 40.018 42.944 82.419
5482 1 29.718 27.776 38.463
5483 1 22.598 34.749 25.525
5484 1 21.428 29.849 31.275
5485 1 19.342 60.226 78.338
5486 1 20.295 64.524 82.066
5487 1 23.472 63.167 77.907
5488 1 49.188 56.138 39.450
5489 1 45.415 55.218 37.135
5490 1 50.504 52.322 30.679
5491 1 63.401 43.509 27.094
5492 1 59.562 39.847 35.552
5493 1 69.206 37.628 38.649
5494 1 26.109 59.347 37.171
5495 1 29.269 61.839 28.881
5496 1 29.382 58.257 36.779
5497 1 14.865 61.735 -10.585
5498 1 29.721 55.031 -6.623
5499 1 19.556 59.689 -15.153
5500 1 19.500 38.822 74.660
5501 1 23.705 34.498 65.045
5502 1 22.919 29.094 67.974
5503 1 -15.508 94.591 56.791
5504 1 -22.843 93.693 70.212
5505 1 -16.990 81.909 52.173
5506 1 40.974 38.170 59.381
5507 1 41.443 48.580 55.391
5508 1 32.597 39.125 56.327
5509 1 19.024 -4.527 48.162
5510 1 22.819 -2.510 62.587
5511 1 20.403 6.628 71.031
5512 1 -10.392 71.240 56.554
5513 1 -14.180 66.325 53.915
5514 1 -11.152 71.950 60.351
5515 1 -3.692 36.686 91.614
5516 1 -11.862 43.772 89.433
5517 1 -1.295 43.136 93.123
5518 1 -7.879 48.530 65.443
5519 1 -12.785 39.456 77.368
5520 1 -8.649 52.292 68.230
5521 1 -25.878 123.831 23.010
5522 1 -24.116 123.603 41.538
5523 1 -24.847 108.487 28.790
5524 1 31.607 35.744 67.093
5525 1 34.054 45.164 53.399
5526 1 34.414 41.531 64.300
5527 1 37.626 94.614 4.735
5528 1 41.961 82.161 15.373
5529 1 42.619 94.031 13.397
5530 1 37.280 31.051 80.905
5531 1 40.880 23.425 86.073
5532 1 37.323 29.426 73.636
5533 1 36.942 30.562 50.776
5534 1 47.056 33.754 64.133
5535 1 54.417 34.209 52.697
5536 1 54.002 20.191 28.707
5537 1 54.339 29.138 31.648
5538 1 64.861 18.278 20.807
5539 1 67.738 26.526 84.268
5540 1 71.084 15.281 99.298
5541 1 71.273 17.321 82.696
