ITEM: TIMESTEP
0
ITEM: NUMBER OF ATOMS
5541
ITEM: BOX BOUNDS pp pp pp
0.0 38.2
0.0 38.2
0.0 38.2
ITEM: ATOMS id type x y z
1 1 -7.235 -42.465 -63.225
2 1 4.855 -39.263 -46.950
3 1 -7.360 -39.687 -58.789
4 1 10.008 -45.952 -40.887
5 1 11.604 -52.095 -57.437
6 1 5.158 -40.898 -58.614
7 1 7.106 -40.047 -66.627
8 1 15.524 -43.523 -34.712
9 1 18.372 -36.873 -45.468
10 1 1.906 -33.253 -46.948
11 1 2.103 -33.253 -66.349
12 1 4.133 -49.873 -45.516
13 1 7.087 -40.210 -48.017
14 1 3.648 -45.992 -55.212
15 1 11.357 -33.784 -44.266
16 1 7.135 -25.690 -49.183
17 1 14.136 -36.350 -68.360
18 1 4.869 -41.824 -54.667
19 1 -9.195 -45.444 -55.525
20 1 5.797 -50.068 -58.996
21 1 11.524 -39.306 -55.112
22 1 13.120 -45.504 -50.856
23 1 10.224 -48.291 -56.137
24 1 5.352 -44.757 -53.036
25 1 10.989 -40.356 -64.609
26 1 5.882 -44.437 -52.755
27 1 6.667 -49.331 -56.557
28 1 1.033 -58.332 -42.040
29 1 11.461 -46.316 -62.276
30 1 0.017 -51.002 -69.492
31 1 7.845 -40.477 -47.404
32 1 1.951 -42.369 -57.301
33 1 4.103 -49.631 -50.846
34 1 6.601 -46.422 -51.182
35 1 7.166 -48.248 -57.345
36 1 11.084 -53.018 -47.378
37 1 11.051 -51.785 -50.075
38 1 10.159 -43.550 -57.077
39 1 2.775 -44.148 -67.915
40 1 7.964 -43.038 -51.606
41 1 9.487 -49.427 -51.253
42 1 4.276 -42.722 -58.910
43 1 2.347 -46.966 -48.536
44 1 3.458 -45.363 -49.217
45 1 -0.355 -39.701 -43.425
46 1 13.833 -31.957 -49.500
47 1 11.161 -41.553 -50.386
48 1 5.000 -35.948 -52.272
49 1 11.303 -35.041 -48.830
50 1 12.346 -46.418 -50.524
51 1 17.079 -36.088 -48.071
52 1 1.414 -41.737 -66.132
53 1 7.048 -29.817 -47.946
54 1 -4.070 -45.361 -62.210
55 1 2.481 -35.650 -47.403
56 1 6.482 -52.927 -53.188
57 1 6.976 -52.348 -55.688
58 1 12.459 -51.714 -64.410
59 1 10.711 -53.642 -56.351
60 1 11.744 -43.365 -56.675
61 1 59.321 -41.111 -46.718
62 1 53.632 -39.581 -40.803
63 1 53.027 -39.463 -38.666
64 1 58.829 -43.446 -37.050
65 1 54.279 -40.370 -48.580
66 1 57.738 -40.234 -44.543
67 1 59.082 -39.531 -44.414
68 1 57.154 -34.500 -47.066
69 1 48.717 -39.101 -65.344
70 1 56.871 -36.109 -33.499
71 1 49.550 -34.772 -33.800
72 1 63.859 -36.358 -40.971
73 1 54.712 -47.680 -39.263
74 1 59.817 -39.167 -44.535
75 1 55.946 -21.016 -36.374
76 1 65.715 -41.523 -40.269
77 1 54.061 -40.383 -48.750
78 1 56.788 -25.066 -47.166
79 1 53.069 -36.768 -43.898
80 1 49.353 -42.913 -36.415
81 1 55.629 -40.877 -37.560
82 1 52.040 -29.749 -42.189
83 1 55.146 -24.268 -30.524
84 1 44.488 -41.591 -39.198
85 1 55.518 -38.665 -45.053
86 1 54.401 -30.306 -47.912
87 1 52.772 -32.831 -50.752
88 1 53.050 -35.405 -43.981
89 1 52.122 -26.885 -25.735
90 1 50.858 -36.188 -47.506
91 1 57.479 -36.584 -35.205
92 1 45.881 -22.731 -40.897
93 1 55.251 -39.263 -42.898
94 1 47.978 -27.421 -47.981
95 1 53.509 -40.856 -39.289
96 1 53.619 -37.531 -32.269
97 1 52.963 -32.281 -22.073
98 1 50.646 -30.139 -47.150
99 1 54.278 -33.855 -36.288
100 1 49.987 -42.899 -26.342
101 1 50.455 -29.828 -40.814
102 1 40.047 -30.497 -50.044
103 1 59.375 -34.527 -57.467
104 1 52.860 -35.766 -36.828
105 1 53.829 -34.633 -37.277
106 1 51.924 -29.648 -34.248
107 1 48.028 -30.068 -33.865
108 1 49.253 -29.331 -33.072
109 1 55.457 -39.407 -41.882
110 1 49.985 -28.908 -45.945
111 1 59.017 -30.957 -33.878
112 1 60.553 -34.399 -46.341
113 1 54.467 -30.145 -49.569
114 1 46.501 -27.554 -44.284
115 1 56.164 -29.974 -30.575
116 1 45.794 -29.301 -41.006
117 1 55.179 -31.748 -37.243
118 1 52.558 -28.198 -42.002
119 1 51.845 -27.333 -43.281
120 1 50.094 -32.639 -24.148
121 1 -0.459 -14.075 -15.241
122 1 13.118 -2.252 -27.706
123 1 12.206 -23.381 -26.718
124 1 12.456 -9.189 -36.804
125 1 9.940 -15.001 -46.928
126 1 11.524 -12.307 -35.978
127 1 6.919 -24.622 -24.329
128 1 6.485 -18.338 -29.585
129 1 5.395 -12.609 -26.261
130 1 15.302 -5.842 -27.706
131 1 8.458 -7.851 -25.679
132 1 9.552 -11.742 -38.055
133 1 11.749 -19.322 -24.326
134 1 -2.934 -2.984 -48.703
135 1 22.375 -12.302 -42.265
136 1 13.459 -18.144 -30.201
137 1 13.386 -8.044 -38.179
138 1 8.898 -18.450 -20.501
139 1 10.035 -12.464 -44.384
140 1 10.028 -21.207 -38.652
141 1 11.506 -18.742 -28.727
142 1 13.931 -14.282 -33.063
143 1 19.207 -18.701 -24.807
144 1 10.088 -15.595 -30.059
145 1 6.124 -6.579 -30.726
146 1 10.442 -9.622 -31.419
147 1 5.784 -8.983 -39.063
148 1 20.991 -11.973 -46.665
149 1 9.038 1.918 -37.987
150 1 7.087 -16.284 -12.080
151 1 6.047 -15.066 -29.885
152 1 3.583 -4.048 -18.580
153 1 15.719 -22.983 -32.189
154 1 3.391 -12.992 -39.140
155 1 3.596 -22.656 -30.413
156 1 10.669 -2.464 -28.498
157 1 14.675 -30.853 -38.464
158 1 8.119 -6.999 -29.258
159 1 10.658 -27.956 -45.461
160 1 5.922 -17.685 -29.926
161 1 8.571 -18.487 -38.795
162 1 15.282 -12.659 -33.174
163 1 6.467 -17.107 -35.625
164 1 18.125 -10.613 -33.583
165 1 15.340 -29.366 -41.848
166 1 11.103 -21.291 -28.662
167 1 10.049 -9.139 -32.488
168 1 16.956 -4.413 -18.910
169 1 5.577 -14.332 -38.339
170 1 16.674 -8.562 -33.082
171 1 19.603 -27.054 -27.059
172 1 15.489 -22.052 -21.494
173 1 9.230 -5.256 -25.540
174 1 15.414 -12.495 -35.356
175 1 8.483 -7.780 -53.569
176 1 7.582 -17.298 -44.690
177 1 12.883 -8.968 -19.003
178 1 9.192 -4.983 -23.506
179 1 5.031 -8.482 -28.234
180 1 16.628 -11.470 -34.658
181 1 2.944 -31.047 -20.899
182 1 3.912 -32.142 -20.216
183 1 3.455 -23.605 -7.008
184 1 -56.492 -29.241 22.564
185 1 -59.346 -35.304 27.309
186 1 -61.491 -34.588 30.794
187 1 -10.155 45.708 13.726
188 1 -10.036 54.404 19.591
189 1 -6.957 47.834 17.653
190 1 15.491 9.233 -56.797
191 1 20.704 13.640 -33.976
192 1 17.546 12.924 -51.293
193 1 -5.318 -4.436 -5.400
194 1 -8.046 -0.655 -9.394
195 1 -9.858 -12.376 -8.992
196 1 -39.076 -29.508 -24.034
197 1 -44.680 -12.343 -28.419
198 1 -49.613 -25.078 -24.100
199 1 25.137 -40.470 -17.438
200 1 24.290 -27.519 -7.168
201 1 23.444 -42.898 -13.584
202 1 32.841 0.380 34.693
203 1 33.547 2.782 27.386
204 1 38.991 -2.057 36.398
205 1 18.204 11.342 48.497
206 1 21.501 12.204 30.291
207 1 16.859 -0.685 24.684
208 1 39.755 -30.714 21.777
209 1 37.429 -36.857 11.780
210 1 44.592 -34.510 14.441
211 1 32.600 -28.659 -14.956
212 1 31.069 -27.691 -8.894
213 1 29.871 -31.111 -5.634
214 1 83.561 15.699 6.293
215 1 78.534 22.374 13.558
216 1 83.578 23.143 8.904
217 1 57.039 29.792 47.190
218 1 69.538 25.722 37.486
219 1 66.269 17.760 46.475
220 1 -38.484 -11.383 -9.910
221 1 -41.713 -11.263 -17.142
222 1 -48.142 -8.197 -13.966
223 1 -8.902 -33.065 5.402
224 1 -21.530 -30.782 -9.560
225 1 -11.313 -29.586 -17.924
226 1 -7.494 -0.152 27.190
227 1 -5.781 -3.249 27.570
228 1 -13.605 -0.254 18.150
229 1 -10.641 -8.109 -11.001
230 1 0.418 -13.989 -24.397
231 1 -4.839 -8.165 -23.256
232 1 13.609 34.242 -7.464
233 1 15.346 24.483 21.888
234 1 14.629 26.079 -6.861
235 1 -0.489 13.575 2.530
236 1 -3.001 9.483 19.671
237 1 -1.763 15.147 15.490
238 1 9.027 17.104 -18.747
239 1 12.045 16.675 -28.338
240 1 8.640 28.160 -16.482
241 1 18.887 -32.023 -32.438
242 1 8.801 -21.452 -40.464
243 1 19.104 -23.893 -28.614
244 1 13.440 -1.957 -6.163
245 1 11.786 -6.959 -13.045
246 1 15.781 8.474 -6.655
247 1 39.771 39.072 -32.249
248 1 41.161 46.750 -29.528
249 1 38.641 46.127 -20.978
250 1 88.997 5.139 -27.560
251 1 87.696 -0.944 -21.702
252 1 91.554 4.742 -21.179
253 1 20.455 -22.874 3.549
254 1 17.463 -24.622 -3.075
255 1 20.088 -26.514 2.534
256 1 15.692 -25.178 41.646
257 1 11.934 -9.717 41.155
258 1 16.343 -18.506 26.368
259 1 -20.994 30.431 -13.162
260 1 -15.778 13.883 -33.499
261 1 -26.434 28.247 -15.493
262 1 32.564 18.436 -50.689
263 1 41.246 3.648 -40.470
264 1 39.883 17.903 -43.588
265 1 -20.493 -13.692 -21.445
266 1 -24.806 -12.035 -26.582
267 1 -18.676 -5.960 -25.332
268 1 -25.371 48.652 16.021
269 1 -32.290 58.520 12.435
270 1 -27.946 58.640 18.252
271 1 -12.712 -31.029 22.965
272 1 -6.181 -38.060 25.362
273 1 -19.180 -22.929 26.371
274 1 10.106 14.665 -31.415
275 1 8.588 2.934 -34.350
276 1 12.933 -0.758 -32.707
277 1 37.959 14.397 -6.214
278 1 25.656 10.847 -14.417
279 1 27.711 16.713 -17.381
280 1 -17.506 44.226 -38.589
281 1 -11.083 42.499 -40.405
282 1 -15.395 40.099 -40.618
283 1 38.344 24.501 -16.817
284 1 46.057 24.454 -15.570
285 1 33.735 21.275 -17.303
286 1 29.068 6.696 20.089
287 1 22.800 -10.993 35.370
288 1 14.938 2.172 30.662
289 1 53.794 -18.375 13.837
290 1 53.419 -24.563 19.233
291 1 51.099 -29.314 16.220
292 1 89.535 2.237 9.371
293 1 92.875 -4.491 14.149
294 1 88.861 -7.343 9.836
295 1 44.146 39.114 9.301
296 1 48.338 46.033 -15.659
297 1 51.008 32.848 -22.682
298 1 -27.761 26.404 2.274
299 1 -28.799 30.237 0.963
300 1 -20.755 40.450 -16.736
301 1 -12.638 -20.805 -9.470
302 1 -10.744 -28.003 -8.416
303 1 -15.366 -22.960 -12.453
304 1 -26.857 -39.068 -7.098
305 1 -19.007 -38.054 -7.200
306 1 -23.347 -31.325 -19.243
307 1 -39.499 -2.244 0.277
308 1 -31.531 -5.818 -15.412
309 1 -43.218 2.338 -10.505
310 1 26.408 11.035 -62.132
311 1 22.800 19.630 -51.784
312 1 29.206 11.443 -64.665
313 1 10.244 -6.461 -18.997
314 1 -9.182 -1.372 -16.480
315 1 1.921 6.468 -13.342
316 1 16.476 -24.233 9.873
317 1 5.823 -39.375 9.680
318 1 8.784 -44.950 5.571
319 1 25.511 18.315 4.252
320 1 21.209 12.378 -1.911
321 1 27.870 8.111 -7.712
322 1 56.323 9.842 13.269
323 1 60.015 6.955 17.535
324 1 63.960 18.952 8.093
325 1 13.661 -11.949 -23.048
326 1 9.984 -0.664 -5.174
327 1 16.011 -10.571 -12.784
328 1 4.300 -26.632 -33.535
329 1 8.575 -9.955 -36.985
330 1 3.687 -8.714 -26.062
331 1 19.448 -29.954 -48.520
332 1 27.142 -32.344 -39.092
333 1 13.613 -33.279 -50.567
334 1 31.333 35.214 -14.763
335 1 31.461 37.523 -19.553
336 1 26.465 34.227 -18.309
337 1 -30.764 33.565 16.979
338 1 -50.004 33.913 26.273
339 1 -46.095 30.597 16.140
340 1 -8.368 18.493 29.752
341 1 -15.800 19.673 27.982
342 1 -13.538 15.681 38.189
343 1 -11.604 0.842 -20.684
344 1 -11.213 0.191 -16.001
345 1 -11.888 -0.204 -25.529
346 1 -7.711 27.977 25.713
347 1 -8.897 27.275 47.094
348 1 -13.428 22.692 15.860
349 1 41.281 -22.569 -48.860
350 1 34.131 -14.756 -40.851
351 1 39.455 -16.350 -51.566
352 1 57.724 -7.102 -31.646
353 1 64.409 -10.813 -40.858
354 1 63.364 -5.451 -24.256
355 1 -10.525 24.545 19.950
356 1 -10.140 41.437 21.844
357 1 -15.529 37.695 21.090
358 1 50.502 -44.033 -55.818
359 1 45.884 -59.504 -46.085
360 1 42.633 -46.289 -59.831
361 1 -5.272 43.496 43.629
362 1 -12.701 43.205 47.412
363 1 -10.807 44.726 55.252
364 1 12.341 18.857 22.419
365 1 2.837 17.788 15.141
366 1 2.531 24.231 12.802
367 1 62.323 26.306 -8.382
368 1 58.932 25.062 -23.148
369 1 63.100 20.751 -15.017
370 1 77.022 33.170 43.309
371 1 82.037 28.212 39.191
372 1 80.029 21.790 49.210
373 1 30.489 35.136 -6.389
374 1 44.265 30.597 -5.205
375 1 48.585 31.037 -3.572
376 1 -17.283 56.720 -29.159
377 1 -13.866 48.503 -31.502
378 1 -20.501 53.797 -25.816
379 1 -14.061 -9.004 -26.802
380 1 -20.081 -11.122 -16.916
381 1 -18.333 -16.451 -17.383
382 1 -7.173 14.731 -11.060
383 1 -9.491 32.915 -17.927
384 1 -1.336 9.029 -5.712
385 1 7.763 25.048 16.987
386 1 0.928 30.771 16.184
387 1 6.186 34.315 13.637
388 1 -13.311 7.950 -32.725
389 1 -20.668 6.135 -36.612
390 1 -17.448 1.643 -32.712
391 1 34.194 49.630 -5.182
392 1 29.347 36.451 -2.523
393 1 20.928 37.457 -1.331
394 1 9.875 53.898 10.399
395 1 7.195 45.827 4.232
396 1 18.284 64.822 -11.390
397 1 44.223 88.381 -16.028
398 1 50.954 87.546 -15.384
399 1 32.817 84.492 -18.465
400 1 0.617 37.817 53.700
401 1 3.079 30.672 43.865
402 1 -4.655 38.457 31.748
403 1 -17.739 47.814 -14.073
404 1 -16.244 49.543 -13.867
405 1 -20.825 47.214 -23.337
406 1 48.868 1.790 -39.696
407 1 52.403 7.992 -32.547
408 1 53.681 5.352 -20.974
409 1 35.123 -14.272 -12.832
410 1 25.416 -23.568 -4.943
411 1 33.500 -15.117 -7.895
412 1 65.051 -24.189 -32.645
413 1 58.902 -27.676 -36.054
414 1 61.050 -22.604 -31.301
415 1 -1.173 -23.376 -5.418
416 1 -6.557 -30.446 -11.661
417 1 -10.770 -17.243 -10.103
418 1 -6.626 28.170 7.637
419 1 -5.262 22.677 6.852
420 1 -4.640 15.501 8.954
421 1 8.199 70.554 7.182
422 1 5.492 81.015 20.323
423 1 3.576 70.347 1.932
424 1 25.682 -18.367 -5.334
425 1 24.652 -10.687 6.569
426 1 26.049 -27.944 2.839
427 1 -30.402 62.198 -6.954
428 1 -44.193 59.659 5.547
429 1 -36.750 50.287 5.180
430 1 44.565 1.762 10.608
431 1 52.533 7.461 5.535
432 1 50.624 6.145 22.639
433 1 38.626 7.242 41.394
434 1 39.108 22.005 24.592
435 1 44.954 8.807 32.910
436 1 -7.863 10.773 38.541
437 1 -1.508 14.628 41.384
438 1 -8.852 8.336 30.426
439 1 -18.754 37.227 -55.715
440 1 -22.006 40.990 -61.263
441 1 -20.091 43.756 -53.903
442 1 14.924 51.736 38.938
443 1 4.418 56.558 42.331
444 1 13.742 52.762 35.408
445 1 34.581 14.053 -20.696
446 1 23.944 22.291 -7.073
447 1 27.339 17.517 -13.643
448 1 -6.435 5.913 -58.377
449 1 -3.868 8.646 -51.059
450 1 -16.192 19.468 -46.814
451 1 41.637 67.294 10.082
452 1 50.919 59.102 14.642
453 1 43.127 63.884 9.251
454 1 0.847 -7.860 14.030
455 1 6.203 -3.555 -7.083
456 1 5.206 -8.016 8.695
457 1 14.146 59.209 20.036
458 1 13.211 54.889 0.814
459 1 22.868 60.920 14.320
460 1 6.015 41.030 -7.832
461 1 10.554 28.675 -3.883
462 1 9.680 35.368 -11.052
463 1 -18.655 16.706 -2.068
464 1 -14.169 29.501 2.375
465 1 -19.914 20.670 15.478
466 1 -12.992 -57.497 -31.705
467 1 -11.086 -53.182 -26.082
468 1 -13.149 -67.507 -23.154
469 1 11.323 4.592 -24.866
470 1 6.428 -7.632 -33.648
471 1 14.908 -1.840 -16.372
472 1 -6.643 12.048 -5.552
473 1 -9.573 8.379 -11.232
474 1 -19.688 5.470 -15.958
475 1 6.239 18.912 60.353
476 1 13.476 11.444 59.045
477 1 7.826 0.889 70.089
478 1 45.419 31.776 -9.304
479 1 57.295 17.147 -9.166
480 1 49.473 37.137 4.938
481 1 -13.007 28.532 8.943
482 1 -12.689 44.480 18.612
483 1 -9.036 39.279 0.879
484 1 26.715 16.770 -6.839
485 1 25.689 15.672 -9.659
486 1 18.982 23.611 -19.380
487 1 43.406 11.443 -9.802
488 1 31.892 1.805 9.007
489 1 32.096 3.309 -4.859
490 1 36.608 60.350 -15.063
491 1 42.515 64.533 -13.960
492 1 49.816 64.367 -23.034
493 1 2.678 18.456 -12.981
494 1 9.081 8.435 -19.921
495 1 13.038 26.497 -17.819
496 1 -53.490 -11.257 -12.698
497 1 -56.363 -1.114 -13.190
498 1 -52.575 -2.990 -5.105
499 1 -39.342 29.679 7.988
500 1 -34.095 37.075 11.768
501 1 -41.172 29.299 -3.118
502 1 2.115 31.474 -6.838
503 1 11.790 34.109 -11.404
504 1 10.409 27.960 -10.316
505 1 8.973 33.734 -49.119
506 1 7.486 27.383 -50.650
507 1 3.848 36.745 -37.733
508 1 23.270 60.477 7.270
509 1 26.739 52.566 1.487
510 1 17.297 53.737 0.973
511 1 -6.364 58.206 59.135
512 1 -17.491 45.017 72.383
513 1 -14.593 51.696 62.596
514 1 19.049 26.187 -14.957
515 1 9.839 48.094 1.098
516 1 13.627 35.000 3.881
517 1 12.757 29.834 26.676
518 1 17.503 30.850 22.455
519 1 7.842 38.583 26.068
520 1 66.069 16.227 32.792
521 1 70.967 19.520 30.538
522 1 62.210 6.305 21.771
523 1 -4.720 18.977 16.700
524 1 5.613 18.513 11.856
525 1 -1.462 14.702 16.859
526 1 4.782 -2.299 23.039
527 1 8.536 -14.814 26.493
528 1 7.095 -14.934 24.239
529 1 34.216 12.425 -14.971
530 1 29.403 6.397 -11.894
531 1 37.193 10.370 -3.469
532 1 19.730 62.227 -36.978
533 1 32.021 41.957 -46.184
534 1 20.516 54.508 -52.349
535 1 53.427 69.378 -31.572
536 1 45.136 67.543 -35.022
537 1 43.506 62.530 -31.149
538 1 2.746 -13.321 12.112
539 1 -1.477 -2.870 19.500
540 1 0.901 -14.987 15.395
541 1 41.252 8.435 0.098
542 1 45.980 9.612 0.507
543 1 40.412 22.035 2.199
544 1 -18.460 38.213 1.161
545 1 -4.421 25.337 -7.485
546 1 -6.733 30.032 1.710
547 1 -5.480 -15.414 -21.572
548 1 -7.317 -13.605 -28.192
549 1 -17.381 -15.710 -20.960
550 1 37.248 50.800 -5.162
551 1 34.789 51.009 -3.765
552 1 37.479 51.568 -11.366
553 1 32.828 15.418 19.084
554 1 23.117 3.790 15.903
555 1 37.842 -3.151 16.815
556 1 1.612 52.999 -56.725
557 1 -6.269 45.143 -48.184
558 1 -4.830 52.831 -48.694
559 1 -18.299 33.160 -11.022
560 1 -27.958 29.822 -21.220
561 1 -10.324 28.498 -20.374
562 1 15.174 25.709 9.185
563 1 13.006 18.757 35.189
564 1 12.075 13.119 19.862
565 1 25.994 129.532 20.824
566 1 24.701 134.165 12.173
567 1 31.304 124.194 20.332
568 1 26.745 43.872 -38.260
569 1 19.182 48.035 -23.251
570 1 25.797 55.364 -42.260
571 1 5.870 59.087 -27.782
572 1 17.306 60.352 -18.594
573 1 12.763 52.143 -22.902
574 1 -1.590 66.183 6.672
575 1 1.707 71.896 3.453
576 1 -5.923 65.831 9.898
577 1 -12.606 32.754 48.867
578 1 -13.500 27.520 42.412
579 1 -25.608 30.757 26.772
580 1 42.389 -0.527 20.366
581 1 41.486 -13.727 15.467
582 1 43.371 -9.715 17.558
583 1 -24.449 4.292 28.662
584 1 -18.162 11.620 29.450
585 1 -17.364 11.481 27.046
586 1 -26.263 30.472 -37.246
587 1 -21.213 26.884 -16.105
588 1 -21.480 32.744 -23.890
589 1 47.060 57.458 -5.301
590 1 46.908 69.729 2.034
591 1 45.801 60.119 12.582
592 1 21.188 -18.847 -31.459
593 1 21.827 -18.106 -37.587
594 1 17.042 -18.681 -42.146
595 1 36.307 36.754 -24.545
596 1 30.686 37.649 -33.953
597 1 45.511 32.855 -29.520
598 1 44.819 -5.538 -4.803
599 1 36.855 -8.145 -12.182
600 1 52.128 5.151 -19.077
601 1 46.378 66.149 11.986
602 1 42.826 74.118 20.333
603 1 47.630 78.127 15.522
604 1 58.749 -6.959 -37.278
605 1 67.259 -5.469 -31.907
606 1 54.008 -13.571 -33.657
607 1 56.194 26.372 16.367
608 1 56.818 30.014 4.048
609 1 57.718 37.824 10.237
610 1 -39.941 -0.594 -81.189
611 1 -45.241 1.937 -95.350
612 1 -40.398 -1.569 -73.583
613 1 12.210 54.190 16.776
614 1 16.194 57.615 6.410
615 1 11.895 68.691 33.781
616 1 41.335 62.600 -38.030
617 1 28.999 52.517 -48.728
618 1 39.150 66.185 -44.470
619 1 37.209 15.552 -14.306
620 1 36.051 16.213 -17.824
621 1 43.774 -0.341 -22.079
622 1 5.461 73.093 13.323
623 1 15.094 79.793 10.522
624 1 7.826 75.081 9.302
625 1 43.248 0.688 -14.177
626 1 32.650 8.658 -20.764
627 1 40.987 6.850 -7.494
628 1 21.374 76.903 18.133
629 1 29.482 76.780 33.850
630 1 21.157 81.287 17.354
631 1 -6.595 74.811 10.885
632 1 -5.405 89.323 2.822
633 1 -17.810 83.738 -3.729
634 1 46.231 56.348 -19.531
635 1 49.121 51.499 -21.185
636 1 47.702 52.319 -29.753
637 1 50.254 41.868 52.311
638 1 48.826 40.310 43.745
639 1 45.669 48.910 29.230
640 1 41.852 106.830 -18.102
641 1 46.414 101.772 -23.262
642 1 47.472 105.179 -11.711
643 1 87.723 15.966 -1.150
644 1 86.903 27.431 -2.045
645 1 85.464 32.145 7.279
646 1 22.857 12.804 1.653
647 1 30.027 24.057 -0.473
648 1 36.071 -1.577 -10.065
649 1 28.841 38.954 -14.874
650 1 22.347 47.575 -9.074
651 1 18.758 39.333 -20.999
652 1 6.336 45.314 -54.592
653 1 24.824 55.590 -56.176
654 1 9.289 54.010 -51.555
655 1 -18.587 50.187 -12.154
656 1 -4.562 52.120 -16.449
657 1 -7.818 54.982 -22.730
658 1 40.353 76.170 -15.516
659 1 45.741 69.836 -13.130
660 1 34.271 76.365 -9.728
661 1 -11.518 24.242 -2.957
662 1 -16.599 27.302 -7.667
663 1 -15.864 26.431 2.361
664 1 -14.100 39.670 -66.523
665 1 -10.708 30.852 -69.023
666 1 -21.470 51.180 -56.541
667 1 63.892 29.292 -16.706
668 1 58.312 23.008 -14.528
669 1 60.086 34.671 -15.642
670 1 0.952 86.956 56.792
671 1 -2.164 79.617 48.501
672 1 -1.656 82.332 40.079
673 1 41.192 51.227 -20.458
674 1 34.557 50.894 -16.578
675 1 42.543 47.128 -6.485
676 1 40.984 8.357 35.307
677 1 37.078 6.501 33.681
678 1 37.590 2.765 27.114
679 1 -1.891 27.929 3.875
680 1 -8.872 31.970 -8.382
681 1 -2.770 19.301 -7.105
682 1 31.625 56.943 5.499
683 1 40.602 60.669 0.163
684 1 30.413 61.928 9.371
685 1 -17.444 81.634 -13.301
686 1 -7.167 76.145 -27.491
687 1 -12.217 66.542 -10.486
688 1 -9.378 -21.103 -11.781
689 1 -2.029 -22.692 3.214
690 1 -5.941 -26.711 9.119
691 1 -47.819 -1.301 11.262
692 1 -57.463 -11.490 20.821
693 1 -55.110 -7.581 18.137
694 1 33.677 -0.378 9.314
695 1 40.438 3.585 21.198
696 1 47.926 -2.030 19.446
697 1 2.506 58.804 -10.145
698 1 8.017 62.980 -12.716
699 1 3.668 64.266 -10.606
700 1 -40.639 8.566 -31.736
701 1 -25.932 3.846 -43.691
702 1 -34.562 16.493 -35.250
703 1 -8.277 7.036 12.764
704 1 -0.719 8.211 21.959
705 1 -4.897 -2.319 17.333
706 1 -20.375 -19.658 16.474
707 1 -31.997 -15.799 -2.190
708 1 -34.015 -25.919 12.274
709 1 38.496 -37.428 -20.734
710 1 40.867 -31.149 -31.325
711 1 39.022 -41.170 -27.762
712 1 -5.408 43.505 -35.594
713 1 -2.438 35.351 -31.560
714 1 1.292 47.796 -30.368
715 1 53.136 -0.652 -30.664
716 1 42.555 7.507 -44.442
717 1 55.487 -6.768 -38.885
718 1 60.992 -71.345 -10.704
719 1 66.846 -71.572 -7.458
720 1 59.227 -58.238 -16.951
721 1 69.482 39.432 -6.295
722 1 65.760 30.440 -14.195
723 1 58.522 30.235 -16.031
724 1 27.771 46.105 -50.130
725 1 32.499 48.451 -52.281
726 1 26.044 44.102 -35.894
727 1 -61.235 -15.398 -10.048
728 1 -62.564 -13.470 -16.967
729 1 -51.742 -13.895 -10.060
730 1 32.986 17.696 -26.658
731 1 29.366 21.204 -11.564
732 1 31.540 24.743 -27.717
733 1 20.617 13.826 17.378
734 1 26.720 13.589 29.003
735 1 31.688 15.536 35.598
736 1 -15.289 32.173 -21.996
737 1 -10.463 33.128 -20.382
738 1 -13.470 31.124 -18.614
739 1 -11.257 -38.447 59.307
740 1 -6.051 -43.731 50.209
741 1 3.230 -34.609 59.113
742 1 34.130 -51.692 29.833
743 1 24.638 -45.779 30.885
744 1 33.487 -31.659 28.084
745 1 62.581 29.695 -0.237
746 1 65.898 33.593 5.308
747 1 69.150 26.797 3.757
748 1 -51.726 -15.530 20.138
749 1 -50.774 -9.037 21.403
750 1 -47.099 -13.467 35.259
751 1 6.763 -25.780 9.256
752 1 11.635 -26.515 4.565
753 1 17.411 -12.878 17.540
754 1 4.416 -31.229 6.839
755 1 9.500 -39.217 -4.603
756 1 5.203 -33.829 -3.999
757 1 0.585 18.212 0.338
758 1 6.824 29.325 -2.511
759 1 4.344 10.814 2.553
760 1 46.082 54.180 6.390
761 1 51.763 51.159 13.889
762 1 58.264 54.337 8.455
763 1 60.476 -12.838 -15.231
764 1 57.515 -3.402 -14.932
765 1 59.460 -8.764 -27.952
766 1 -38.774 -37.581 5.663
767 1 -47.667 -21.278 5.975
768 1 -46.188 -31.027 4.067
769 1 95.023 -8.232 -27.822
770 1 103.454 -8.928 -31.688
771 1 105.819 -15.317 -25.732
772 1 10.338 31.960 -19.910
773 1 11.483 31.399 -34.575
774 1 14.267 23.683 -39.884
775 1 28.446 15.247 5.650
776 1 40.033 14.319 2.595
777 1 30.085 2.472 12.941
778 1 29.322 9.481 -15.898
779 1 44.170 15.842 -8.352
780 1 41.904 14.458 -17.134
781 1 -35.911 -25.034 -6.057
782 1 -42.349 -19.171 5.350
783 1 -32.370 -27.320 -0.688
784 1 19.420 -35.380 3.643
785 1 14.372 -27.849 -8.876
786 1 13.228 -18.314 -5.888
787 1 -25.993 47.036 8.269
788 1 -28.571 53.882 2.776
789 1 -25.042 50.522 18.854
790 1 16.564 -53.205 -8.410
791 1 26.542 -57.649 -2.269
792 1 25.132 -59.587 -8.044
793 1 2.775 18.839 6.401
794 1 18.089 14.965 4.751
795 1 7.655 15.526 17.227
796 1 58.451 1.777 58.290
797 1 57.146 6.390 47.408
798 1 59.723 9.046 66.760
799 1 52.512 11.066 -29.861
800 1 53.416 16.785 -28.027
801 1 56.579 20.379 -26.464
802 1 22.330 35.061 -10.483
803 1 24.104 46.602 -9.003
804 1 20.657 41.908 -13.989
805 1 -8.916 -57.569 0.581
806 1 -8.511 -50.121 10.177
807 1 -9.866 -57.123 1.611
808 1 -6.227 54.356 -16.266
809 1 -4.468 39.793 -28.020
810 1 -6.222 54.392 -32.187
811 1 -13.142 9.624 -19.550
812 1 -4.495 18.050 -3.541
813 1 -12.665 20.452 -24.590
814 1 19.785 5.560 -4.039
815 1 24.932 6.929 -2.800
816 1 23.694 5.077 -3.452
817 1 -29.642 -17.044 20.699
818 1 -35.829 -23.447 41.755
819 1 -39.643 -12.667 34.448
820 1 -1.362 48.801 41.573
821 1 1.310 39.475 43.147
822 1 1.746 39.357 42.899
823 1 46.613 9.060 -6.695
824 1 46.981 7.344 -24.261
825 1 46.833 -1.257 -15.510
826 1 38.065 35.130 21.441
827 1 43.697 43.844 11.696
828 1 44.078 39.240 7.861
829 1 95.600 20.886 50.967
830 1 87.470 15.119 74.056
831 1 72.125 11.984 66.222
832 1 -21.179 -0.577 -13.807
833 1 -10.993 2.293 -30.303
834 1 -13.782 -1.758 -18.314
835 1 -4.057 16.470 -14.454
836 1 -2.996 15.459 -10.827
837 1 1.397 6.383 12.999
838 1 28.086 0.499 -16.805
839 1 31.295 -0.298 -24.861
840 1 26.535 -7.768 -24.040
841 1 14.191 -37.243 27.963
842 1 24.689 -28.499 16.081
843 1 22.036 -27.857 13.759
844 1 -10.380 -8.027 8.157
845 1 -12.388 5.531 11.290
846 1 -16.424 -4.086 -4.199
847 1 33.729 24.265 49.561
848 1 35.659 26.524 53.386
849 1 42.130 13.243 53.382
850 1 -45.447 38.656 23.121
851 1 -33.988 30.185 14.035
852 1 -31.318 35.946 12.944
853 1 13.633 32.699 -22.501
854 1 16.210 37.922 -31.960
855 1 8.145 33.817 -30.324
856 1 13.528 9.695 -18.301
857 1 15.815 14.117 -18.173
858 1 24.743 7.622 -24.821
859 1 8.154 -37.676 -38.687
860 1 5.060 -35.796 -48.278
861 1 8.404 -55.021 -45.983
862 1 73.740 -7.680 -45.024
863 1 59.187 -3.560 -27.127
864 1 63.668 -2.454 -34.470
865 1 46.242 -5.853 12.261
866 1 45.227 1.507 11.563
867 1 49.254 1.160 6.499
868 1 64.182 -11.388 -25.153
869 1 54.082 -2.292 -19.586
870 1 69.634 -5.163 -17.888
871 1 50.025 -18.189 -1.956
872 1 53.440 -24.595 3.655
873 1 52.491 -16.336 -8.676
874 1 26.537 26.639 -14.699
875 1 26.021 26.800 -21.690
876 1 30.760 37.870 -32.668
877 1 48.108 42.009 20.179
878 1 44.669 39.559 21.289
879 1 53.525 41.965 37.648
880 1 20.122 29.827 -15.745
881 1 24.557 42.009 -8.120
882 1 25.037 41.565 -22.067
883 1 -35.794 -9.218 22.459
884 1 -39.591 -9.125 21.061
885 1 -54.883 -11.226 21.587
886 1 -55.381 -13.577 13.078
887 1 -44.881 -4.152 6.187
888 1 -50.088 -6.512 6.650
889 1 13.065 29.053 -9.224
890 1 14.511 30.774 -11.803
891 1 17.232 26.795 -23.839
892 1 -38.688 -19.302 -12.446
893 1 -32.807 -21.625 -23.792
894 1 -36.154 -16.999 -20.852
895 1 29.046 30.730 -5.544
896 1 32.828 45.494 -3.874
897 1 29.086 37.295 0.784
898 1 48.661 76.877 19.923
899 1 44.699 89.153 37.968
900 1 47.954 73.956 26.587
901 1 15.728 47.466 -24.659
902 1 4.188 66.312 -29.652
903 1 2.331 51.794 -39.792
904 1 34.486 11.133 -15.566
905 1 32.469 16.727 -15.219
906 1 25.924 18.988 -26.700
907 1 59.559 6.145 -17.355
908 1 52.679 11.849 -11.322
909 1 57.249 20.213 -12.032
910 1 31.761 -15.744 44.619
911 1 35.097 -30.353 57.286
912 1 37.407 -17.051 38.760
913 1 64.720 74.399 20.120
914 1 65.030 58.477 23.567
915 1 61.841 66.430 27.374
916 1 50.535 44.816 -44.118
917 1 46.212 33.995 -24.889
918 1 53.770 34.806 -40.129
919 1 32.865 19.207 -9.205
920 1 34.843 24.745 -6.259
921 1 49.051 16.970 -2.707
922 1 48.774 -31.202 27.520
923 1 56.919 -22.522 17.629
924 1 49.627 -38.359 20.709
925 1 -59.552 18.507 24.276
926 1 -54.649 7.236 26.142
927 1 -60.585 16.914 11.460
928 1 50.342 -9.956 -18.357
929 1 38.815 -12.170 -28.361
930 1 44.856 3.082 -16.549
931 1 -14.306 -22.400 23.246
932 1 -16.436 -19.025 32.904
933 1 -19.388 -10.093 23.622
934 1 -12.977 13.440 -58.203
935 1 -25.172 7.184 -58.851
936 1 -7.443 11.806 -71.232
937 1 44.229 59.168 40.076
938 1 46.640 45.647 23.388
939 1 45.057 60.871 37.474
940 1 -10.673 2.154 39.192
941 1 -14.513 -7.450 38.248
942 1 -20.177 -0.214 40.176
943 1 -32.163 39.340 12.472
944 1 -24.434 36.088 6.687
945 1 -27.750 30.949 3.536
946 1 74.745 26.294 35.491
947 1 60.984 40.581 27.117
948 1 76.687 38.834 35.620
949 1 -10.496 -18.736 17.182
950 1 -10.148 5.066 5.229
951 1 -6.359 -15.654 19.999
952 1 36.048 30.888 15.376
953 1 33.944 24.009 10.378
954 1 26.962 33.277 28.688
955 1 17.907 52.727 18.949
956 1 20.986 36.546 12.320
957 1 11.224 30.276 26.233
958 1 64.097 11.805 7.245
959 1 73.652 7.819 10.134
960 1 69.993 -0.704 18.611
961 1 14.185 14.686 40.727
962 1 10.184 23.156 23.137
963 1 14.648 15.333 26.558
964 1 -22.968 13.475 67.275
965 1 -19.631 17.494 89.724
966 1 -23.065 12.500 71.903
967 1 30.152 44.667 -21.197
968 1 33.099 57.535 -32.472
969 1 22.584 42.865 -19.139
970 1 -11.801 63.402 -4.510
971 1 -3.194 63.042 -12.012
972 1 -1.554 69.575 -16.114
973 1 26.508 82.836 -19.023
974 1 37.527 81.604 -3.918
975 1 41.743 75.688 -19.340
976 1 -20.122 4.996 -31.659
977 1 -13.213 8.334 -26.035
978 1 -15.875 1.035 -23.498
979 1 34.751 69.335 9.106
980 1 39.379 75.516 20.439
981 1 33.122 61.956 7.876
982 1 29.112 32.077 3.706
983 1 26.768 37.914 -1.826
984 1 30.156 39.611 4.628
985 1 -9.144 10.227 23.822
986 1 4.648 14.843 2.593
987 1 1.757 11.352 3.478
988 1 -9.514 20.226 0.413
989 1 -9.397 15.869 -5.850
990 1 1.674 15.432 -11.145
991 1 57.166 15.007 43.000
992 1 55.684 22.435 33.594
993 1 65.190 15.985 53.377
994 1 27.301 11.924 8.715
995 1 16.025 12.853 -8.577
996 1 4.981 18.357 5.546
997 1 15.488 37.639 28.632
998 1 12.114 35.462 23.943
999 1 14.198 34.033 19.389
1000 1 17.327 10.746 21.332
1001 1 10.457 17.869 18.284
1002 1 6.673 28.226 11.085
1003 1 -14.837 44.707 8.840
1004 1 -13.918 42.982 24.277
1005 1 -29.255 42.189 3.453
1006 1 0.095 -4.371 14.408
1007 1 4.967 -11.522 12.744
1008 1 -1.821 -5.031 2.413
1009 1 28.349 25.520 -49.354
1010 1 22.006 11.756 -42.821
1011 1 26.383 14.814 -40.046
1012 1 -41.498 29.142 23.635
1013 1 -42.622 36.150 12.679
1014 1 -40.547 34.105 11.995
1015 1 -8.656 76.487 -7.500
1016 1 -6.949 74.916 -9.315
1017 1 -12.479 67.084 -2.826
1018 1 62.030 13.052 -18.493
1019 1 64.699 11.019 -28.984
1020 1 51.139 7.565 -21.620
1021 1 16.578 22.329 28.343
1022 1 17.502 16.910 38.177
1023 1 14.299 18.834 38.976
1024 1 -16.699 28.624 -19.749
1025 1 -20.093 42.658 -24.013
1026 1 -28.816 36.479 -28.529
1027 1 53.791 -9.314 -38.557
1028 1 47.058 3.458 -30.898
1029 1 48.039 3.096 -32.090
1030 1 52.912 7.271 12.733
1031 1 47.757 8.986 3.983
1032 1 49.561 15.607 12.201
1033 1 54.501 79.452 4.400
1034 1 50.630 77.375 5.073
1035 1 53.209 71.027 5.244
1036 1 94.158 2.501 44.010
1037 1 101.524 -6.877 40.341
1038 1 93.789 -5.095 39.731
1039 1 -50.845 57.587 -14.442
1040 1 -43.753 49.296 -11.226
1041 1 -46.858 53.926 -16.425
1042 1 5.883 72.056 -12.315
1043 1 17.475 65.459 -2.297
1044 1 8.454 75.317 -5.225
1045 1 30.527 53.289 -21.826
1046 1 36.896 60.745 -25.627
1047 1 34.858 61.757 -17.203
1048 1 -33.143 42.251 5.532
1049 1 -30.733 36.071 18.002
1050 1 -27.833 41.221 19.615
1051 1 4.136 26.605 -7.903
1052 1 -1.980 31.723 11.338
1053 1 9.288 31.452 13.420
1054 1 42.983 14.268 -6.921
1055 1 48.812 9.410 -12.282
1056 1 45.114 14.569 -16.280
1057 1 11.432 42.725 22.805
1058 1 6.361 31.067 2.477
1059 1 8.208 33.962 21.022
1060 1 25.946 -32.769 15.405
1061 1 25.593 -20.297 20.787
1062 1 29.405 -28.304 26.578
1063 1 34.251 12.558 -19.389
1064 1 39.749 11.728 -16.614
1065 1 36.791 22.539 -20.737
1066 1 38.264 54.950 22.208
1067 1 33.791 53.547 27.012
1068 1 27.222 46.702 34.231
1069 1 84.164 21.882 18.359
1070 1 69.460 21.960 21.711
1071 1 71.104 22.362 21.985
1072 1 40.812 19.262 5.926
1073 1 36.670 15.727 7.415
1074 1 48.018 24.725 4.226
1075 1 101.627 19.182 35.776
1076 1 105.438 22.685 38.492
1077 1 103.922 21.029 36.128
1078 1 16.464 27.723 -0.148
1079 1 16.856 36.917 -5.619
1080 1 12.403 38.111 -3.608
1081 1 -33.978 4.257 -31.816
1082 1 -34.293 8.491 -37.061
1083 1 -27.043 6.142 -24.110
1084 1 3.183 34.955 13.989
1085 1 3.546 39.355 15.435
1086 1 -3.530 29.162 21.152
1087 1 -5.675 45.911 41.275
1088 1 2.334 46.787 39.882
1089 1 2.950 31.966 36.513
1090 1 35.634 75.515 -12.143
1091 1 51.339 79.826 -4.394
1092 1 38.040 64.770 -12.724
1093 1 20.225 28.195 -13.705
1094 1 19.720 22.904 -27.788
1095 1 20.131 23.375 -12.180
1096 1 42.149 16.458 -22.624
1097 1 49.301 15.988 -30.158
1098 1 41.592 24.329 -15.938
1099 1 26.290 51.511 -4.985
1100 1 13.898 51.294 2.348
1101 1 20.405 48.873 2.609
1102 1 75.382 4.505 -5.795
1103 1 76.730 0.594 -7.666
1104 1 69.877 5.612 -9.858
1105 1 -1.553 6.723 -14.380
1106 1 -2.912 11.323 0.334
1107 1 -0.892 4.281 -5.735
1108 1 14.151 2.780 -8.234
1109 1 8.699 -1.191 -22.531
1110 1 15.805 0.181 -9.384
1111 1 67.014 29.219 17.465
1112 1 61.819 34.563 12.356
1113 1 70.602 23.975 27.274
1114 1 62.137 41.385 2.945
1115 1 71.312 37.918 12.135
1116 1 73.305 35.436 15.558
1117 1 -18.265 47.456 8.767
1118 1 -22.311 57.879 15.109
1119 1 -10.527 63.951 19.014
1120 1 -1.519 55.752 -34.711
1121 1 0.603 54.505 -20.174
1122 1 -16.661 58.301 -29.013
1123 1 -26.723 46.621 -9.276
1124 1 -24.689 37.637 -12.511
1125 1 -20.915 45.247 -15.053
1126 1 -21.770 102.243 -10.614
1127 1 -19.856 109.922 0.012
1128 1 -20.106 87.096 -8.897
1129 1 46.745 42.441 57.502
1130 1 41.592 39.635 56.231
1131 1 44.021 51.401 51.917
1132 1 16.235 32.259 13.060
1133 1 23.091 40.362 -1.905
1134 1 21.853 38.937 0.983
1135 1 19.881 -39.152 -22.524
1136 1 18.230 -36.276 -32.652
1137 1 17.990 -30.694 -16.383
1138 1 33.793 28.715 -8.786
1139 1 29.988 37.428 -21.060
1140 1 23.457 33.519 5.627
1141 1 11.181 79.169 -42.643
1142 1 5.882 79.489 -39.799
1143 1 9.571 78.273 -37.067
1144 1 25.979 48.404 22.830
1145 1 24.195 48.016 3.833
1146 1 15.848 42.983 34.547
1147 1 -5.189 79.824 7.878
1148 1 -7.112 65.953 11.986
1149 1 0.055 77.601 -3.686
1150 1 19.401 88.150 14.496
1151 1 22.137 83.476 -6.217
1152 1 22.989 99.879 4.729
1153 1 86.393 24.489 -26.788
1154 1 94.538 21.210 -39.434
1155 1 92.733 36.635 -27.319
1156 1 27.827 22.078 -29.338
1157 1 30.246 21.721 -45.134
1158 1 34.267 24.719 -34.063
1159 1 26.496 102.517 51.745
1160 1 20.925 90.749 45.403
1161 1 28.693 95.810 45.584
1162 1 35.887 43.334 49.505
1163 1 35.338 54.508 23.179
1164 1 28.710 51.059 32.468
1165 1 10.349 63.216 60.331
1166 1 14.118 53.079 45.974
1167 1 19.790 55.842 46.198
1168 1 12.711 39.676 13.217
1169 1 10.650 42.433 9.929
1170 1 1.958 47.859 10.724
1171 1 24.542 14.908 -17.078
1172 1 13.639 31.001 -15.186
1173 1 21.978 13.083 -17.096
1174 1 18.338 26.704 1.952
1175 1 36.251 24.848 9.355
1176 1 27.737 37.929 10.328
1177 1 -31.810 93.949 13.725
1178 1 -18.836 85.969 4.196
1179 1 -20.346 104.002 1.423
1180 1 55.253 18.911 -15.546
1181 1 58.732 37.619 -14.977
1182 1 63.439 35.281 -20.515
1183 1 16.171 9.204 -21.085
1184 1 28.919 23.381 -32.267
1185 1 26.511 23.042 -29.468
1186 1 0.888 47.440 -15.209
1187 1 -10.418 46.755 -11.354
1188 1 -5.512 56.444 -23.644
1189 1 102.989 127.601 34.435
1190 1 91.235 122.310 27.044
1191 1 95.241 123.908 30.986
1192 1 12.971 86.215 32.166
1193 1 22.167 87.467 26.876
1194 1 12.488 83.641 28.127
1195 1 -15.122 -18.810 -16.516
1196 1 -12.025 -14.285 -14.502
1197 1 -22.323 -18.541 -22.960
1198 1 12.703 38.687 -31.956
1199 1 32.856 36.373 -46.350
1200 1 25.143 28.337 -34.503
1201 1 -35.247 -8.870 6.858
1202 1 -36.593 -4.094 20.011
1203 1 -37.480 -8.775 5.453
1204 1 34.803 16.382 61.465
1205 1 27.704 10.901 39.241
1206 1 36.111 17.813 43.252
1207 1 52.144 -38.062 -9.200
1208 1 46.710 -33.611 -11.789
1209 1 53.326 -31.827 -4.868
1210 1 10.032 59.461 23.719
1211 1 13.062 57.109 33.357
1212 1 9.383 55.806 26.125
1213 1 12.665 17.905 -36.511
1214 1 7.972 1.870 -35.913
1215 1 0.332 11.100 -24.935
1216 1 57.827 1.929 -16.034
1217 1 58.804 0.435 -24.579
1218 1 57.807 2.499 -26.332
1219 1 34.423 16.250 1.047
1220 1 41.632 18.761 -8.977
1221 1 44.393 17.091 -2.528
1222 1 44.219 48.278 27.109
1223 1 56.005 50.567 27.467
1224 1 57.958 40.242 23.849
1225 1 23.417 -2.728 64.206
1226 1 29.972 10.066 49.893
1227 1 36.367 -5.651 57.043
1228 1 67.695 25.035 8.052
1229 1 70.548 22.064 11.767
1230 1 74.678 21.076 -2.851
1231 1 21.082 -8.558 26.647
1232 1 24.925 4.845 29.229
1233 1 14.613 -7.322 23.064
1234 1 -0.543 22.925 15.611
1235 1 0.834 17.523 19.576
1236 1 -6.701 27.088 6.922
1237 1 61.664 0.843 -3.024
1238 1 50.558 7.114 13.281
1239 1 50.148 7.979 10.306
1240 1 36.876 1.970 -4.611
1241 1 25.701 0.575 -1.160
1242 1 26.688 -16.612 -7.728
1243 1 14.674 -23.224 -3.703
1244 1 10.149 -30.059 -3.582
1245 1 4.418 -27.354 -11.945
1246 1 20.683 13.833 15.127
1247 1 28.516 15.832 3.498
1248 1 24.785 12.206 4.222
1249 1 -8.995 42.360 -16.365
1250 1 -13.914 33.841 -18.237
1251 1 -7.347 29.538 -22.895
1252 1 8.677 36.638 -17.202
1253 1 10.627 41.140 -14.926
1254 1 11.953 42.668 -11.569
1255 1 10.273 2.464 45.910
1256 1 7.964 3.395 49.161
1257 1 5.206 5.592 39.487
1258 1 18.889 24.797 37.205
1259 1 23.901 18.443 15.219
1260 1 29.335 19.963 18.902
1261 1 31.124 3.988 -25.481
1262 1 26.084 3.596 -5.586
1263 1 25.894 -5.244 -13.317
1264 1 26.603 -5.051 18.218
1265 1 23.567 3.348 27.008
1266 1 18.135 0.457 20.406
1267 1 62.647 4.277 9.032
1268 1 56.621 -11.685 3.494
1269 1 62.615 -4.177 5.377
1270 1 62.548 -7.462 -57.230
1271 1 74.251 6.510 -43.506
1272 1 62.254 5.862 -43.130
1273 1 -18.073 -8.982 48.636
1274 1 -24.287 -7.787 55.615
1275 1 -21.127 -15.799 63.653
1276 1 31.253 47.048 27.177
1277 1 41.440 43.877 13.338
1278 1 42.593 51.522 16.680
1279 1 -34.512 -19.862 24.991
1280 1 -38.231 -28.117 15.336
1281 1 -30.279 -4.733 21.303
1282 1 47.563 -27.821 -14.614
1283 1 55.193 -25.100 -19.750
1284 1 44.787 -30.650 -21.917
1285 1 4.525 11.593 5.321
1286 1 -2.672 19.519 4.514
1287 1 0.518 20.974 -3.544
1288 1 35.559 44.553 3.781
1289 1 36.194 28.765 -21.742
1290 1 38.485 46.667 -21.461
1291 1 10.962 1.100 -39.820
1292 1 16.810 -9.713 -24.805
1293 1 18.135 -6.256 -40.742
1294 1 27.310 21.071 -61.802
1295 1 28.656 15.448 -56.077
1296 1 28.307 15.431 -57.476
1297 1 15.278 1.560 -27.260
1298 1 15.052 -6.256 -37.718
1299 1 9.541 2.749 -33.491
1300 1 40.904 13.259 34.793
1301 1 34.898 12.595 47.137
1302 1 35.522 11.925 42.984
1303 1 19.068 -21.648 -31.281
1304 1 27.239 -32.675 -32.908
1305 1 24.996 -23.421 -19.354
1306 1 77.147 18.518 -23.657
1307 1 75.983 8.733 -39.589
1308 1 69.016 12.801 -44.860
1309 1 87.930 -29.533 11.646
1310 1 78.769 -27.353 -7.515
1311 1 92.849 -28.929 -4.122
1312 1 -43.196 38.675 7.310
1313 1 -50.257 33.356 17.116
1314 1 -41.446 40.642 5.770
1315 1 19.395 3.563 50.078
1316 1 31.338 -4.372 47.033
1317 1 37.398 -3.614 43.168
1318 1 1.743 63.508 -9.912
1319 1 -1.637 68.576 -15.188
1320 1 -4.668 60.493 9.837
1321 1 7.793 27.890 -9.834
1322 1 10.960 23.160 -4.844
1323 1 8.367 27.998 -5.819
1324 1 64.516 -37.363 -5.036
1325 1 76.198 -27.243 -7.689
1326 1 72.270 -21.714 -4.174
1327 1 27.875 34.530 10.265
1328 1 25.915 27.436 7.969
1329 1 24.225 43.631 20.381
1330 1 55.210 -7.222 44.655
1331 1 47.558 -14.689 34.742
1332 1 52.999 -3.511 27.174
1333 1 15.154 25.956 14.784
1334 1 16.745 32.930 0.105
1335 1 6.244 26.295 -3.898
1336 1 36.951 48.408 4.188
1337 1 41.077 59.988 -1.670
1338 1 39.948 60.466 -3.680
1339 1 7.100 60.086 5.405
1340 1 2.165 50.160 -3.398
1341 1 7.809 58.346 9.743
1342 1 35.879 15.786 9.984
1343 1 42.487 20.308 1.122
1344 1 31.415 22.465 -3.510
1345 1 73.663 -3.290 -53.278
1346 1 74.651 -0.871 -56.552
1347 1 74.800 -9.076 -57.110
1348 1 83.875 -8.758 37.633
1349 1 93.963 -20.350 28.227
1350 1 84.758 -24.768 37.861
1351 1 29.193 7.684 -1.974
1352 1 23.767 6.244 -4.144
1353 1 46.074 -4.398 -5.089
1354 1 1.898 -8.907 -12.437
1355 1 -11.559 -10.661 -0.169
1356 1 -5.007 0.957 -5.389
1357 1 4.162 -14.950 29.840
1358 1 -3.351 -10.213 8.065
1359 1 -1.554 -14.851 22.873
1360 1 11.275 31.173 18.655
1361 1 6.796 21.318 37.853
1362 1 8.711 26.541 17.013
1363 1 46.337 34.554 -9.257
1364 1 56.587 18.562 0.346
1365 1 53.889 35.186 -10.147
1366 1 -8.335 38.974 57.738
1367 1 0.675 39.068 50.762
1368 1 -4.666 45.368 55.278
1369 1 33.784 3.677 13.209
1370 1 37.400 -0.306 -13.480
1371 1 38.106 5.265 -8.199
1372 1 63.953 1.110 -41.840
1373 1 54.468 7.854 -34.115
1374 1 53.607 -0.917 -40.593
1375 1 14.638 27.951 -8.620
1376 1 16.106 15.546 -16.235
1377 1 19.404 29.449 11.214
1378 1 97.750 -8.039 27.662
1379 1 97.587 7.810 22.461
1380 1 84.559 -2.231 24.191
1381 1 -12.668 22.676 -7.195
1382 1 -11.569 12.785 0.981
1383 1 -14.378 22.752 -7.819
1384 1 42.170 7.615 -29.612
1385 1 47.934 9.087 -39.758
1386 1 53.754 6.854 -43.973
1387 1 30.343 7.810 -25.812
1388 1 23.076 10.256 -19.861
1389 1 21.122 4.862 -15.062
1390 1 -14.311 -34.783 -7.841
1391 1 -19.367 -21.105 -9.478
1392 1 -21.242 -17.777 -16.492
1393 1 -20.275 30.819 35.114
1394 1 -9.470 32.241 41.195
1395 1 -26.282 30.935 40.273
1396 1 -18.181 -25.005 60.489
1397 1 -20.640 -9.916 60.096
1398 1 -7.675 -0.065 74.001
1399 1 18.561 -17.068 16.802
1400 1 19.248 -3.349 10.030
1401 1 9.866 3.184 16.018
1402 1 -9.362 11.052 -17.440
1403 1 -9.410 29.052 -13.410
1404 1 -3.711 22.573 -16.483
1405 1 50.661 75.862 8.713
1406 1 48.216 73.438 14.456
1407 1 52.080 67.668 10.992
1408 1 11.342 -3.480 -37.175
1409 1 16.050 -10.453 -54.982
1410 1 20.099 -0.112 -55.501
1411 1 83.291 62.896 10.700
1412 1 76.605 46.056 13.171
1413 1 76.431 57.099 15.365
1414 1 -3.837 65.474 1.682
1415 1 -4.438 63.470 9.244
1416 1 2.037 68.574 5.096
1417 1 35.783 54.820 -16.055
1418 1 31.924 48.734 -28.189
1419 1 37.316 48.508 -25.670
1420 1 39.233 28.516 44.268
1421 1 46.091 30.677 67.670
1422 1 31.399 23.858 51.111
1423 1 95.090 13.155 19.823
1424 1 97.492 22.614 24.112
1425 1 80.843 25.691 27.006
1426 1 7.179 46.822 -16.578
1427 1 6.497 36.853 -9.802
1428 1 4.912 45.865 -3.446
1429 1 -44.516 -14.603 -54.980
1430 1 -48.161 -15.894 -47.279
1431 1 -42.463 -22.889 -37.315
1432 1 -60.027 -33.398 -60.892
1433 1 -39.290 -31.706 -59.962
1434 1 -63.102 -30.343 -58.648
1435 1 6.867 47.453 -1.897
1436 1 9.011 51.520 -13.069
1437 1 -2.135 55.860 -3.319
1438 1 -1.698 4.014 -6.215
1439 1 2.413 12.748 -5.808
1440 1 -2.793 17.689 -22.627
1441 1 -0.548 21.967 -1.134
1442 1 -0.182 30.119 3.505
1443 1 -6.541 14.844 -10.791
1444 1 -29.884 23.201 -27.051
1445 1 -22.798 31.905 -32.281
1446 1 -23.708 23.887 -21.843
1447 1 35.876 31.338 33.078
1448 1 36.831 35.633 34.962
1449 1 33.019 22.395 27.659
1450 1 18.751 27.919 11.332
1451 1 22.001 31.001 5.675
1452 1 18.100 37.038 10.460
1453 1 45.120 51.571 -9.765
1454 1 37.293 46.034 -8.523
1455 1 35.918 47.398 -3.813
1456 1 40.967 15.133 36.990
1457 1 47.229 5.844 30.904
1458 1 38.027 12.239 37.763
1459 1 90.862 34.357 56.302
1460 1 86.023 38.011 65.933
1461 1 88.490 37.570 53.463
1462 1 9.417 33.247 42.715
1463 1 9.516 34.687 35.412
1464 1 5.814 32.898 43.464
1465 1 68.312 78.972 33.969
1466 1 70.541 87.606 20.579
1467 1 71.165 81.504 35.315
1468 1 -57.122 66.174 21.453
1469 1 -50.038 55.201 35.963
1470 1 -49.024 55.148 32.896
1471 1 -19.242 -2.640 -15.122
1472 1 -21.501 -4.259 -23.792
1473 1 -4.093 1.795 -29.899
1474 1 -49.936 35.238 10.574
1475 1 -58.850 29.968 13.892
1476 1 -63.078 23.146 9.244
1477 1 -35.007 25.035 -43.221
1478 1 -41.388 26.669 -42.966
1479 1 -36.198 28.272 -33.659
1480 1 -7.354 26.032 -38.090
1481 1 -11.351 30.732 -48.906
1482 1 -22.102 28.753 -44.094
1483 1 -12.526 49.221 10.130
1484 1 -7.055 48.481 17.455
1485 1 -6.982 55.128 20.119
1486 1 -3.125 8.519 -1.585
1487 1 -3.224 10.932 -9.299
1488 1 4.162 5.781 -6.510
1489 1 6.301 10.894 -8.327
1490 1 13.346 -8.322 -9.688
1491 1 6.277 -3.820 -15.118
1492 1 42.315 -2.720 -34.327
1493 1 33.886 -5.308 -41.675
1494 1 32.540 2.925 -26.866
1495 1 -0.881 49.173 73.504
1496 1 10.629 47.806 70.410
1497 1 1.357 43.201 72.607
1498 1 24.380 6.062 -28.765
1499 1 17.488 -2.602 -31.713
1500 1 19.688 3.142 -28.075
1501 1 53.109 68.859 -57.912
1502 1 52.225 60.812 -46.289
1503 1 54.223 67.175 -65.138
1504 1 67.130 77.061 1.425
1505 1 62.664 80.577 16.708
1506 1 61.723 77.801 12.399
1507 1 21.309 19.177 39.355
1508 1 15.292 27.657 54.453
1509 1 14.104 15.043 44.474
1510 1 -54.472 68.570 -30.866
1511 1 -63.323 62.285 -41.018
1512 1 -60.792 80.796 -31.931
1513 1 55.951 30.248 63.172
1514 1 57.971 23.963 60.155
1515 1 54.624 23.447 55.933
1516 1 -7.087 45.750 8.545
1517 1 -16.083 45.644 7.139
1518 1 -2.791 53.050 14.353
1519 1 -16.741 31.321 25.002
1520 1 -25.170 28.759 7.766
1521 1 -22.981 44.706 4.834
1522 1 47.825 67.082 20.536
1523 1 44.226 54.749 20.961
1524 1 41.660 60.995 20.779
1525 1 15.263 46.119 -47.736
1526 1 14.633 44.869 -57.991
1527 1 23.462 47.409 -50.473
1528 1 58.120 19.254 19.625
1529 1 70.870 25.259 36.610
1530 1 72.084 16.944 21.976
1531 1 43.941 35.677 14.787
1532 1 36.913 32.833 20.119
1533 1 36.767 24.585 12.290
1534 1 60.874 10.956 15.860
1535 1 60.545 15.765 1.948
1536 1 60.876 11.985 16.208
1537 1 74.181 69.502 29.643
1538 1 82.785 58.305 30.835
1539 1 71.979 58.854 31.697
1540 1 94.386 30.229 17.690
1541 1 82.414 28.321 3.769
1542 1 85.813 16.684 7.029
1543 1 68.668 46.794 -4.200
1544 1 74.580 45.810 -1.463
1545 1 66.751 40.217 7.020
1546 1 -29.918 -23.936 28.709
1547 1 -28.999 -22.326 25.855
1548 1 -25.675 -17.454 38.907
1549 1 8.795 37.914 -27.964
1550 1 11.638 34.786 -34.485
1551 1 9.871 38.786 -34.268
1552 1 22.619 3.051 9.420
1553 1 18.005 1.756 6.467
1554 1 17.724 6.034 15.448
1555 1 9.393 46.712 15.479
1556 1 12.388 43.159 24.470
1557 1 18.666 50.504 24.089
1558 1 -34.311 34.200 -8.123
1559 1 -26.050 24.812 -20.567
1560 1 -36.155 25.941 -7.625
1561 1 37.352 23.886 -21.534
1562 1 41.606 28.079 -22.212
1563 1 32.803 38.794 -26.377
1564 1 25.274 16.302 15.168
1565 1 21.727 31.402 25.175
1566 1 22.521 24.193 29.862
1567 1 16.981 -25.959 -8.288
1568 1 32.613 -25.252 5.403
1569 1 21.227 -33.635 -8.320
1570 1 67.748 72.472 35.961
1571 1 66.077 58.219 48.459
1572 1 73.611 56.603 46.144
1573 1 105.660 76.062 8.741
1574 1 101.416 88.574 4.963
1575 1 101.626 85.408 4.643
1576 1 25.347 -2.341 -31.189
1577 1 18.463 10.994 -26.619
1578 1 24.166 -5.979 -10.490
1579 1 25.926 40.150 25.626
1580 1 15.374 47.460 23.788
1581 1 20.012 45.562 17.650
1582 1 48.662 10.803 -30.987
1583 1 53.882 17.973 -21.566
1584 1 49.059 15.133 -22.297
1585 1 26.748 25.357 -0.931
1586 1 24.771 45.061 13.241
1587 1 15.124 31.878 9.497
1588 1 -26.236 27.513 -6.802
1589 1 -30.393 24.917 -3.791
1590 1 -25.955 27.969 -20.236
1591 1 -36.034 77.941 -32.245
1592 1 -24.687 85.361 -24.561
1593 1 -30.434 87.165 -13.913
1594 1 -1.277 69.674 24.618
1595 1 9.128 74.626 38.467
1596 1 0.679 66.904 13.921
1597 1 8.043 -11.382 -4.877
1598 1 2.290 -22.747 8.800
1599 1 5.174 -16.889 9.244
1600 1 -3.768 20.969 9.116
1601 1 -2.425 36.440 14.938
1602 1 -3.879 25.118 15.453
1603 1 12.848 92.122 33.179
1604 1 9.148 82.407 41.707
1605 1 6.424 93.659 31.017
1606 1 7.936 3.804 23.227
1607 1 8.655 2.039 19.302
1608 1 -4.786 8.844 23.019
1609 1 37.434 49.207 24.229
1610 1 48.126 55.570 14.553
1611 1 43.977 47.896 35.542
1612 1 28.219 37.862 7.034
1613 1 23.540 30.046 -3.132
1614 1 22.926 33.897 5.606
1615 1 24.623 30.111 -35.885
1616 1 21.245 35.436 -17.553
1617 1 15.763 37.316 -36.100
1618 1 66.512 11.537 2.496
1619 1 60.727 12.256 3.977
1620 1 67.938 -2.214 -0.482
1621 1 61.203 -12.300 17.625
1622 1 60.286 -13.612 6.422
1623 1 62.958 -11.249 22.507
1624 1 -21.445 6.920 -35.480
1625 1 -20.846 6.367 -42.979
1626 1 -15.089 6.533 -48.952
1627 1 -17.600 67.003 -17.528
1628 1 -17.030 56.770 -13.807
1629 1 -9.312 53.451 -2.521
1630 1 12.079 49.274 30.853
1631 1 2.452 60.788 23.273
1632 1 3.567 51.956 35.431
1633 1 -6.758 52.636 63.133
1634 1 -14.024 45.665 56.042
1635 1 -7.969 49.409 48.271
1636 1 -2.057 59.924 13.648
1637 1 -8.251 66.560 23.481
1638 1 -4.083 60.738 21.918
1639 1 33.586 44.136 27.224
1640 1 50.184 40.279 9.867
1641 1 51.783 41.013 28.962
1642 1 47.139 61.561 -10.685
1643 1 48.124 64.048 -22.180
1644 1 40.957 54.321 -4.637
1645 1 42.986 58.859 49.420
1646 1 41.683 51.108 25.571
1647 1 36.084 37.833 37.662
1648 1 14.662 89.840 -22.454
1649 1 6.684 91.677 -29.450
1650 1 0.700 95.500 -35.688
1651 1 2.071 91.065 -4.307
1652 1 -2.164 102.265 7.805
1653 1 -3.600 104.083 -0.868
1654 1 27.452 16.665 33.479
1655 1 22.359 10.681 44.574
1656 1 21.412 5.412 48.632
1657 1 38.311 -20.031 -29.377
1658 1 38.883 -23.426 -27.739
1659 1 48.841 -26.653 -12.801
1660 1 109.002 15.318 -0.299
1661 1 105.987 11.373 3.221
1662 1 107.511 21.708 8.700
1663 1 -14.159 25.936 0.930
1664 1 -17.809 17.962 -4.075
1665 1 -18.825 36.788 -13.165
1666 1 -10.617 56.489 28.364
1667 1 -4.337 63.882 29.449
1668 1 -11.846 59.200 33.665
1669 1 16.766 102.900 3.446
1670 1 26.655 99.692 9.014
1671 1 23.430 95.647 16.193
1672 1 -0.329 55.035 -5.602
1673 1 1.983 48.012 -14.913
1674 1 -9.533 54.197 -4.049
1675 1 4.603 91.552 2.742
1676 1 0.999 80.540 8.652
1677 1 -4.155 74.384 -2.388
1678 1 26.822 5.062 -6.518
1679 1 27.569 4.590 -2.273
1680 1 38.489 4.179 -7.948
1681 1 -24.022 62.779 19.021
1682 1 -19.947 64.087 22.506
1683 1 -18.278 65.222 18.712
1684 1 22.777 68.622 63.133
1685 1 22.228 66.270 61.799
1686 1 27.056 73.756 51.542
1687 1 49.318 98.657 -19.791
1688 1 45.463 97.277 -24.492
1689 1 50.601 86.148 -14.221
1690 1 -4.062 -3.743 -28.017
1691 1 -1.665 8.819 -20.314
1692 1 0.744 6.175 -5.274
1693 1 8.799 -28.540 37.495
1694 1 14.631 -18.233 32.477
1695 1 12.950 -12.761 36.838
1696 1 42.003 54.707 -20.155
1697 1 39.267 50.376 -19.460
1698 1 31.032 42.520 -21.749
1699 1 39.860 22.760 16.336
1700 1 47.232 30.546 29.030
1701 1 40.389 32.041 29.347
1702 1 -1.755 8.703 22.714
1703 1 4.359 -1.074 22.368
1704 1 14.989 9.510 27.912
1705 1 -49.219 24.053 0.548
1706 1 -47.766 17.713 -2.175
1707 1 -42.428 11.084 7.631
1708 1 -17.608 -25.273 27.172
1709 1 -11.557 -9.077 37.748
1710 1 -13.296 -15.673 33.228
1711 1 33.492 10.400 -21.834
1712 1 49.282 11.912 -16.217
1713 1 39.376 7.611 -16.285
1714 1 16.634 17.055 21.989
1715 1 15.401 15.162 24.652
1716 1 22.161 14.634 26.608
1717 1 12.062 46.513 32.874
1718 1 2.538 38.315 31.625
1719 1 3.790 40.984 34.470
1720 1 -12.646 19.933 26.025
1721 1 -17.688 11.928 43.144
1722 1 -16.989 8.043 25.237
1723 1 53.969 -0.690 26.246
1724 1 46.936 -5.916 30.706
1725 1 56.052 -14.579 27.491
1726 1 46.495 -32.208 -6.146
1727 1 45.029 -42.693 -8.643
1728 1 60.867 -41.094 -15.578
1729 1 51.224 27.507 13.964
1730 1 43.195 21.797 -1.251
1731 1 50.092 27.674 27.128
1732 1 44.627 2.617 18.347
1733 1 51.282 -8.121 17.802
1734 1 54.661 -13.004 2.415
1735 1 37.815 -44.178 4.331
1736 1 34.678 -45.370 2.281
1737 1 32.979 -46.235 6.605
1738 1 46.407 0.189 29.876
1739 1 52.906 13.765 14.441
1740 1 50.974 -1.660 9.436
1741 1 14.581 1.143 -12.169
1742 1 23.297 7.560 -5.718
1743 1 19.673 8.491 -17.842
1744 1 25.447 -0.478 -17.187
1745 1 15.449 -1.458 -9.559
1746 1 22.438 9.528 -3.830
1747 1 -1.004 -8.815 -0.969
1748 1 11.556 -9.924 2.246
1749 1 1.361 -5.839 3.780
1750 1 30.736 25.846 41.865
1751 1 28.634 13.341 30.045
1752 1 30.406 18.698 41.025
1753 1 -16.193 -12.420 -42.787
1754 1 -19.916 -7.495 -54.276
1755 1 -20.838 3.792 -42.780
1756 1 -26.453 -17.061 15.674
1757 1 -25.384 -13.780 16.480
1758 1 -13.406 -16.248 15.778
1759 1 22.676 -19.334 4.139
1760 1 20.748 -19.545 5.939
1761 1 21.352 -18.150 -4.085
1762 1 46.121 5.566 10.322
1763 1 36.152 6.774 22.786
1764 1 42.784 15.399 24.023
1765 1 17.349 -26.777 47.168
1766 1 7.504 -32.571 50.611
1767 1 21.282 -27.752 63.818
1768 1 49.359 21.078 5.578
1769 1 45.144 24.713 5.711
1770 1 38.793 26.457 13.437
1771 1 22.493 -15.667 26.478
1772 1 17.046 -17.543 43.610
1773 1 16.827 -19.080 39.352
1774 1 51.414 30.672 -18.796
1775 1 48.990 19.811 -13.524
1776 1 56.127 22.489 -30.049
1777 1 53.289 -7.986 -9.333
1778 1 55.179 -8.142 -11.886
1779 1 58.984 13.641 -20.391
1780 1 -16.657 9.688 -11.119
1781 1 -3.775 9.220 -31.240
1782 1 -8.464 6.801 -4.113
1783 1 -57.011 38.847 -13.943
1784 1 -50.460 32.819 -24.961
1785 1 -50.351 33.939 -4.129
1786 1 14.961 27.222 19.326
1787 1 17.938 30.510 9.649
1788 1 23.776 27.246 9.900
1789 1 4.966 32.498 0.431
1790 1 -6.681 27.671 2.267
1791 1 -14.371 25.700 -4.788
1792 1 43.209 -14.544 4.911
1793 1 31.081 -3.210 2.814
1794 1 23.629 -5.971 0.112
1795 1 10.241 10.907 0.194
1796 1 5.437 16.452 -16.874
1797 1 4.274 12.341 -2.447
1798 1 23.459 -17.382 21.325
1799 1 25.813 -19.717 29.755
1800 1 19.089 -16.223 21.712
1801 1 55.984 34.660 28.224
1802 1 43.601 43.914 18.225
1803 1 44.515 47.368 18.863
1804 1 63.896 7.407 14.358
1805 1 64.787 -8.460 10.633
1806 1 68.812 -15.001 16.825
1807 1 41.448 -13.421 10.695
1808 1 38.735 -11.148 24.808
1809 1 43.061 -5.974 12.574
1810 1 71.171 11.564 2.288
1811 1 77.152 10.747 16.257
1812 1 73.600 8.378 16.765
1813 1 1.014 -2.305 57.460
1814 1 4.562 -10.428 33.407
1815 1 10.920 -5.998 39.603
1816 1 35.509 -1.953 17.795
1817 1 39.230 -17.311 12.490
1818 1 41.048 -1.493 14.093
1819 1 -3.212 13.821 15.536
1820 1 -0.263 14.061 10.241
1821 1 -8.338 21.353 26.421
1822 1 -14.221 -9.958 65.676
1823 1 -15.151 -15.865 60.917
1824 1 -12.252 -9.439 65.319
1825 1 -31.493 -31.401 -5.310
1826 1 -36.042 -37.173 11.262
1827 1 -33.859 -32.368 -1.491
1828 1 36.297 -29.295 4.074
1829 1 37.194 -43.272 14.167
1830 1 34.846 -25.923 -1.164
1831 1 -15.351 6.703 10.657
1832 1 -17.537 9.769 -0.248
1833 1 -23.258 20.601 6.654
1834 1 61.051 11.873 32.349
1835 1 52.318 6.799 17.133
1836 1 62.733 17.042 14.697
1837 1 47.973 48.162 -22.145
1838 1 48.688 37.039 -19.909
1839 1 41.571 44.776 -4.187
1840 1 23.571 -4.969 60.600
1841 1 20.745 5.967 70.811
1842 1 24.833 -6.034 61.486
1843 1 19.475 38.062 -16.775
1844 1 21.352 22.344 -28.857
1845 1 25.817 33.531 -24.636
1846 1 92.571 -1.712 10.804
1847 1 88.792 -10.262 2.483
1848 1 84.007 -14.275 0.157
1849 1 13.674 -4.609 42.108
1850 1 25.216 -0.390 49.255
1851 1 11.802 8.393 42.066
1852 1 68.059 13.768 12.975
1853 1 80.772 16.346 6.068
1854 1 76.902 16.975 7.037
1855 1 10.857 -37.126 16.959
1856 1 4.573 -48.479 15.573
1857 1 6.397 -46.241 15.726
1858 1 -14.707 81.457 1.148
1859 1 -15.830 82.362 3.909
1860 1 -10.778 90.455 8.962
1861 1 -57.106 44.779 71.127
1862 1 -47.016 43.719 62.402
1863 1 -40.645 32.382 71.289
1864 1 15.066 -31.955 7.213
1865 1 11.303 -27.463 -4.110
1866 1 9.523 -32.391 -3.888
1867 1 1.826 -19.881 -16.927
1868 1 -2.293 -4.714 -17.877
1869 1 11.789 -22.641 -14.670
1870 1 -18.762 90.810 22.422
1871 1 -26.214 98.623 19.767
1872 1 -18.153 95.017 33.087
1873 1 28.537 4.432 -26.734
1874 1 25.584 3.266 -35.841
1875 1 37.397 12.713 -37.032
1876 1 -8.715 11.407 49.828
1877 1 -17.941 10.920 38.428
1878 1 -12.874 9.582 37.674
1879 1 -10.734 27.467 42.017
1880 1 -4.802 24.985 28.743
1881 1 4.648 36.374 40.528
1882 1 -17.717 -3.426 53.229
1883 1 -11.825 1.607 52.846
1884 1 -23.138 -7.381 63.031
1885 1 -12.893 21.894 23.862
1886 1 -5.017 27.171 19.567
1887 1 -3.478 29.811 22.236
1888 1 33.753 18.632 -36.571
1889 1 43.984 21.002 -23.950
1890 1 42.251 10.566 -36.875
1891 1 35.781 -30.314 16.339
1892 1 27.515 -20.801 18.516
1893 1 39.000 -15.667 11.684
1894 1 97.072 33.588 -50.506
1895 1 79.229 22.530 -60.608
1896 1 89.655 23.758 -46.384
1897 1 -60.159 31.402 32.435
1898 1 -60.443 29.159 38.764
1899 1 -63.351 29.999 46.989
1900 1 -39.032 32.980 -8.473
1901 1 -36.991 40.650 -10.879
1902 1 -27.650 34.459 -1.770
1903 1 -16.540 -12.342 3.944
1904 1 -21.864 3.449 -6.258
1905 1 -13.588 -13.511 -1.535
1906 1 57.580 -12.728 8.015
1907 1 53.459 -8.195 10.420
1908 1 56.578 -12.998 23.684
1909 1 22.370 -30.513 -28.077
1910 1 19.179 -22.624 -24.451
1911 1 17.504 -38.350 -24.889
1912 1 32.069 52.545 -8.063
1913 1 22.987 51.058 -8.424
1914 1 44.063 56.344 -0.713
1915 1 44.039 6.043 -13.711
1916 1 48.036 14.877 7.147
1917 1 46.320 8.812 -12.721
1918 1 20.423 -15.071 -0.036
1919 1 15.392 -10.922 4.806
1920 1 19.958 -3.967 10.016
1921 1 38.005 57.521 19.534
1922 1 31.826 48.765 11.110
1923 1 38.558 48.823 1.031
1924 1 -14.317 18.552 53.749
1925 1 -4.282 2.568 54.156
1926 1 -6.496 2.002 54.418
1927 1 -10.275 11.859 -11.812
1928 1 -19.773 5.868 -8.151
1929 1 -4.384 9.519 -6.048
1930 1 2.104 -1.846 -24.995
1931 1 -9.183 8.087 -10.663
1932 1 -8.737 -2.830 -19.734
1933 1 -1.319 15.531 -13.511
1934 1 -12.940 13.070 -27.986
1935 1 -10.892 14.559 -24.580
1936 1 23.229 34.697 -20.613
1937 1 17.441 22.955 -30.690
1938 1 29.564 31.101 -19.238
1939 1 57.149 19.084 29.848
1940 1 50.369 13.398 41.402
1941 1 48.522 11.078 16.370
1942 1 72.946 24.358 -29.040
1943 1 74.331 23.073 -59.260
1944 1 78.056 25.766 -29.237
1945 1 36.097 25.424 26.319
1946 1 33.068 29.142 40.547
1947 1 40.549 18.460 31.977
1948 1 41.655 29.788 27.142
1949 1 41.477 23.017 35.054
1950 1 40.933 18.076 17.165
1951 1 18.375 59.798 17.583
1952 1 16.128 62.591 11.475
1953 1 17.348 62.521 4.370
1954 1 13.729 27.299 22.097
1955 1 2.355 23.777 28.308
1956 1 1.249 32.266 26.194
1957 1 9.390 37.642 27.724
1958 1 8.052 26.384 17.501
1959 1 16.566 37.304 39.084
1960 1 -10.827 18.183 -50.410
1961 1 -7.187 22.842 -26.322
1962 1 3.354 16.452 -33.687
1963 1 46.317 72.005 -17.773
1964 1 41.472 84.069 -17.608
1965 1 42.161 76.213 -15.828
1966 1 30.794 -21.877 -10.209
1967 1 24.851 -22.848 7.073
1968 1 21.705 -21.041 8.793
1969 1 -66.366 -19.022 51.282
1970 1 -60.793 -19.406 54.540
1971 1 -56.626 -29.089 63.536
1972 1 34.345 17.689 -7.116
1973 1 36.284 21.417 -22.068
1974 1 35.604 23.577 -11.164
1975 1 54.075 42.460 58.691
1976 1 49.921 33.788 63.468
1977 1 70.261 23.550 47.756
1978 1 -5.978 -31.914 -3.755
1979 1 -0.925 -37.478 -4.134
1980 1 -2.041 -39.645 -6.800
1981 1 -19.575 34.191 48.198
1982 1 -12.753 26.607 47.914
1983 1 -20.619 25.739 48.984
1984 1 -4.534 55.685 9.403
1985 1 -6.028 57.960 20.972
1986 1 -7.930 64.241 13.068
1987 1 9.637 18.465 24.655
1988 1 12.014 17.981 31.336
1989 1 14.304 23.055 33.342
1990 1 39.632 47.768 10.721
1991 1 33.266 50.085 -3.460
1992 1 39.534 45.624 11.245
1993 1 -4.094 3.679 15.186
1994 1 -4.933 6.650 12.326
1995 1 -5.046 5.923 -3.511
1996 1 20.081 28.254 13.389
1997 1 22.921 27.050 5.417
1998 1 24.489 33.231 -1.215
1999 1 38.174 -13.613 16.747
2000 1 25.913 -18.170 12.083
2001 1 28.187 -16.946 5.567
2002 1 3.600 20.240 40.829
2003 1 -5.902 18.840 43.131
2004 1 -6.577 22.490 42.858
2005 1 39.715 23.677 39.887
2006 1 47.211 32.644 36.950
2007 1 49.036 24.284 39.980
2008 1 31.578 9.326 -10.485
2009 1 26.202 10.587 -15.675
2010 1 35.594 20.777 -13.917
2011 1 60.985 25.449 25.429
2012 1 51.028 20.868 18.212
2013 1 58.666 20.828 10.898
2014 1 -8.743 15.723 -13.987
2015 1 -4.197 21.200 11.272
2016 1 -9.397 23.827 -10.363
2017 1 22.153 -10.248 4.206
2018 1 19.521 -6.840 -3.337
2019 1 9.154 -13.898 9.142
2020 1 -37.663 -10.357 -1.651
2021 1 -46.169 -5.057 -25.300
2022 1 -51.794 -16.248 -11.855
2023 1 34.459 22.157 69.738
2024 1 29.199 25.926 72.956
2025 1 30.349 21.625 75.017
2026 1 -31.107 53.897 49.177
2027 1 -24.166 43.374 31.780
2028 1 -25.190 53.381 36.340
2029 1 -27.019 58.980 21.337
2030 1 -30.218 45.817 37.106
2031 1 -22.346 59.208 33.082
2032 1 13.909 51.156 20.870
2033 1 12.591 48.048 21.960
2034 1 12.716 43.572 0.186
2035 1 -0.390 23.642 23.372
2036 1 4.413 38.811 15.899
2037 1 -6.867 25.442 29.165
2038 1 -28.871 34.272 5.672
2039 1 -39.462 29.799 3.490
2040 1 -34.685 30.885 3.248
2041 1 44.685 32.807 -37.689
2042 1 37.798 32.276 -27.693
2043 1 40.092 28.439 -24.777
2044 1 44.057 36.631 64.041
2045 1 36.286 38.231 57.705
2046 1 40.902 41.446 59.386
2047 1 53.336 78.629 1.126
2048 1 59.199 72.595 4.230
2049 1 58.199 69.635 -15.292
2050 1 52.681 15.813 2.440
2051 1 50.846 22.601 17.900
2052 1 49.271 25.927 24.780
2053 1 -16.743 34.241 44.126
2054 1 -23.081 30.224 52.674
2055 1 -20.891 30.678 45.804
2056 1 -42.761 37.765 10.109
2057 1 -37.627 31.328 3.238
2058 1 -40.541 40.147 12.264
2059 1 -12.303 44.427 -12.453
2060 1 -14.622 63.189 -2.088
2061 1 -13.340 58.976 4.345
2062 1 -42.919 36.461 -1.750
2063 1 -41.038 23.072 -1.572
2064 1 -39.361 38.030 -7.262
2065 1 27.807 68.027 1.918
2066 1 26.177 63.408 -8.488
2067 1 20.766 69.012 -5.238
2068 1 -9.288 21.729 21.733
2069 1 -14.710 27.383 21.974
2070 1 -0.066 23.978 17.345
2071 1 6.964 27.644 60.971
2072 1 7.279 33.502 54.313
2073 1 1.951 33.905 55.334
2074 1 16.155 56.894 -3.795
2075 1 15.779 44.430 -3.959
2076 1 12.422 44.842 -11.927
2077 1 34.947 85.345 31.602
2078 1 15.567 94.876 36.287
2079 1 25.119 83.667 21.905
2080 1 0.030 39.879 79.607
2081 1 4.939 51.035 102.815
2082 1 -4.010 48.792 98.682
2083 1 60.571 71.989 -39.059
2084 1 61.104 70.032 -24.390
2085 1 56.276 61.881 -25.571
2086 1 32.392 30.705 -0.013
2087 1 26.439 30.084 -6.243
2088 1 26.136 25.014 -5.201
2089 1 94.401 3.488 24.285
2090 1 104.452 10.592 33.871
2091 1 101.005 15.151 16.432
2092 1 18.624 88.263 14.352
2093 1 17.439 81.257 14.028
2094 1 13.702 68.656 19.644
2095 1 26.927 61.683 8.532
2096 1 39.223 56.966 6.249
2097 1 35.969 49.431 1.498
2098 1 -13.699 38.205 12.340
2099 1 -9.476 27.856 21.284
2100 1 -13.398 30.861 13.736
2101 1 14.408 21.031 2.722
2102 1 5.321 18.915 17.673
2103 1 16.686 23.415 3.964
2104 1 25.763 55.405 33.001
2105 1 30.861 58.051 24.198
2106 1 36.082 57.400 31.063
2107 1 18.635 13.472 1.852
2108 1 13.422 15.621 -6.228
2109 1 11.058 14.173 7.362
2110 1 -49.062 47.712 10.953
2111 1 -57.373 54.832 21.720
2112 1 -50.961 27.900 16.371
2113 1 9.728 30.351 6.805
2114 1 3.308 28.575 13.500
2115 1 5.581 31.642 10.145
2116 1 61.948 37.894 -1.217
2117 1 55.788 33.503 9.324
2118 1 62.123 46.265 -11.759
2119 1 -3.530 17.327 21.474
2120 1 -4.496 21.810 25.252
2121 1 -11.776 27.168 27.028
2122 1 54.655 78.233 -12.748
2123 1 57.753 82.202 -16.129
2124 1 54.697 86.639 -20.154
2125 1 26.261 89.549 -37.820
2126 1 33.460 86.197 -36.470
2127 1 38.598 96.090 -33.839
2128 1 63.946 -8.157 -11.912
2129 1 66.296 3.608 -14.085
2130 1 67.518 1.715 -20.669
2131 1 69.519 87.088 1.453
2132 1 66.365 85.343 27.213
2133 1 72.657 84.592 28.661
2134 1 -8.431 -23.688 -22.742
2135 1 -9.909 -17.322 -30.247
2136 1 -9.208 -12.063 -16.879
2137 1 -45.654 93.249 -21.731
2138 1 -43.496 81.367 -37.256
2139 1 -33.668 96.092 -28.501
2140 1 5.436 74.898 14.288
2141 1 -8.959 81.454 9.967
2142 1 -8.306 66.461 11.898
2143 1 9.977 93.381 51.209
2144 1 4.292 96.334 57.891
2145 1 11.276 82.497 61.489
2146 1 -18.128 39.646 -17.435
2147 1 -17.875 32.280 -37.823
2148 1 -15.952 36.995 -28.580
2149 1 17.917 36.910 4.846
2150 1 21.114 30.093 -1.545
2151 1 21.759 33.331 -2.426
2152 1 56.934 65.798 49.549
2153 1 62.831 76.168 58.561
2154 1 54.222 66.468 56.023
2155 1 29.135 69.311 6.189
2156 1 19.927 80.844 0.921
2157 1 26.154 79.113 1.267
2158 1 39.685 102.614 13.775
2159 1 42.546 97.757 27.022
2160 1 43.613 105.637 25.127
2161 1 15.697 103.739 -16.706
2162 1 14.884 98.557 -24.888
2163 1 15.221 93.198 -12.871
2164 1 42.673 32.257 34.046
2165 1 44.302 44.118 37.616
2166 1 40.695 30.876 46.762
2167 1 81.545 15.040 -20.566
2168 1 73.753 14.944 -28.938
2169 1 72.002 27.090 -23.090
2170 1 53.260 23.388 -7.776
2171 1 38.731 21.035 -28.666
2172 1 43.920 17.614 -25.628
2173 1 -22.361 -20.858 -20.096
2174 1 -32.978 -18.138 -33.587
2175 1 -35.883 -20.993 -21.225
2176 1 -45.263 -18.995 27.701
2177 1 -40.195 -15.955 30.908
2178 1 -43.608 -21.869 41.205
2179 1 -22.521 16.888 6.690
2180 1 -15.199 11.125 2.540
2181 1 -24.246 22.175 -6.415
2182 1 43.844 4.857 16.179
2183 1 40.079 10.019 13.315
2184 1 39.747 6.530 18.317
2185 1 -2.025 -35.705 14.892
2186 1 -11.038 -31.745 17.577
2187 1 -2.481 -37.335 9.862
2188 1 -18.964 -45.433 -31.093
2189 1 -21.894 -41.396 -34.345
2190 1 -29.409 -33.044 -23.114
2191 1 20.532 -12.995 -11.661
2192 1 20.918 -23.879 -17.360
2193 1 18.749 -22.143 -13.151
2194 1 72.735 -27.005 51.971
2195 1 87.103 -28.662 46.110
2196 1 76.175 -20.860 42.895
2197 1 39.626 -30.576 3.793
2198 1 26.774 -35.377 4.371
2199 1 48.163 -54.483 -1.555
2200 1 40.503 -3.548 0.247
2201 1 38.048 -8.665 5.551
2202 1 38.044 -16.472 9.735
2203 1 37.185 17.562 -19.076
2204 1 36.433 25.371 -13.552
2205 1 51.187 36.176 -13.876
2206 1 127.629 4.660 30.742
2207 1 132.524 5.365 20.512
2208 1 129.619 3.251 23.344
2209 1 114.161 -0.153 6.547
2210 1 106.746 -13.272 15.937
2211 1 111.471 -0.537 0.412
2212 1 -9.971 34.055 2.267
2213 1 -25.477 38.641 14.275
2214 1 -28.266 50.899 17.401
2215 1 -6.275 -24.700 3.531
2216 1 -0.179 -36.338 -13.710
2217 1 2.288 -29.890 1.605
2218 1 -18.376 -29.175 21.854
2219 1 -25.422 -31.091 11.160
2220 1 -13.656 -26.724 6.465
2221 1 70.580 -13.149 4.887
2222 1 68.594 -12.564 5.617
2223 1 69.136 -5.833 1.663
2224 1 8.200 15.353 62.602
2225 1 10.067 19.673 80.986
2226 1 11.333 13.892 74.630
2227 1 16.656 -37.862 56.047
2228 1 20.568 -48.789 50.587
2229 1 15.443 -46.543 43.029
2230 1 12.937 2.915 -2.412
2231 1 12.218 6.451 10.414
2232 1 20.875 7.697 2.225
2233 1 -11.968 -24.126 45.530
2234 1 -9.866 -11.127 34.184
2235 1 -22.471 -21.685 38.199
2236 1 66.156 -6.915 32.690
2237 1 58.084 -9.040 9.662
2238 1 57.392 -10.838 27.790
2239 1 55.933 -48.291 -11.313
2240 1 52.189 -45.503 -11.831
2241 1 55.130 -36.453 -17.501
2242 1 46.277 10.292 -0.588
2243 1 44.162 2.387 -13.365
2244 1 45.624 7.852 -3.463
2245 1 62.893 7.833 39.770
2246 1 66.206 3.975 39.667
2247 1 59.847 5.049 50.841
2248 1 10.126 -41.369 -29.994
2249 1 5.213 -43.426 -26.058
2250 1 5.328 -40.925 -11.395
2251 1 -73.710 -18.295 21.647
2252 1 -72.613 -14.326 29.880
2253 1 -72.476 -17.238 33.095
2254 1 6.572 -17.714 36.409
2255 1 1.059 -27.490 26.182
2256 1 4.316 -25.360 32.862
2257 1 -7.189 57.846 6.027
2258 1 -8.432 50.704 26.944
2259 1 -12.067 56.210 20.205
2260 1 49.026 60.410 28.174
2261 1 55.570 44.483 20.302
2262 1 46.910 50.811 22.266
2263 1 1.824 38.240 2.493
2264 1 8.585 31.194 3.546
2265 1 5.509 23.141 8.751
2266 1 -13.980 -4.808 6.450
2267 1 -0.150 3.567 6.283
2268 1 -6.257 -4.802 -5.085
2269 1 -11.779 40.316 64.905
2270 1 -8.103 46.392 62.666
2271 1 -5.673 37.047 69.349
2272 1 21.028 15.991 26.738
2273 1 19.186 14.557 28.729
2274 1 11.705 19.405 24.456
2275 1 25.796 -41.257 22.406
2276 1 28.486 -34.783 21.582
2277 1 30.404 -35.845 25.698
2278 1 22.311 35.307 -17.609
2279 1 20.503 32.225 -21.774
2280 1 22.042 28.894 -24.139
2281 1 33.865 3.060 32.649
2282 1 37.869 2.013 31.079
2283 1 38.384 2.587 20.270
2284 1 41.359 41.879 -19.098
2285 1 49.763 32.754 -10.202
2286 1 36.455 41.404 -11.325
2287 1 51.280 55.930 20.281
2288 1 37.911 65.719 29.874
2289 1 45.302 46.642 16.042
2290 1 -16.663 74.320 -41.942
2291 1 -5.675 71.567 -44.650
2292 1 -21.047 72.722 -37.557
2293 1 22.984 -14.532 12.900
2294 1 2.900 -11.783 13.713
2295 1 16.059 -10.624 20.343
2296 1 -24.705 -35.716 53.313
2297 1 -14.982 -29.411 46.707
2298 1 -31.350 -34.635 43.179
2299 1 -52.201 -2.643 35.505
2300 1 -48.933 -4.179 26.558
2301 1 -55.052 -10.897 4.876
2302 1 48.804 20.336 -31.236
2303 1 39.705 5.373 -24.787
2304 1 47.164 9.129 -34.323
2305 1 -1.399 18.729 69.965
2306 1 9.991 32.914 75.370
2307 1 -2.279 19.410 44.722
2308 1 47.234 53.315 19.286
2309 1 49.946 58.828 22.056
2310 1 46.585 55.424 28.679
2311 1 21.995 6.838 -8.488
2312 1 17.918 13.977 -3.046
2313 1 28.814 -1.029 -2.471
2314 1 15.919 -5.229 22.650
2315 1 25.994 -8.331 33.813
2316 1 24.911 -7.944 26.888
2317 1 18.127 -3.523 -31.653
2318 1 17.568 5.999 -34.806
2319 1 14.345 0.047 -50.231
2320 1 -7.035 -29.433 -0.679
2321 1 -3.180 -20.671 -1.397
2322 1 -4.787 -28.740 4.088
2323 1 28.014 16.383 24.405
2324 1 20.680 22.463 25.095
2325 1 32.860 13.882 26.318
2326 1 53.316 37.687 29.948
2327 1 59.956 45.287 36.362
2328 1 53.567 38.738 42.933
2329 1 -13.777 38.132 -10.385
2330 1 -13.330 41.537 -18.423
2331 1 -19.177 29.261 -10.339
2332 1 -4.515 29.808 44.797
2333 1 -6.125 35.898 41.165
2334 1 -9.351 37.953 56.970
2335 1 22.540 -50.668 14.799
2336 1 19.296 -48.860 24.337
2337 1 27.165 -52.754 13.348
2338 1 75.658 66.659 22.376
2339 1 66.738 75.027 5.708
2340 1 74.708 74.822 4.264
2341 1 -8.769 43.116 -8.538
2342 1 -4.045 49.621 16.631
2343 1 -13.597 40.422 -14.191
2344 1 30.037 80.982 46.080
2345 1 20.561 77.862 37.571
2346 1 24.635 83.797 37.722
2347 1 2.291 53.309 -24.291
2348 1 -5.621 50.935 -33.235
2349 1 0.522 54.491 -30.032
2350 1 37.645 9.091 -26.292
2351 1 25.313 10.486 -30.024
2352 1 22.490 24.904 -40.321
2353 1 -5.297 96.313 24.298
2354 1 0.593 87.797 39.142
2355 1 -5.027 100.647 32.824
2356 1 -2.833 -25.557 57.555
2357 1 -6.441 -19.663 40.914
2358 1 -10.221 -18.532 32.142
2359 1 -45.336 33.038 18.412
2360 1 -35.675 44.653 8.952
2361 1 -40.852 25.438 20.020
2362 1 -12.079 37.577 -20.452
2363 1 -10.527 47.244 -13.621
2364 1 -18.208 39.798 -20.943
2365 1 8.316 -13.673 26.136
2366 1 9.802 -18.369 21.360
2367 1 12.623 -29.141 32.440
2368 1 73.805 26.411 36.841
2369 1 83.502 28.317 37.672
2370 1 91.594 23.210 28.640
2371 1 -8.627 29.352 64.649
2372 1 -27.885 43.195 59.144
2373 1 -16.225 42.660 56.498
2374 1 16.342 13.714 -6.257
2375 1 13.970 25.771 -5.083
2376 1 23.583 11.517 -22.467
2377 1 6.050 42.292 89.440
2378 1 8.270 38.359 77.826
2379 1 8.490 41.520 79.808
2380 1 50.549 64.366 -38.811
2381 1 52.980 62.481 -33.647
2382 1 50.282 72.734 -30.221
2383 1 38.173 28.221 7.033
2384 1 36.158 34.062 -5.421
2385 1 35.961 40.409 -1.342
2386 1 -55.945 2.950 86.792
2387 1 -54.990 1.285 92.746
2388 1 -53.847 13.472 94.615
2389 1 -52.650 -5.706 36.174
2390 1 -48.841 -5.869 45.969
2391 1 -46.984 -11.467 28.206
2392 1 -54.945 39.495 5.048
2393 1 -63.848 40.080 16.877
2394 1 -68.273 28.684 20.177
2395 1 0.448 11.564 23.387
2396 1 1.687 10.851 26.731
2397 1 -6.743 27.421 25.879
2398 1 35.042 20.453 30.067
2399 1 33.731 19.458 28.925
2400 1 33.783 27.194 38.326
2401 1 51.867 38.353 13.747
2402 1 41.982 35.629 11.706
2403 1 56.905 37.615 -8.324
2404 1 -6.610 41.761 1.083
2405 1 -2.684 47.114 7.080
2406 1 -8.290 58.024 10.622
2407 1 57.897 100.353 -30.704
2408 1 65.057 98.687 -36.666
2409 1 60.293 100.512 -19.248
2410 1 71.663 24.859 33.387
2411 1 53.278 23.841 20.719
2412 1 48.103 27.386 34.753
2413 1 44.892 41.647 20.208
2414 1 47.153 47.452 22.280
2415 1 44.118 49.302 33.017
2416 1 -16.998 42.531 19.446
2417 1 -13.850 42.602 -4.825
2418 1 -21.662 34.465 22.729
2419 1 -18.945 17.533 15.511
2420 1 -12.680 19.661 -4.741
2421 1 -12.295 32.733 7.691
2422 1 34.465 43.191 49.668
2423 1 27.062 41.229 46.080
2424 1 32.422 51.960 66.381
2425 1 24.135 108.873 5.810
2426 1 30.300 115.653 10.233
2427 1 28.757 117.823 6.366
2428 1 -35.025 -1.726 34.651
2429 1 -25.271 7.120 30.979
2430 1 -29.039 8.081 35.247
2431 1 -4.024 -1.853 16.599
2432 1 -2.792 -8.667 38.906
2433 1 -6.930 -5.037 39.667
2434 1 1.726 68.278 31.347
2435 1 13.776 72.690 14.753
2436 1 3.706 74.497 9.398
2437 1 22.114 34.877 53.830
2438 1 31.998 28.069 58.098
2439 1 26.122 42.176 54.727
2440 1 37.830 58.070 18.152
2441 1 50.598 54.353 19.420
2442 1 44.375 46.879 15.102
2443 1 48.611 47.926 25.179
2444 1 53.424 54.174 16.477
2445 1 43.299 43.151 22.301
2446 1 26.736 34.034 11.240
2447 1 22.793 30.127 13.914
2448 1 35.897 45.649 17.635
2449 1 -17.199 16.061 -34.358
2450 1 -0.769 18.813 -26.988
2451 1 0.913 6.396 -21.940
2452 1 44.601 48.056 38.939
2453 1 49.420 51.110 36.192
2454 1 47.752 49.434 43.320
2455 1 75.156 61.845 45.873
2456 1 76.598 54.928 43.783
2457 1 78.457 48.184 48.304
2458 1 55.591 9.723 49.706
2459 1 53.264 -4.433 52.901
2460 1 66.582 15.893 48.509
2461 1 93.704 17.663 65.533
2462 1 94.825 20.718 54.220
2463 1 94.421 21.785 58.915
2464 1 -47.211 49.773 44.225
2465 1 -43.504 53.366 32.386
2466 1 -55.726 49.365 46.030
2467 1 -56.080 38.383 27.131
2468 1 -50.181 34.434 30.177
2469 1 -47.617 36.121 42.701
2470 1 14.885 74.426 -24.581
2471 1 13.078 83.404 -10.980
2472 1 8.759 76.516 -12.236
2473 1 52.405 33.189 26.146
2474 1 40.830 29.391 34.932
2475 1 57.787 43.309 30.476
2476 1 1.083 48.361 0.377
2477 1 -5.531 44.676 -1.019
2478 1 0.781 49.533 9.237
2479 1 -1.115 38.545 18.168
2480 1 -1.434 17.875 7.146
2481 1 -3.538 25.120 8.042
2482 1 42.711 10.325 -34.270
2483 1 35.349 29.479 -31.471
2484 1 42.555 16.480 -33.110
2485 1 28.235 98.119 -34.673
2486 1 22.570 91.739 -50.328
2487 1 20.258 89.243 -41.137
2488 1 5.259 56.017 16.476
2489 1 14.364 60.752 19.609
2490 1 -5.911 58.360 15.259
2491 1 14.289 35.587 -24.554
2492 1 10.074 45.404 -24.013
2493 1 8.601 32.946 -16.099
2494 1 40.883 73.334 -5.741
2495 1 47.131 67.806 5.018
2496 1 57.264 73.331 0.014
2497 1 57.765 13.617 10.235
2498 1 53.210 11.392 4.466
2499 1 52.363 16.588 24.162
2500 1 -15.631 35.892 29.617
2501 1 -15.686 44.099 41.221
2502 1 -4.317 38.839 54.908
2503 1 -31.141 48.038 12.283
2504 1 -17.464 46.913 8.687
2505 1 -25.138 47.788 -3.713
2506 1 22.335 34.840 44.476
2507 1 25.537 50.322 21.103
2508 1 30.477 49.879 39.570
2509 1 -17.064 93.302 -2.962
2510 1 -28.301 79.770 -5.128
2511 1 -17.272 80.821 -13.413
2512 1 -36.232 72.899 29.185
2513 1 -26.509 80.303 10.763
2514 1 -26.466 77.040 30.355
2515 1 -3.408 27.556 -0.504
2516 1 -6.858 14.416 25.161
2517 1 -10.168 31.488 -1.894
2518 1 -3.601 16.982 17.426
2519 1 -5.956 12.974 33.411
2520 1 -5.150 7.842 28.793
2521 1 7.945 97.093 35.074
2522 1 7.680 91.943 50.096
2523 1 15.884 94.464 40.057
2524 1 52.694 67.061 26.458
2525 1 54.994 74.606 22.916
2526 1 54.623 74.280 20.234
2527 1 33.953 71.845 34.638
2528 1 35.202 76.396 14.979
2529 1 39.818 68.521 36.502
2530 1 71.971 49.634 27.975
2531 1 71.384 50.249 12.415
2532 1 62.124 43.196 30.876
2533 1 26.374 26.064 -15.611
2534 1 34.604 33.684 -9.004
2535 1 31.495 24.597 -9.386
2536 1 75.946 107.306 7.764
2537 1 66.469 106.494 1.549
2538 1 74.091 103.738 12.350
2539 1 60.283 79.222 25.592
2540 1 57.459 72.405 29.122
2541 1 56.805 80.530 11.259
2542 1 18.901 -7.483 -5.156
2543 1 20.785 -11.864 -29.210
2544 1 5.701 -11.789 -3.266
2545 1 16.267 25.411 -19.538
2546 1 5.280 15.180 -17.265
2547 1 17.518 25.363 -10.167
2548 1 -49.606 -20.955 38.573
2549 1 -48.430 -24.801 62.127
2550 1 -48.919 -19.805 50.751
2551 1 20.280 -29.277 2.853
2552 1 18.709 -31.695 14.183
2553 1 12.940 -27.137 12.408
2554 1 32.349 -36.129 38.524
2555 1 34.853 -34.264 12.573
2556 1 27.315 -35.652 50.087
2557 1 -7.948 -19.378 25.159
2558 1 -5.504 -29.995 0.659
2559 1 -3.283 -25.259 15.048
2560 1 61.976 2.198 20.968
2561 1 50.123 -8.139 17.078
2562 1 59.445 -3.678 37.242
2563 1 62.164 -16.992 -13.255
2564 1 57.320 -4.188 -2.803
2565 1 62.710 -8.357 2.502
2566 1 58.565 8.571 56.669
2567 1 55.958 5.941 51.365
2568 1 61.265 12.114 52.386
2569 1 58.784 -0.162 42.428
2570 1 55.891 3.366 50.042
2571 1 59.866 4.808 35.235
2572 1 77.666 25.921 4.438
2573 1 79.481 19.045 -9.604
2574 1 86.184 9.989 -0.021
2575 1 50.917 48.051 9.793
2576 1 55.451 45.758 18.731
2577 1 50.081 47.371 19.159
2578 1 46.852 -2.358 26.757
2579 1 50.986 -1.356 24.282
2580 1 56.323 -12.057 21.672
2581 1 39.374 20.726 59.968
2582 1 42.925 23.150 64.534
2583 1 27.929 24.617 61.360
2584 1 24.374 -32.352 16.210
2585 1 29.729 -32.296 4.597
2586 1 23.962 -35.877 1.508
2587 1 -10.960 0.745 57.690
2588 1 -16.286 -3.044 57.680
2589 1 -20.956 -3.552 53.758
2590 1 5.125 11.782 -10.090
2591 1 4.478 11.398 -12.227
2592 1 -2.036 12.490 1.192
2593 1 -46.969 1.040 -20.138
2594 1 -53.842 6.758 -8.375
2595 1 -46.721 -4.705 -7.950
2596 1 27.365 -7.546 42.136
2597 1 29.228 -15.567 45.151
2598 1 33.233 -10.240 42.666
2599 1 39.570 3.282 26.053
2600 1 32.614 3.283 15.511
2601 1 32.029 12.391 26.891
2602 1 6.306 -5.943 -32.722
2603 1 13.730 -5.947 -26.084
2604 1 0.619 -0.684 -23.356
2605 1 25.504 -12.180 34.235
2606 1 19.345 -15.570 30.333
2607 1 21.043 -8.628 32.031
2608 1 -5.163 9.394 29.435
2609 1 -10.288 4.712 41.411
2610 1 -13.746 -6.952 40.844
2611 1 20.908 -7.649 -2.232
2612 1 22.500 -1.267 9.237
2613 1 24.538 -6.659 5.460
2614 1 39.651 11.725 -2.536
2615 1 36.221 5.982 -0.224
2616 1 32.670 8.407 -3.979
2617 1 44.458 4.289 6.346
2618 1 43.422 -0.522 18.077
2619 1 35.462 -5.709 5.083
2620 1 -32.417 2.551 49.444
2621 1 -33.102 8.273 42.115
2622 1 -35.353 12.596 39.772
2623 1 -39.960 19.631 40.083
2624 1 -35.684 23.385 24.094
2625 1 -44.884 16.151 35.048
2626 1 -7.146 -23.192 13.196
2627 1 4.537 -35.354 5.720
2628 1 -2.682 -29.996 12.113
2629 1 29.033 17.139 26.378
2630 1 35.794 12.627 18.662
2631 1 37.072 26.145 34.140
2632 1 63.465 2.908 31.578
2633 1 73.958 5.516 31.087
2634 1 63.517 13.640 36.049
2635 1 28.822 -3.307 -5.912
2636 1 26.568 -10.478 -19.531
2637 1 24.336 7.960 -14.478
2638 1 0.919 0.270 64.969
2639 1 6.169 -22.325 73.074
2640 1 -2.424 -10.430 69.964
2641 1 -3.063 23.866 9.314
2642 1 -0.185 6.110 11.925
2643 1 6.399 -0.135 15.331
2644 1 69.292 9.249 30.903
2645 1 69.408 20.876 29.421
2646 1 73.038 -6.419 30.334
2647 1 13.745 23.803 28.665
2648 1 18.107 43.943 26.137
2649 1 10.424 36.708 26.508
2650 1 -8.627 4.680 47.573
2651 1 -21.642 13.636 51.527
2652 1 -18.292 9.024 17.635
2653 1 45.017 35.761 41.508
2654 1 38.516 39.161 37.846
2655 1 34.607 29.232 37.315
2656 1 65.528 2.728 25.541
2657 1 68.075 -10.797 25.477
2658 1 59.201 -10.169 16.195
2659 1 -39.059 -33.379 16.345
2660 1 -49.424 -43.276 -9.322
2661 1 -42.526 -43.264 10.061
2662 1 12.048 25.656 16.056
2663 1 17.622 26.543 5.181
2664 1 14.137 24.929 -0.977
2665 1 -2.371 -25.371 15.955
2666 1 -6.615 -32.045 2.536
2667 1 -6.641 -35.405 6.700
2668 1 48.492 46.292 17.130
2669 1 45.109 43.656 13.874
2670 1 50.684 38.581 15.060
2671 1 7.860 -12.995 13.343
2672 1 7.007 -23.167 15.275
2673 1 -6.702 -4.235 1.577
2674 1 43.160 -9.069 -18.097
2675 1 37.602 2.456 -32.626
2676 1 35.861 -12.179 -38.462
2677 1 45.646 -0.711 15.523
2678 1 43.189 14.557 10.148
2679 1 45.996 4.788 20.379
2680 1 95.371 45.746 25.708
2681 1 80.686 47.865 29.787
2682 1 75.427 35.332 41.416
2683 1 54.592 5.879 28.943
2684 1 50.723 2.451 27.610
2685 1 61.425 8.284 29.976
2686 1 0.714 -48.172 44.873
2687 1 -2.260 -36.602 53.949
2688 1 0.307 -62.731 41.639
2689 1 59.125 -24.965 -5.142
2690 1 68.184 -18.662 -6.897
2691 1 66.772 -20.066 -6.349
2692 1 87.896 -16.203 20.683
2693 1 94.810 -4.687 -2.028
2694 1 81.879 -12.428 15.294
2695 1 -35.457 10.146 32.629
2696 1 -32.483 13.513 39.176
2697 1 -36.371 7.559 27.102
2698 1 88.126 25.549 48.515
2699 1 90.225 34.105 45.330
2700 1 82.381 31.483 55.281
2701 1 2.981 53.734 45.593
2702 1 2.135 48.319 56.568
2703 1 1.119 46.048 44.046
2704 1 -1.895 11.980 47.291
2705 1 11.048 14.191 54.130
2706 1 14.912 14.959 63.115
2707 1 -30.381 34.987 47.857
2708 1 -38.832 37.444 39.170
2709 1 -34.259 40.151 46.319
2710 1 36.136 -12.911 73.109
2711 1 46.442 -18.357 69.482
2712 1 57.549 -21.266 82.916
2713 1 -52.558 -3.892 -3.167
2714 1 -53.177 -12.054 13.131
2715 1 -56.871 0.325 4.321
2716 1 -9.377 18.114 56.723
2717 1 -14.925 15.821 65.345
2718 1 -11.843 13.015 50.519
2719 1 15.798 24.574 30.387
2720 1 26.547 28.472 16.288
2721 1 24.615 27.474 27.622
2722 1 -35.081 61.069 -31.868
2723 1 -39.690 66.484 -41.353
2724 1 -31.516 62.744 -33.021
2725 1 -12.002 51.748 30.487
2726 1 -3.389 74.165 25.578
2727 1 -11.424 65.577 20.890
2728 1 -25.316 28.892 49.984
2729 1 -16.840 42.507 48.551
2730 1 -22.635 45.545 56.246
2731 1 28.139 90.525 -4.872
2732 1 24.641 91.213 -2.361
2733 1 24.239 92.619 -17.795
2734 1 -15.083 44.169 -13.371
2735 1 -4.189 26.641 -8.060
2736 1 -10.727 40.816 -10.459
2737 1 20.715 29.984 13.400
2738 1 10.528 29.813 16.896
2739 1 15.628 33.435 11.788
2740 1 -49.172 15.393 19.977
2741 1 -50.405 21.111 31.229
2742 1 -53.693 10.967 20.178
2743 1 30.538 2.202 20.622
2744 1 28.725 1.320 30.513
2745 1 27.819 8.160 20.276
2746 1 69.609 46.429 35.507
2747 1 72.797 57.594 36.336
2748 1 71.289 50.868 30.103
2749 1 -21.023 39.562 -3.425
2750 1 -22.768 45.586 -13.097
2751 1 -21.378 41.661 8.342
2752 1 -12.504 56.988 24.554
2753 1 -12.381 60.912 34.417
2754 1 -18.650 56.614 23.010
2755 1 47.165 54.526 43.597
2756 1 49.504 50.292 39.968
2757 1 48.857 49.877 42.196
2758 1 -6.296 16.417 24.844
2759 1 2.064 15.752 5.334
2760 1 -19.964 12.930 26.411
2761 1 8.222 28.422 46.090
2762 1 9.371 14.847 56.950
2763 1 18.267 15.074 52.560
2764 1 19.227 69.301 28.467
2765 1 18.924 70.174 23.493
2766 1 11.872 67.150 36.999
2767 1 0.886 71.191 -35.357
2768 1 11.603 66.693 -28.863
2769 1 17.776 67.482 -35.167
2770 1 38.776 11.779 7.765
2771 1 38.894 9.556 5.029
2772 1 43.156 6.442 6.585
2773 1 13.728 22.293 27.970
2774 1 5.821 18.065 14.950
2775 1 11.549 27.988 15.848
2776 1 -2.067 24.624 19.765
2777 1 -5.173 35.816 26.642
2778 1 -6.077 26.803 18.953
2779 1 28.650 37.508 28.181
2780 1 26.771 40.330 35.444
2781 1 21.878 36.767 9.495
2782 1 -24.179 60.513 63.778
2783 1 -31.121 57.818 52.855
2784 1 -21.696 56.282 46.106
2785 1 86.183 -29.979 68.479
2786 1 94.525 -20.914 65.996
2787 1 103.399 -24.622 60.497
2788 1 -3.305 50.231 -1.888
2789 1 6.050 53.723 -2.095
2790 1 -6.729 51.067 14.330
2791 1 -51.548 54.771 24.923
2792 1 -47.679 59.807 20.432
2793 1 -38.117 51.295 36.433
2794 1 -13.876 32.526 41.875
2795 1 -6.698 25.945 44.073
2796 1 -4.998 20.004 46.772
2797 1 12.100 28.247 17.721
2798 1 19.577 31.095 17.832
2799 1 24.856 36.624 14.641
2800 1 -4.871 51.640 -21.895
2801 1 -7.984 62.428 -18.305
2802 1 -4.485 58.704 -27.518
2803 1 -7.722 51.810 32.009
2804 1 -10.198 53.635 18.850
2805 1 -5.377 62.288 14.533
2806 1 43.347 42.743 25.028
2807 1 41.295 42.903 36.106
2808 1 42.405 39.207 38.148
2809 1 78.628 39.643 -27.241
2810 1 72.074 30.986 -10.817
2811 1 80.656 24.856 -27.235
2812 1 22.656 16.973 36.908
2813 1 27.590 23.075 38.823
2814 1 26.507 16.713 37.430
2815 1 38.020 70.583 40.165
2816 1 37.842 62.991 53.462
2817 1 34.088 71.310 47.052
2818 1 14.463 35.038 41.424
2819 1 13.187 31.415 43.225
2820 1 18.084 33.071 44.186
2821 1 53.853 48.254 72.516
2822 1 48.618 54.687 69.645
2823 1 53.374 42.079 71.073
2824 1 58.312 35.096 -11.065
2825 1 53.825 38.778 -0.734
2826 1 52.811 34.355 -4.655
2827 1 42.416 64.369 5.940
2828 1 35.807 51.355 2.965
2829 1 32.991 62.022 5.116
2830 1 31.613 46.343 62.251
2831 1 36.488 40.091 62.736
2832 1 29.678 38.480 55.809
2833 1 15.046 58.820 18.529
2834 1 15.658 54.980 20.407
2835 1 8.149 56.914 11.211
2836 1 4.394 31.882 62.222
2837 1 11.758 23.525 67.882
2838 1 7.763 30.947 74.384
2839 1 28.543 41.394 38.317
2840 1 23.988 53.010 34.077
2841 1 26.038 58.944 47.887
2842 1 -41.003 59.184 17.537
2843 1 -31.521 52.195 12.792
2844 1 -34.486 56.445 -3.233
2845 1 45.730 71.511 -13.638
2846 1 52.229 64.738 -15.993
2847 1 46.454 66.246 -2.543
2848 1 33.001 59.442 -21.682
2849 1 34.718 61.721 -16.681
2850 1 19.855 48.733 -20.644
2851 1 25.997 50.524 21.078
2852 1 32.672 55.786 24.159
2853 1 26.858 45.372 14.797
2854 1 46.678 23.253 -3.487
2855 1 36.705 27.670 -8.078
2856 1 36.133 17.620 -3.529
2857 1 8.408 74.639 12.243
2858 1 12.874 79.376 18.150
2859 1 15.937 69.730 -6.815
2860 1 50.465 17.430 17.445
2861 1 48.620 10.061 8.310
2862 1 45.916 18.313 1.828
2863 1 85.761 41.034 36.294
2864 1 82.809 47.891 51.456
2865 1 84.923 44.542 50.071
2866 1 6.738 -40.582 -18.296
2867 1 13.282 -46.452 -25.341
2868 1 15.726 -48.781 -19.546
2869 1 12.470 56.695 20.642
2870 1 34.899 60.150 3.213
2871 1 20.694 48.036 11.103
2872 1 48.604 -15.077 -30.602
2873 1 50.340 -15.738 -23.346
2874 1 45.199 -4.795 -23.339
2875 1 18.831 6.392 39.018
2876 1 15.081 8.132 47.688
2877 1 24.108 21.221 42.162
2878 1 5.929 27.317 -5.796
2879 1 15.560 30.324 -8.293
2880 1 11.077 10.188 -27.203
2881 1 81.584 18.725 -22.689
2882 1 72.984 10.199 -27.434
2883 1 74.669 9.093 -28.227
2884 1 -4.755 -58.190 -11.663
2885 1 -7.573 -62.351 0.451
2886 1 -9.076 -69.968 -6.120
2887 1 42.770 -9.237 40.120
2888 1 47.320 -20.346 20.490
2889 1 45.552 -24.719 26.300
2890 1 55.152 -57.894 -9.621
2891 1 57.937 -66.189 -14.674
2892 1 44.744 -53.823 -13.363
2893 1 42.783 -4.665 17.904
2894 1 51.514 -7.812 14.987
2895 1 54.242 -3.467 11.961
2896 1 84.667 -11.353 -9.820
2897 1 76.835 -9.093 -25.298
2898 1 68.704 -18.172 -26.042
2899 1 51.720 -28.974 39.180
2900 1 54.339 -28.338 25.087
2901 1 55.609 -26.618 28.184
2902 1 52.084 -37.372 11.090
2903 1 53.420 -26.609 21.453
2904 1 51.072 -24.635 24.456
2905 1 -11.402 -18.203 80.658
2906 1 -13.695 -15.166 80.807
2907 1 -17.368 -23.379 75.342
2908 1 -4.483 -4.847 61.375
2909 1 -1.177 -6.733 45.471
2910 1 1.203 -9.019 70.994
2911 1 53.207 8.377 18.023
2912 1 49.257 11.960 15.729
2913 1 45.311 12.235 9.656
2914 1 -8.691 -25.227 -4.712
2915 1 -8.065 -19.338 -5.152
2916 1 -1.507 -28.289 -16.130
2917 1 -5.915 31.537 11.155
2918 1 -14.018 29.044 -5.858
2919 1 0.750 28.326 -0.914
2920 1 45.765 8.638 -16.072
2921 1 47.135 12.829 -2.148
2922 1 47.473 -2.245 -2.801
2923 1 23.433 -20.648 -4.734
2924 1 31.311 -18.252 3.358
2925 1 23.910 -25.837 4.642
2926 1 42.711 14.520 17.491
2927 1 44.449 19.160 34.802
2928 1 36.455 6.102 22.273
2929 1 3.721 3.599 67.231
2930 1 2.906 0.211 51.469
2931 1 -7.538 5.398 53.980
2932 1 40.466 -17.127 19.855
2933 1 27.953 -12.092 19.168
2934 1 36.023 -14.963 21.050
2935 1 44.841 6.602 16.234
2936 1 47.999 15.395 26.964
2937 1 54.651 15.474 30.058
2938 1 45.932 3.284 4.748
2939 1 51.242 4.341 2.979
2940 1 39.058 14.571 7.129
2941 1 57.366 -41.216 3.819
2942 1 57.939 -36.089 15.530
2943 1 54.368 -45.078 0.400
2944 1 35.959 -6.650 -19.952
2945 1 29.463 -8.439 -44.739
2946 1 15.772 -16.723 -38.510
2947 1 -8.874 27.882 -7.631
2948 1 -20.204 34.616 -8.492
2949 1 -14.423 31.834 -20.354
2950 1 31.595 57.623 3.592
2951 1 34.198 64.386 -3.873
2952 1 23.876 59.271 13.165
2953 1 -33.866 1.874 25.077
2954 1 -36.570 1.275 20.472
2955 1 -24.603 5.890 22.415
2956 1 31.613 0.690 18.653
2957 1 29.588 6.590 2.776
2958 1 29.952 -12.634 21.623
2959 1 50.027 23.851 14.754
2960 1 63.555 29.429 15.478
2961 1 68.784 35.386 26.534
2962 1 62.364 42.234 14.393
2963 1 55.886 57.709 7.849
2964 1 62.252 53.779 12.596
2965 1 10.104 51.566 60.157
2966 1 8.446 57.664 45.478
2967 1 9.413 39.417 40.982
2968 1 -15.573 -6.207 51.145
2969 1 -19.642 6.805 50.375
2970 1 -8.170 1.591 58.885
2971 1 28.502 16.286 29.459
2972 1 20.947 3.334 27.469
2973 1 28.488 8.775 29.738
2974 1 26.197 16.232 19.569
2975 1 22.299 28.179 26.112
2976 1 25.023 25.949 28.493
2977 1 56.211 -11.820 -32.882
2978 1 56.522 -14.502 -29.280
2979 1 50.139 -15.822 -21.827
2980 1 65.509 18.486 -24.189
2981 1 64.423 29.375 -14.264
2982 1 64.408 27.633 -10.647
2983 1 23.679 -30.654 15.078
2984 1 21.519 -22.686 12.687
2985 1 22.242 -29.173 20.061
2986 1 -14.577 -18.819 37.943
2987 1 -16.828 -12.586 36.604
2988 1 -12.839 -11.900 30.666
2989 1 39.889 48.533 49.815
2990 1 26.244 53.219 40.898
2991 1 36.543 50.025 54.671
2992 1 22.329 1.896 13.615
2993 1 24.134 8.375 7.540
2994 1 21.540 18.013 8.753
2995 1 26.219 36.486 -13.921
2996 1 16.561 31.975 -17.022
2997 1 26.790 34.118 -5.749
2998 1 57.824 40.737 50.229
2999 1 55.069 32.340 36.448
3000 1 59.803 29.886 46.075
3001 1 7.428 33.395 65.607
3002 1 13.063 30.442 47.972
3003 1 13.907 32.439 51.556
3004 1 -22.335 7.887 32.230
3005 1 -34.062 8.898 41.528
3006 1 -26.757 22.508 46.742
3007 1 65.956 -7.548 34.586
3008 1 50.339 -4.985 27.611
3009 1 53.886 -12.140 23.291
3010 1 -9.055 0.147 -5.609
3011 1 -18.243 9.389 -2.881
3012 1 -24.762 -2.382 -0.526
3013 1 17.695 -4.927 64.027
3014 1 21.770 -2.173 72.272
3015 1 24.477 -5.484 63.658
3016 1 -36.118 36.393 -9.220
3017 1 -21.630 39.560 -21.086
3018 1 -23.239 40.605 -13.412
3019 1 71.079 5.932 22.404
3020 1 70.916 10.818 34.013
3021 1 74.248 3.146 25.837
3022 1 -40.234 45.359 29.289
3023 1 -39.619 34.403 26.705
3024 1 -39.889 49.215 34.737
3025 1 17.602 50.268 38.676
3026 1 12.904 49.564 33.995
3027 1 12.077 60.236 29.360
3028 1 -34.908 2.650 40.850
3029 1 -38.553 10.709 52.966
3030 1 -42.337 14.963 35.782
3031 1 43.904 24.903 43.338
3032 1 48.535 25.954 44.586
3033 1 61.072 39.563 41.966
3034 1 -31.039 19.943 -11.728
3035 1 -35.641 13.169 -14.449
3036 1 -29.402 24.334 -12.610
3037 1 -41.971 10.142 68.259
3038 1 -43.826 -3.653 81.059
3039 1 -47.864 10.977 77.202
3040 1 59.720 85.656 47.903
3041 1 55.913 85.954 55.932
3042 1 45.744 87.753 48.561
3043 1 11.489 25.385 72.996
3044 1 7.420 36.877 63.497
3045 1 19.153 37.009 72.052
3046 1 68.223 57.923 9.207
3047 1 59.037 50.913 4.174
3048 1 58.142 48.373 -10.656
3049 1 26.578 -18.956 22.819
3050 1 34.531 -1.821 21.762
3051 1 29.827 -12.197 30.380
3052 1 -54.340 53.891 25.128
3053 1 -52.561 55.480 28.236
3054 1 -59.349 65.830 17.696
3055 1 -20.594 24.622 47.545
3056 1 -16.458 20.938 51.250
3057 1 -18.395 17.462 45.695
3058 1 15.177 53.492 43.308
3059 1 16.885 50.634 31.463
3060 1 25.443 43.780 34.100
3061 1 21.747 91.521 41.566
3062 1 23.827 80.033 29.388
3063 1 11.771 78.055 37.299
3064 1 20.149 34.322 -2.037
3065 1 35.759 31.089 11.742
3066 1 29.345 28.984 10.773
3067 1 34.091 22.949 65.522
3068 1 37.837 19.932 73.788
3069 1 33.851 11.982 63.588
3070 1 30.913 54.403 -31.133
3071 1 34.708 49.723 -18.390
3072 1 23.153 45.926 -12.629
3073 1 -25.204 42.192 -17.184
3074 1 -22.047 43.233 -6.307
3075 1 -23.039 47.110 -6.188
3076 1 77.093 30.878 46.393
3077 1 75.192 40.040 44.571
3078 1 81.077 43.122 41.270
3079 1 36.653 52.483 77.725
3080 1 25.644 60.653 63.939
3081 1 29.465 51.761 72.493
3082 1 27.990 61.089 18.223
3083 1 29.871 55.756 14.254
3084 1 32.022 55.173 22.703
3085 1 64.246 -0.483 24.413
3086 1 65.965 1.362 25.673
3087 1 66.841 4.712 34.527
3088 1 8.273 68.505 39.162
3089 1 3.155 84.739 44.189
3090 1 11.478 74.341 34.255
3091 1 -33.760 52.524 -4.788
3092 1 -46.047 52.646 -3.561
3093 1 -33.774 49.819 4.856
3094 1 18.563 73.469 58.281
3095 1 10.042 66.625 51.731
3096 1 8.460 79.601 51.915
3097 1 -4.341 15.230 68.944
3098 1 -0.677 13.121 64.444
3099 1 2.792 10.339 55.935
3100 1 25.965 52.436 -15.859
3101 1 20.277 50.648 -24.307
3102 1 32.470 49.257 -8.760
3103 1 6.487 38.361 35.662
3104 1 1.674 26.533 52.544
3105 1 -1.940 36.029 41.385
3106 1 45.347 -14.884 13.790
3107 1 38.635 -24.617 12.850
3108 1 43.730 -18.922 7.053
3109 1 33.983 40.578 -22.147
3110 1 37.333 36.242 -24.749
3111 1 32.497 37.736 -20.167
3112 1 32.194 55.573 30.563
3113 1 20.801 55.677 31.505
3114 1 31.050 46.031 38.208
3115 1 -2.569 24.037 59.481
3116 1 4.200 32.227 61.577
3117 1 4.436 38.548 78.881
3118 1 21.671 20.614 15.414
3119 1 28.157 9.572 25.698
3120 1 29.103 7.572 19.608
3121 1 66.154 60.699 25.059
3122 1 71.178 67.351 24.460
3123 1 63.845 74.005 30.250
3124 1 46.126 85.418 -3.911
3125 1 49.477 93.012 -12.628
3126 1 48.127 92.022 -14.244
3127 1 78.365 63.782 50.391
3128 1 73.453 59.351 33.234
3129 1 74.323 54.913 38.449
3130 1 -24.563 20.884 -20.745
3131 1 -11.771 27.679 -24.004
3132 1 -19.094 32.781 -35.448
3133 1 13.271 92.684 101.044
3134 1 19.716 103.110 93.061
3135 1 12.889 99.025 91.230
3136 1 30.425 47.283 37.854
3137 1 23.010 51.703 42.853
3138 1 22.684 47.897 39.800
3139 1 -12.190 23.235 62.097
3140 1 -8.277 9.874 53.515
3141 1 0.715 13.226 63.464
3142 1 51.506 69.114 3.173
3143 1 45.800 76.384 6.623
3144 1 39.359 65.245 -13.907
3145 1 60.663 55.104 -11.389
3146 1 63.959 53.032 -2.910
3147 1 58.583 53.020 2.595
3148 1 51.404 54.115 51.592
3149 1 46.026 55.887 57.945
3150 1 56.479 53.582 63.922
3151 1 38.805 91.381 -16.000
3152 1 39.254 84.223 -30.525
3153 1 37.881 93.424 -27.991
3154 1 -17.768 4.865 -5.647
3155 1 -24.635 11.510 1.985
3156 1 -27.523 12.504 7.897
3157 1 33.801 17.713 52.060
3158 1 39.746 23.280 52.739
3159 1 37.895 29.517 47.178
3160 1 32.079 61.385 23.195
3161 1 22.806 75.517 13.364
3162 1 30.427 82.923 20.169
3163 1 30.183 74.103 16.319
3164 1 24.345 69.490 26.654
3165 1 26.608 73.933 13.188
3166 1 5.988 68.888 18.106
3167 1 6.973 74.793 25.689
3168 1 13.749 81.123 27.471
3169 1 17.346 8.544 4.556
3170 1 18.652 8.852 0.451
3171 1 30.065 -4.584 -0.166
3172 1 -38.259 -24.033 26.958
3173 1 -51.248 -26.159 24.013
3174 1 -47.425 -17.191 21.189
3175 1 14.773 32.158 54.259
3176 1 21.652 26.370 50.620
3177 1 8.671 16.193 48.025
3178 1 23.150 6.484 48.840
3179 1 21.947 -4.880 44.744
3180 1 19.808 -1.112 27.451
3181 1 32.220 -37.331 34.293
3182 1 21.234 -34.956 28.997
3183 1 28.229 -35.972 34.524
3184 1 14.632 6.553 27.186
3185 1 18.467 16.136 24.619
3186 1 15.463 11.975 22.725
3187 1 5.364 1.865 3.493
3188 1 11.482 -13.892 15.416
3189 1 9.054 -2.241 5.253
3190 1 -11.874 -20.662 16.763
3191 1 -15.399 -14.581 1.342
3192 1 -15.875 -16.216 -3.360
3193 1 -1.194 -3.538 28.357
3194 1 0.833 11.126 34.694
3195 1 -0.176 2.779 30.185
3196 1 74.365 12.232 52.147
3197 1 87.922 13.700 59.363
3198 1 87.603 4.929 62.045
3199 1 81.619 19.824 70.920
3200 1 90.883 14.883 53.089
3201 1 80.854 17.453 69.987
3202 1 2.296 -22.982 71.817
3203 1 -2.796 -12.061 69.906
3204 1 2.092 -12.935 73.173
3205 1 20.159 17.332 59.265
3206 1 24.065 8.460 68.477
3207 1 15.820 22.653 52.999
3208 1 -12.907 -27.072 7.812
3209 1 -11.185 -41.599 16.975
3210 1 -15.694 -37.695 -2.518
3211 1 -2.734 20.456 -18.726
3212 1 -16.246 23.663 2.671
3213 1 -2.730 21.583 -2.322
3214 1 18.983 -1.598 55.278
3215 1 29.116 -13.553 54.767
3216 1 21.149 -4.176 47.849
3217 1 -24.639 3.737 37.135
3218 1 -29.712 -3.261 53.134
3219 1 -26.058 6.744 47.850
3220 1 10.877 43.957 35.142
3221 1 0.169 30.788 41.911
3222 1 -0.180 32.540 31.447
3223 1 -0.094 -8.995 -29.885
3224 1 -3.354 -8.210 -18.318
3225 1 2.855 3.106 -31.532
3226 1 42.726 35.547 -32.842
3227 1 34.767 34.618 -25.910
3228 1 53.560 37.058 -26.180
3229 1 27.306 -1.815 13.376
3230 1 24.124 7.607 13.762
3231 1 36.504 -1.718 19.277
3232 1 45.615 -24.511 20.410
3233 1 41.529 -19.122 38.810
3234 1 49.827 -23.084 44.267
3235 1 19.302 -51.099 38.004
3236 1 15.477 -39.175 38.515
3237 1 10.438 -49.805 39.468
3238 1 38.811 -6.375 6.541
3239 1 38.694 4.973 18.656
3240 1 41.417 -12.920 25.034
3241 1 65.958 26.431 -31.885
3242 1 74.328 23.399 -33.178
3243 1 57.645 24.641 -29.037
3244 1 51.223 -22.243 50.452
3245 1 57.097 -23.154 50.493
3246 1 52.260 -20.346 48.188
3247 1 4.151 -6.115 -7.554
3248 1 -2.031 3.446 -9.018
3249 1 -1.240 -9.633 -15.542
3250 1 2.188 -23.444 -9.495
3251 1 0.579 -13.536 -7.418
3252 1 -0.741 -9.955 10.885
3253 1 22.491 -13.226 39.075
3254 1 37.501 -13.317 46.505
3255 1 26.736 -2.781 39.495
3256 1 18.445 -5.761 18.459
3257 1 21.744 6.188 -5.498
3258 1 32.148 -0.893 15.351
3259 1 42.320 -17.642 47.563
3260 1 39.813 -12.372 38.771
3261 1 45.437 -10.992 38.905
3262 1 20.964 30.381 29.453
3263 1 17.890 13.918 27.520
3264 1 18.050 15.887 31.929
3265 1 53.397 7.487 39.547
3266 1 56.889 6.378 27.858
3267 1 59.508 1.999 40.631
3268 1 40.529 -29.453 32.969
3269 1 31.175 -19.312 11.959
3270 1 36.442 -23.392 17.299
3271 1 35.902 14.978 27.832
3272 1 35.395 31.323 31.324
3273 1 42.525 21.696 24.207
3274 1 61.547 -46.571 38.960
3275 1 50.082 -51.736 42.720
3276 1 55.170 -42.107 49.371
3277 1 45.868 -32.174 53.253
3278 1 43.028 -34.729 61.583
3279 1 47.247 -28.654 62.510
3280 1 53.800 -3.147 29.625
3281 1 61.868 -19.269 25.285
3282 1 53.138 -15.159 26.276
3283 1 58.182 18.752 18.702
3284 1 57.079 11.728 26.413
3285 1 57.364 8.750 12.821
3286 1 -3.360 19.541 8.272
3287 1 -0.910 10.996 26.375
3288 1 7.183 25.516 21.635
3289 1 -35.335 8.511 0.544
3290 1 -32.111 0.853 -12.822
3291 1 -38.462 5.623 -9.248
3292 1 17.506 0.211 22.599
3293 1 20.011 -0.235 29.285
3294 1 17.933 -4.253 12.783
3295 1 -0.114 8.413 57.168
3296 1 8.595 24.465 56.233
3297 1 7.142 14.585 44.180
3298 1 35.580 -22.248 46.357
3299 1 38.967 -26.046 22.667
3300 1 36.854 -24.622 17.027
3301 1 -8.047 31.313 -29.434
3302 1 -4.129 42.341 -13.917
3303 1 -2.553 31.603 -0.761
3304 1 -16.116 8.199 49.393
3305 1 -22.373 21.661 54.016
3306 1 -21.247 6.967 47.790
3307 1 63.497 22.150 -13.318
3308 1 46.319 19.511 8.930
3309 1 41.192 23.262 -6.240
3310 1 43.904 41.266 30.527
3311 1 48.038 38.898 15.731
3312 1 49.838 50.864 16.425
3313 1 -22.865 -0.423 25.789
3314 1 -19.652 -0.631 25.528
3315 1 -21.629 -3.969 28.077
3316 1 53.248 44.209 21.110
3317 1 57.025 40.192 25.073
3318 1 62.854 34.880 23.064
3319 1 31.617 21.726 29.365
3320 1 27.723 9.595 18.493
3321 1 33.242 28.071 33.900
3322 1 81.198 28.251 18.254
3323 1 91.211 22.624 19.221
3324 1 69.957 22.747 18.717
3325 1 -9.158 41.688 0.960
3326 1 -1.551 39.085 -10.226
3327 1 -8.677 47.378 -1.392
3328 1 69.676 29.791 24.726
3329 1 71.608 42.036 29.964
3330 1 69.800 30.478 19.254
3331 1 -26.195 34.430 21.880
3332 1 -20.436 29.870 10.443
3333 1 -22.302 28.953 16.757
3334 1 47.314 25.130 27.889
3335 1 48.763 27.853 37.884
3336 1 33.169 20.090 28.768
3337 1 -7.300 51.299 -29.468
3338 1 -7.798 32.401 -15.924
3339 1 -0.250 54.319 -35.139
3340 1 3.489 15.622 17.232
3341 1 2.956 7.775 2.600
3342 1 -3.355 0.156 10.610
3343 1 27.117 8.733 67.131
3344 1 32.598 12.576 73.197
3345 1 28.186 17.683 71.988
3346 1 9.262 28.914 -10.035
3347 1 20.271 21.327 -5.109
3348 1 9.253 25.651 -14.533
3349 1 21.793 23.029 34.094
3350 1 27.332 21.908 29.103
3351 1 33.935 19.968 34.471
3352 1 35.954 69.735 43.077
3353 1 34.517 70.277 46.469
3354 1 31.223 72.461 44.394
3355 1 11.208 42.672 69.309
3356 1 8.415 38.718 63.922
3357 1 3.587 37.779 71.593
3358 1 -52.652 21.595 -16.027
3359 1 -47.039 33.390 -5.315
3360 1 -50.013 29.868 -9.272
3361 1 11.502 25.485 18.374
3362 1 6.408 24.412 25.355
3363 1 11.786 20.963 32.484
3364 1 20.325 35.034 37.872
3365 1 19.119 38.689 35.070
3366 1 19.609 34.216 51.662
3367 1 29.167 27.040 40.919
3368 1 32.658 20.223 52.250
3369 1 37.812 14.406 35.807
3370 1 14.398 48.095 0.269
3371 1 10.273 43.921 14.266
3372 1 4.847 53.459 14.860
3373 1 -12.677 48.318 14.034
3374 1 -2.708 50.824 6.168
3375 1 -6.551 53.493 17.591
3376 1 -1.721 64.237 70.268
3377 1 -0.494 56.995 52.868
3378 1 -0.391 62.585 49.903
3379 1 -38.076 38.934 9.866
3380 1 -42.459 41.388 18.750
3381 1 -35.277 47.305 15.348
3382 1 -7.011 64.609 -10.462
3383 1 -12.202 51.182 -3.603
3384 1 -5.721 58.993 -4.419
3385 1 23.729 20.282 24.400
3386 1 14.538 28.956 34.068
3387 1 15.567 37.581 23.330
3388 1 50.024 69.129 38.600
3389 1 49.507 67.920 23.092
3390 1 58.343 62.569 35.285
3391 1 8.941 49.181 12.845
3392 1 8.288 44.265 1.838
3393 1 3.691 52.152 14.818
3394 1 -0.870 57.639 6.474
3395 1 0.019 67.287 10.794
3396 1 -8.723 64.095 7.517
3397 1 -11.610 91.742 61.549
3398 1 -1.448 75.535 68.856
3399 1 -7.254 77.240 78.076
3400 1 41.437 78.630 38.656
3401 1 52.710 81.044 31.266
3402 1 42.432 79.510 19.606
3403 1 29.190 99.702 62.439
3404 1 37.162 92.242 57.564
3405 1 36.854 102.042 48.277
3406 1 75.952 33.654 55.039
3407 1 66.221 34.259 54.555
3408 1 71.091 32.930 54.382
3409 1 80.290 68.668 34.435
3410 1 84.948 61.143 27.128
3411 1 74.054 63.387 33.485
3412 1 -41.817 28.971 23.620
3413 1 -42.205 33.779 20.350
3414 1 -45.591 42.492 24.511
3415 1 66.973 -29.200 27.147
3416 1 64.620 -23.860 22.351
3417 1 69.479 -30.197 27.806
3418 1 1.362 42.441 44.776
3419 1 2.623 55.331 46.082
3420 1 2.392 62.241 45.084
3421 1 11.288 65.424 48.417
3422 1 21.711 58.987 38.965
3423 1 10.772 58.050 50.395
3424 1 -19.376 41.761 -5.287
3425 1 -22.884 38.955 -12.602
3426 1 -20.437 36.631 -17.755
3427 1 -42.929 79.585 3.216
3428 1 -38.531 76.200 11.030
3429 1 -47.091 73.021 4.737
3430 1 56.385 78.417 61.395
3431 1 66.322 80.527 52.912
3432 1 58.077 85.002 55.152
3433 1 76.359 40.093 35.919
3434 1 85.862 40.113 46.559
3435 1 80.590 33.228 36.813
3436 1 28.233 24.039 49.725
3437 1 27.403 28.478 51.217
3438 1 17.990 26.824 60.317
3439 1 31.793 88.462 13.661
3440 1 48.299 86.623 21.445
3441 1 49.302 79.801 33.414
3442 1 29.741 -10.566 30.054
3443 1 29.520 -8.566 26.340
3444 1 32.503 -6.895 27.505
3445 1 46.243 28.692 20.190
3446 1 29.684 25.348 17.073
3447 1 42.688 17.609 10.052
3448 1 90.543 29.635 54.146
3449 1 93.894 34.329 46.460
3450 1 86.133 36.049 52.323
3451 1 -19.216 5.022 40.729
3452 1 -22.150 -3.006 57.865
3453 1 -23.996 15.038 58.223
3454 1 10.368 53.193 28.208
3455 1 12.775 60.851 17.746
3456 1 10.910 60.986 18.305
3457 1 -50.422 34.087 20.005
3458 1 -40.528 22.215 13.497
3459 1 -45.119 35.204 14.955
3460 1 1.284 42.559 -18.316
3461 1 8.181 44.282 -12.598
3462 1 0.131 50.890 -26.848
3463 1 -36.274 -33.456 71.503
3464 1 -36.188 -16.469 66.739
3465 1 -37.545 -15.738 67.307
3466 1 63.393 57.551 -16.782
3467 1 58.633 48.413 -27.520
3468 1 56.135 45.557 -28.561
3469 1 40.866 98.301 40.427
3470 1 38.558 96.464 49.346
3471 1 31.488 91.931 51.587
3472 1 7.428 3.419 51.407
3473 1 4.689 12.118 54.096
3474 1 7.696 -0.201 66.636
3475 1 12.197 61.374 40.251
3476 1 9.403 66.244 28.858
3477 1 6.970 72.978 41.171
3478 1 -3.311 77.899 15.629
3479 1 8.100 74.413 2.801
3480 1 5.617 87.652 16.425
3481 1 66.104 87.031 7.690
3482 1 65.322 85.775 10.072
3483 1 69.974 83.222 6.252
3484 1 20.407 100.670 12.390
3485 1 22.399 101.480 -6.619
3486 1 21.038 110.183 5.963
3487 1 71.960 66.511 -4.175
3488 1 69.975 71.001 0.034
3489 1 72.087 79.117 5.393
3490 1 42.125 -5.798 66.962
3491 1 31.630 -2.456 55.845
3492 1 35.990 -8.248 60.732
3493 1 26.804 -34.500 50.236
3494 1 35.742 -30.589 38.650
3495 1 26.831 -41.709 47.187
3496 1 -8.422 6.660 2.011
3497 1 -8.246 18.558 -6.400
3498 1 -2.618 15.809 -2.894
3499 1 13.953 -29.480 26.778
3500 1 16.764 -22.228 32.039
3501 1 11.009 -27.494 41.561
3502 1 16.009 -20.917 32.776
3503 1 14.931 -15.455 51.263
3504 1 8.673 -23.232 41.057
3505 1 32.870 -18.804 9.985
3506 1 33.040 -16.550 17.022
3507 1 15.380 -14.911 6.875
3508 1 13.691 33.726 26.294
3509 1 9.414 28.644 26.026
3510 1 12.849 33.084 21.420
3511 1 25.225 -15.633 -11.032
3512 1 16.555 -6.296 -12.659
3513 1 19.618 -10.245 -19.677
3514 1 38.980 19.086 55.225
3515 1 50.718 24.773 68.300
3516 1 59.156 23.362 56.980
3517 1 60.236 -26.044 20.974
3518 1 57.133 -32.027 8.297
3519 1 47.914 -27.592 7.228
3520 1 55.229 21.449 49.774
3521 1 61.624 14.523 35.321
3522 1 47.344 2.584 52.578
3523 1 32.147 -53.239 66.274
3524 1 39.449 -49.672 55.138
3525 1 49.014 -41.073 72.448
3526 1 95.506 9.494 8.800
3527 1 95.389 5.939 -0.854
3528 1 109.810 -1.984 -5.282
3529 1 45.847 -3.986 23.460
3530 1 45.869 -4.035 17.731
3531 1 33.293 -10.954 14.910
3532 1 -38.057 -42.044 67.085
3533 1 -28.697 -52.341 75.001
3534 1 -41.679 -49.271 61.967
3535 1 -17.055 20.797 69.451
3536 1 -18.925 -5.811 52.871
3537 1 -17.955 -1.202 59.592
3538 1 8.033 -8.165 1.142
3539 1 8.953 -6.902 -15.537
3540 1 9.799 -6.894 -2.288
3541 1 51.151 8.648 42.442
3542 1 49.400 0.072 45.218
3543 1 57.989 0.300 34.113
3544 1 -28.292 -8.959 77.315
3545 1 -20.312 14.766 62.194
3546 1 -30.121 -0.637 68.423
3547 1 52.218 -12.652 42.306
3548 1 46.023 -8.220 51.520
3549 1 50.628 -10.836 51.144
3550 1 44.676 -23.890 61.492
3551 1 38.479 -19.696 58.649
3552 1 41.152 -13.666 54.629
3553 1 46.167 -16.929 59.559
3554 1 39.747 -22.189 48.800
3555 1 43.161 -16.422 55.895
3556 1 4.984 13.189 -25.532
3557 1 22.835 7.681 -33.626
3558 1 11.457 17.926 -32.995
3559 1 40.528 3.276 25.323
3560 1 38.117 -3.850 27.147
3561 1 21.531 1.610 21.108
3562 1 17.885 -34.163 36.808
3563 1 21.339 -43.604 36.195
3564 1 11.202 -30.082 39.061
3565 1 70.787 -32.011 27.316
3566 1 72.717 -35.357 20.192
3567 1 69.321 -35.707 26.982
3568 1 -21.819 3.586 46.284
3569 1 -26.674 -11.064 40.743
3570 1 -29.320 0.945 44.613
3571 1 25.305 17.395 46.270
3572 1 30.977 7.179 73.256
3573 1 24.585 2.111 50.004
3574 1 17.085 -5.259 6.778
3575 1 5.646 -8.673 15.946
3576 1 18.609 6.881 6.863
3577 1 1.779 -21.738 52.572
3578 1 -10.243 -16.096 56.847
3579 1 6.481 -23.872 55.276
3580 1 40.417 28.333 27.954
3581 1 34.400 35.033 38.680
3582 1 32.573 21.968 26.068
3583 1 61.390 13.005 32.017
3584 1 58.117 28.582 19.532
3585 1 58.329 43.005 21.378
3586 1 18.566 33.919 -18.139
3587 1 12.827 44.318 -4.781
3588 1 19.553 30.987 -25.211
3589 1 39.508 14.916 -3.190
3590 1 27.215 13.811 -0.350
3591 1 28.140 9.572 1.612
3592 1 34.530 -4.815 1.377
3593 1 30.381 7.756 -5.079
3594 1 31.621 -0.874 -4.918
3595 1 22.249 2.461 43.730
3596 1 24.544 5.898 43.400
3597 1 25.376 -6.994 56.122
3598 1 55.178 12.354 30.909
3599 1 59.120 11.882 32.870
3600 1 62.327 13.030 31.445
3601 1 18.961 20.634 48.704
3602 1 19.644 29.975 50.462
3603 1 21.620 18.958 59.992
3604 1 112.239 -34.825 93.336
3605 1 103.544 -31.539 90.584
3606 1 104.176 -32.682 80.713
3607 1 -55.563 -3.232 -0.256
3608 1 -50.358 -1.633 17.977
3609 1 -60.840 4.025 27.643
3610 1 18.748 28.895 7.496
3611 1 20.950 37.496 -14.854
3612 1 26.356 38.690 12.763
3613 1 -12.840 5.316 69.540
3614 1 -10.220 9.012 74.089
3615 1 -13.198 7.554 55.292
3616 1 28.172 -3.978 -1.024
3617 1 16.118 -7.419 8.058
3618 1 16.949 -20.620 11.448
3619 1 22.149 3.657 40.072
3620 1 21.044 6.811 30.114
3621 1 22.451 1.291 36.240
3622 1 6.495 13.565 12.319
3623 1 6.754 20.263 13.576
3624 1 -7.762 -0.658 8.657
3625 1 30.751 21.074 10.947
3626 1 44.606 9.937 9.919
3627 1 39.437 5.696 14.773
3628 1 33.019 50.966 7.315
3629 1 23.231 43.639 8.610
3630 1 29.135 62.632 2.766
3631 1 -11.546 20.811 61.057
3632 1 -15.642 26.484 56.039
3633 1 -8.501 23.124 44.575
3634 1 50.764 36.343 18.203
3635 1 50.878 39.895 27.382
3636 1 52.717 30.312 22.174
3637 1 15.281 25.328 -10.082
3638 1 10.890 36.038 -17.319
3639 1 7.022 11.001 -21.900
3640 1 85.874 -25.716 75.680
3641 1 90.455 -14.372 63.727
3642 1 84.000 -21.843 64.701
3643 1 18.994 20.160 60.968
3644 1 12.159 20.200 62.817
3645 1 20.247 34.192 68.312
3646 1 3.800 22.386 48.058
3647 1 7.701 28.041 38.361
3648 1 2.115 23.588 43.284
3649 1 62.470 63.548 3.725
3650 1 66.951 61.594 14.608
3651 1 60.548 66.752 0.334
3652 1 58.846 -8.639 60.679
3653 1 54.288 -1.105 57.568
3654 1 60.635 -10.848 57.818
3655 1 -19.038 -20.522 60.074
3656 1 -14.833 -9.154 60.423
3657 1 -11.361 -19.551 49.830
3658 1 4.261 23.772 38.481
3659 1 14.616 25.986 39.899
3660 1 14.881 28.544 27.753
3661 1 37.365 4.417 47.879
3662 1 34.818 -11.689 39.014
3663 1 28.212 6.021 25.494
3664 1 -48.225 -4.347 18.057
3665 1 -50.048 11.662 17.434
3666 1 -57.213 4.608 6.005
3667 1 89.954 47.164 6.363
3668 1 88.085 35.893 8.344
3669 1 96.054 42.057 18.574
3670 1 8.181 57.851 2.528
3671 1 11.374 45.843 3.018
3672 1 9.383 48.174 -6.750
3673 1 48.326 -18.618 62.601
3674 1 44.772 -22.079 67.517
3675 1 52.009 -11.321 54.937
3676 1 0.436 -0.157 13.056
3677 1 2.606 9.838 27.240
3678 1 -2.901 -0.391 29.682
3679 1 -44.671 86.566 49.993
3680 1 -40.954 73.073 46.156
3681 1 -31.443 78.285 47.234
3682 1 56.293 -36.906 37.597
3683 1 42.889 -47.886 24.374
3684 1 47.921 -43.868 43.038
3685 1 24.525 23.324 2.436
3686 1 18.028 20.544 0.081
3687 1 19.776 23.710 3.977
3688 1 -1.257 -4.666 11.340
3689 1 -3.308 -11.074 16.136
3690 1 -14.891 -15.960 6.486
3691 1 -42.446 67.250 -20.730
3692 1 -41.629 65.560 -14.527
3693 1 -31.511 76.022 -3.391
3694 1 -13.593 23.160 -13.822
3695 1 -15.509 19.033 -15.502
3696 1 -24.491 15.160 -11.229
3697 1 12.087 -32.445 31.950
3698 1 5.770 -27.992 28.574
3699 1 10.838 -35.951 18.128
3700 1 28.773 53.759 43.493
3701 1 28.817 48.757 40.212
3702 1 32.618 53.509 36.640
3703 1 18.945 49.727 27.395
3704 1 12.627 38.187 16.950
3705 1 19.545 32.903 32.487
3706 1 43.751 3.879 15.079
3707 1 39.337 5.433 20.120
3708 1 40.574 3.944 16.481
3709 1 24.146 24.948 -56.406
3710 1 26.929 23.112 -52.925
3711 1 33.282 19.462 -47.615
3712 1 91.035 40.711 48.078
3713 1 90.455 50.502 43.868
3714 1 80.863 43.757 54.901
3715 1 22.914 45.242 18.808
3716 1 13.045 40.581 28.729
3717 1 3.891 38.747 27.393
3718 1 37.032 30.161 44.314
3719 1 43.457 27.904 39.200
3720 1 37.718 22.131 33.006
3721 1 51.064 29.983 42.284
3722 1 45.502 27.912 34.187
3723 1 44.314 32.840 51.265
3724 1 -8.646 49.433 5.402
3725 1 4.677 41.348 6.793
3726 1 -7.029 34.688 7.755
3727 1 5.363 66.835 29.780
3728 1 11.450 59.627 15.279
3729 1 20.170 73.074 27.571
3730 1 -33.630 74.383 51.886
3731 1 -31.676 70.597 45.414
3732 1 -43.619 67.022 49.647
3733 1 -29.053 -6.476 45.898
3734 1 -36.863 -4.758 28.130
3735 1 -29.211 -6.008 39.614
3736 1 -26.119 55.120 77.914
3737 1 -29.211 48.600 67.394
3738 1 -26.321 51.646 72.682
3739 1 21.139 65.354 27.973
3740 1 21.952 58.511 27.010
3741 1 23.837 69.163 34.819
3742 1 -38.202 10.020 -1.650
3743 1 -30.577 3.469 8.872
3744 1 -35.601 17.578 -2.993
3745 1 10.961 78.432 31.932
3746 1 9.087 89.643 29.173
3747 1 10.204 87.040 38.519
3748 1 20.252 59.353 36.168
3749 1 29.352 55.397 26.786
3750 1 13.156 62.347 18.170
3751 1 46.962 43.925 5.459
3752 1 48.102 51.762 -14.118
3753 1 46.114 34.859 -4.090
3754 1 18.158 40.074 -36.253
3755 1 16.596 39.920 -28.443
3756 1 17.665 40.592 -34.703
3757 1 15.011 17.440 100.314
3758 1 12.553 9.225 96.336
3759 1 23.820 -3.859 100.922
3760 1 13.659 12.459 28.337
3761 1 9.467 7.482 30.606
3762 1 18.673 0.523 33.830
3763 1 32.896 64.609 114.988
3764 1 21.810 73.638 117.100
3765 1 27.529 70.525 107.193
3766 1 -13.886 24.731 46.305
3767 1 -3.216 37.035 38.984
3768 1 -26.430 33.255 50.057
3769 1 -12.590 67.847 -18.945
3770 1 -11.150 70.486 -24.077
3771 1 -13.591 64.514 -28.608
3772 1 -23.662 67.288 48.629
3773 1 -21.424 64.058 53.850
3774 1 -21.468 71.325 56.904
3775 1 45.802 63.732 40.571
3776 1 33.619 58.922 33.749
3777 1 37.970 64.254 19.859
3778 1 15.557 118.301 45.913
3779 1 12.535 109.707 45.893
3780 1 11.106 112.940 34.024
3781 1 44.955 95.166 79.535
3782 1 37.014 94.721 58.003
3783 1 37.789 87.862 65.859
3784 1 -21.896 17.593 18.832
3785 1 -13.394 12.292 16.447
3786 1 -26.099 9.856 10.662
3787 1 8.253 32.677 34.406
3788 1 14.930 32.968 34.957
3789 1 21.862 28.831 34.933
3790 1 18.984 33.305 54.463
3791 1 30.305 39.504 47.825
3792 1 22.408 34.219 62.044
3793 1 11.389 43.104 8.375
3794 1 5.097 46.158 14.182
3795 1 13.510 48.365 17.075
3796 1 61.827 19.261 36.896
3797 1 59.433 18.221 30.108
3798 1 58.765 12.545 18.095
3799 1 57.563 52.384 60.185
3800 1 49.192 50.727 73.145
3801 1 51.146 48.734 64.678
3802 1 -20.943 30.705 19.818
3803 1 -26.461 19.553 28.849
3804 1 -20.132 19.382 16.015
3805 1 5.704 51.678 32.634
3806 1 1.611 45.024 31.691
3807 1 7.936 43.430 36.682
3808 1 11.305 -11.033 31.342
3809 1 5.268 -17.261 36.123
3810 1 10.451 -8.804 39.632
3811 1 -31.678 -11.333 20.872
3812 1 -38.182 -1.292 0.346
3813 1 -38.473 -0.318 -12.535
3814 1 42.571 64.699 10.983
3815 1 40.567 47.031 23.474
3816 1 37.359 52.285 12.172
3817 1 23.957 2.239 23.361
3818 1 12.605 15.029 23.324
3819 1 8.915 8.175 15.464
3820 1 23.935 18.786 44.418
3821 1 35.450 14.498 43.575
3822 1 34.607 18.080 44.449
3823 1 -12.537 -0.238 31.008
3824 1 -1.336 8.415 35.697
3825 1 -19.941 9.362 28.725
3826 1 63.136 81.788 12.540
3827 1 57.105 86.665 27.420
3828 1 57.230 69.300 30.390
3829 1 54.398 1.443 37.399
3830 1 52.310 1.321 30.537
3831 1 48.680 7.436 35.057
3832 1 36.637 52.511 28.765
3833 1 36.123 43.229 42.660
3834 1 34.718 43.725 44.877
3835 1 57.310 52.506 40.935
3836 1 56.202 58.918 54.163
3837 1 54.466 57.721 48.116
3838 1 67.177 24.430 10.765
3839 1 69.400 34.932 18.923
3840 1 63.561 14.113 14.963
3841 1 16.036 23.486 97.655
3842 1 4.262 14.930 98.250
3843 1 15.327 14.879 95.856
3844 1 37.058 -20.984 68.522
3845 1 34.605 -23.712 74.728
3846 1 19.196 -25.294 73.128
3847 1 31.961 23.549 48.024
3848 1 28.227 17.514 57.713
3849 1 14.428 17.285 51.374
3850 1 -20.788 7.615 41.751
3851 1 -27.824 9.599 60.006
3852 1 -29.843 8.337 47.714
3853 1 -12.601 18.409 11.152
3854 1 -13.115 0.779 7.492
3855 1 -4.315 11.691 21.180
3856 1 24.583 -16.995 30.292
3857 1 27.135 -16.604 27.021
3858 1 21.485 -28.386 27.402
3859 1 20.489 40.154 66.798
3860 1 21.393 22.751 48.353
3861 1 17.337 20.551 60.985
3862 1 25.007 34.862 78.844
3863 1 32.835 47.357 96.230
3864 1 21.986 34.600 86.386
3865 1 61.834 -18.383 46.033
3866 1 66.864 -2.857 58.065
3867 1 54.465 -5.590 56.307
3868 1 10.394 -21.175 33.059
3869 1 10.655 -30.560 24.116
3870 1 22.951 -23.136 36.231
3871 1 47.141 -5.404 65.570
3872 1 55.771 -2.365 81.137
3873 1 38.414 -3.816 81.391
3874 1 38.113 -9.829 80.036
3875 1 32.084 4.305 71.701
3876 1 27.244 2.284 80.842
3877 1 77.584 12.502 73.357
3878 1 76.458 6.480 87.803
3879 1 69.698 -0.109 78.217
3880 1 -22.019 -15.624 57.355
3881 1 -7.504 -3.309 57.598
3882 1 -18.680 -7.958 60.386
3883 1 -1.504 16.171 25.840
3884 1 -13.356 11.980 28.180
3885 1 -6.440 15.195 26.977
3886 1 -4.460 23.625 17.478
3887 1 -6.291 25.314 11.206
3888 1 -5.568 29.339 15.520
3889 1 -45.496 -7.255 78.403
3890 1 -41.165 1.321 64.875
3891 1 -50.493 2.821 60.926
3892 1 -5.809 51.250 16.952
3893 1 -5.315 57.922 20.542
3894 1 -13.334 52.770 9.205
3895 1 -14.159 -10.678 14.135
3896 1 -17.208 -6.751 20.555
3897 1 -18.865 -29.380 20.651
3898 1 43.252 -29.736 42.309
3899 1 46.014 -28.533 25.408
3900 1 43.478 -42.553 32.646
3901 1 67.853 27.621 2.732
3902 1 70.297 41.755 18.309
3903 1 61.918 35.841 3.461
3904 1 -5.617 -31.682 -5.235
3905 1 2.193 -27.287 -3.671
3906 1 2.745 -33.133 -18.616
3907 1 31.216 13.482 -4.667
3908 1 34.319 13.685 2.008
3909 1 27.684 9.839 -6.039
3910 1 51.445 26.375 18.313
3911 1 43.754 25.383 39.210
3912 1 46.055 25.972 31.389
3913 1 39.594 -39.257 -1.989
3914 1 31.929 -25.644 8.828
3915 1 25.420 -38.109 6.892
3916 1 89.040 -3.923 13.954
3917 1 93.749 -1.173 -4.339
3918 1 94.437 -10.690 7.096
3919 1 -11.680 -49.338 32.768
3920 1 -9.029 -48.194 42.647
3921 1 -11.702 -46.943 38.687
3922 1 -25.564 6.623 18.009
3923 1 -31.507 -5.308 33.699
3924 1 -23.411 11.867 18.722
3925 1 18.803 53.016 -12.068
3926 1 28.018 61.490 -0.917
3927 1 28.580 46.946 -11.147
3928 1 -6.783 -25.585 41.820
3929 1 -5.459 -11.340 23.774
3930 1 -6.562 -11.681 41.122
3931 1 38.223 29.151 56.569
3932 1 30.186 29.235 68.051
3933 1 36.307 36.638 73.398
3934 1 46.439 21.781 48.365
3935 1 50.532 10.427 60.737
3936 1 40.610 -5.150 53.616
3937 1 -22.848 -7.044 15.780
3938 1 -31.365 -11.429 11.475
3939 1 -32.221 1.347 15.240
3940 1 53.472 23.604 87.525
3941 1 53.438 13.425 86.181
3942 1 55.897 12.331 98.313
3943 1 64.948 -14.020 13.070
3944 1 71.281 -16.166 8.066
3945 1 70.822 -18.029 12.900
3946 1 72.477 -3.111 37.809
3947 1 70.599 -6.393 52.262
3948 1 63.608 -0.177 43.478
3949 1 50.658 36.542 64.668
3950 1 65.512 25.636 61.397
3951 1 63.981 25.944 52.312
3952 1 45.255 -67.777 -8.279
3953 1 52.603 -87.706 1.524
3954 1 42.247 -72.176 5.396
3955 1 72.699 25.737 76.726
3956 1 70.375 23.083 52.166
3957 1 70.148 11.458 57.450
3958 1 57.212 34.809 -32.783
3959 1 55.291 37.485 -39.596
3960 1 62.694 30.796 -37.958
3961 1 -51.196 14.197 54.516
3962 1 -55.266 17.152 71.706
3963 1 -53.728 18.398 69.231
3964 1 -19.379 43.338 37.610
3965 1 -24.349 45.301 39.795
3966 1 -22.050 48.289 36.610
3967 1 -1.922 -10.108 71.097
3968 1 11.542 -24.498 59.092
3969 1 8.258 -31.195 58.500
3970 1 24.161 43.879 54.689
3971 1 32.697 28.103 46.911
3972 1 32.705 30.692 38.491
3973 1 47.993 -30.126 7.705
3974 1 53.427 -15.294 15.676
3975 1 53.948 -21.766 18.379
3976 1 12.432 -1.569 90.493
3977 1 20.901 0.788 84.883
3978 1 9.718 -3.848 97.441
3979 1 73.705 -11.477 37.427
3980 1 64.874 -10.377 35.981
3981 1 72.935 -3.991 44.876
3982 1 24.022 8.819 27.691
3983 1 9.908 1.332 30.864
3984 1 21.094 7.089 32.429
3985 1 42.315 43.023 10.811
3986 1 47.674 49.182 0.281
3987 1 49.814 43.168 6.074
3988 1 26.211 49.178 26.369
3989 1 29.284 60.317 32.894
3990 1 32.896 51.610 39.970
3991 1 24.048 -10.088 20.613
3992 1 28.816 -21.627 11.865
3993 1 36.926 -6.675 25.348
3994 1 25.022 -1.786 55.694
3995 1 35.165 8.146 52.560
3996 1 41.693 -1.727 46.185
3997 1 22.289 84.737 18.858
3998 1 15.541 76.648 10.756
3999 1 25.887 81.366 11.826
4000 1 21.766 34.857 55.175
4001 1 8.935 47.931 48.576
4002 1 10.966 46.045 62.980
4003 1 18.341 19.877 44.560
4004 1 13.530 8.333 54.713
4005 1 28.727 18.062 37.126
4006 1 78.954 -8.557 90.590
4007 1 76.381 -12.158 85.174
4008 1 77.441 -8.481 94.531
4009 1 43.476 35.036 11.118
4010 1 45.639 31.460 25.122
4011 1 40.788 40.497 9.358
4012 1 -11.552 -2.337 60.886
4013 1 -2.021 -1.038 69.726
4014 1 -1.701 -6.922 79.285
4015 1 6.979 45.272 66.744
4016 1 10.364 46.448 61.617
4017 1 11.463 50.330 69.360
4018 1 27.688 49.643 39.545
4019 1 20.093 56.033 41.356
4020 1 33.040 47.052 31.334
4021 1 42.915 -14.589 65.911
4022 1 53.512 -1.054 62.849
4023 1 35.290 -7.735 55.016
4024 1 18.802 12.997 49.737
4025 1 26.855 23.896 45.121
4026 1 27.680 22.713 46.242
4027 1 63.817 -23.285 35.671
4028 1 61.694 -21.689 35.505
4029 1 67.729 -11.831 22.095
4030 1 -13.577 71.416 -15.210
4031 1 -15.071 79.787 -12.447
4032 1 -15.529 76.410 -26.637
4033 1 4.739 28.751 30.716
4034 1 -2.832 33.015 25.203
4035 1 -5.389 38.627 21.845
4036 1 15.974 4.584 28.737
4037 1 7.207 9.526 15.604
4038 1 18.203 17.022 14.544
4039 1 65.198 -17.908 25.746
4040 1 66.623 -20.219 28.757
4041 1 66.052 -29.941 25.902
4042 1 40.230 47.197 59.030
4043 1 43.457 40.010 63.526
4044 1 39.052 51.485 63.954
4045 1 -49.801 19.945 41.688
4046 1 -51.776 20.223 54.679
4047 1 -55.232 25.905 63.171
4048 1 18.492 66.624 77.591
4049 1 10.463 56.155 73.945
4050 1 10.839 56.029 61.728
4051 1 -11.474 26.407 18.900
4052 1 -14.497 21.983 7.234
4053 1 -16.446 29.571 4.173
4054 1 10.699 47.262 69.935
4055 1 -4.229 36.121 66.418
4056 1 -8.076 39.067 75.725
4057 1 11.810 -11.752 59.466
4058 1 25.185 -12.998 44.850
4059 1 23.367 -3.862 52.339
4060 1 68.636 0.896 13.913
4061 1 62.651 -6.138 23.142
4062 1 62.309 -11.051 32.307
4063 1 2.419 39.062 35.812
4064 1 3.970 46.821 43.283
4065 1 -7.105 40.529 45.094
4066 1 79.961 17.483 20.786
4067 1 73.025 4.117 39.928
4068 1 74.962 13.598 39.941
4069 1 33.874 61.143 35.186
4070 1 28.801 63.584 33.171
4071 1 22.908 55.461 41.415
4072 1 -0.111 6.317 -11.955
4073 1 -1.785 1.439 10.293
4074 1 -5.300 24.030 -11.186
4075 1 69.138 32.758 18.643
4076 1 60.582 34.967 0.244
4077 1 57.641 24.484 8.355
4078 1 -4.201 29.944 35.375
4079 1 9.747 27.731 27.477
4080 1 5.151 28.886 43.717
4081 1 32.308 18.771 59.442
4082 1 32.118 26.117 73.500
4083 1 37.840 18.381 59.471
4084 1 15.933 58.881 60.605
4085 1 21.613 57.842 76.245
4086 1 13.468 42.055 51.505
4087 1 -23.805 48.669 3.951
4088 1 -31.092 34.628 9.030
4089 1 -31.161 35.280 10.526
4090 1 -32.175 40.702 61.974
4091 1 -31.619 52.865 64.680
4092 1 -40.006 48.113 71.454
4093 1 27.263 51.598 -4.582
4094 1 28.066 50.831 2.120
4095 1 33.207 49.676 -4.644
4096 1 22.868 34.638 13.226
4097 1 32.061 33.540 16.513
4098 1 17.343 26.303 19.641
4099 1 -0.283 68.876 36.011
4100 1 -4.401 71.107 32.718
4101 1 4.475 71.270 31.242
4102 1 42.891 41.346 -11.864
4103 1 43.856 51.325 -23.299
4104 1 40.355 43.873 -3.544
4105 1 12.351 -12.351 21.369
4106 1 17.508 -13.729 22.961
4107 1 13.235 -28.749 17.185
4108 1 38.935 46.043 89.174
4109 1 35.309 63.288 80.983
4110 1 31.401 57.105 84.516
4111 1 52.824 -13.756 22.898
4112 1 44.390 -11.247 26.818
4113 1 45.745 -12.943 11.920
4114 1 46.259 31.967 50.687
4115 1 43.543 36.871 62.252
4116 1 41.716 47.435 62.680
4117 1 -40.871 27.827 69.479
4118 1 -50.903 25.445 73.538
4119 1 -42.048 17.646 76.431
4120 1 -16.451 78.263 48.712
4121 1 -18.447 84.203 57.060
4122 1 -3.830 90.907 36.212
4123 1 12.836 70.775 19.672
4124 1 23.718 82.664 11.161
4125 1 7.964 77.690 -2.081
4126 1 41.817 31.872 38.628
4127 1 44.992 30.667 38.324
4128 1 42.706 15.526 30.532
4129 1 18.896 14.075 47.246
4130 1 6.916 17.248 40.027
4131 1 7.389 22.625 49.751
4132 1 -14.585 59.055 28.599
4133 1 -10.882 66.137 32.859
4134 1 -5.752 69.101 27.161
4135 1 24.172 40.617 107.726
4136 1 30.632 38.101 80.223
4137 1 23.425 41.660 86.027
4138 1 -14.704 48.707 17.656
4139 1 -24.859 42.863 22.888
4140 1 -18.329 47.355 6.475
4141 1 57.553 33.354 15.224
4142 1 55.315 30.608 28.743
4143 1 57.469 26.375 24.194
4144 1 -6.776 65.725 57.168
4145 1 -18.602 65.029 39.820
4146 1 -24.801 56.068 43.469
4147 1 44.654 52.417 48.750
4148 1 40.985 48.685 52.020
4149 1 37.104 50.251 55.658
4150 1 18.491 51.741 6.103
4151 1 18.350 47.526 23.923
4152 1 19.274 56.100 21.432
4153 1 1.927 66.030 44.457
4154 1 1.554 59.900 50.025
4155 1 -2.041 59.602 54.619
4156 1 -44.397 63.508 45.184
4157 1 -42.694 60.336 50.581
4158 1 -40.548 57.248 46.070
4159 1 -6.308 0.300 30.282
4160 1 2.233 -1.342 13.485
4161 1 -8.482 3.603 26.980
4162 1 -12.192 36.362 30.999
4163 1 -10.819 49.500 15.563
4164 1 -7.560 41.664 40.641
4165 1 26.992 49.629 15.662
4166 1 21.814 32.990 16.016
4167 1 23.580 51.572 32.127
4168 1 11.781 83.620 18.529
4169 1 5.603 90.052 5.109
4170 1 10.653 84.453 -12.375
4171 1 20.094 32.962 82.681
4172 1 27.477 32.287 56.736
4173 1 27.317 34.409 64.078
4174 1 4.092 29.755 48.519
4175 1 9.614 20.500 24.656
4176 1 11.896 31.954 40.962
4177 1 8.520 47.911 8.805
4178 1 27.828 45.661 13.319
4179 1 15.536 43.133 12.288
4180 1 53.442 34.610 65.190
4181 1 55.568 41.894 59.736
4182 1 45.621 37.009 55.400
4183 1 11.437 38.792 78.032
4184 1 4.262 36.285 72.705
4185 1 4.596 27.949 78.954
4186 1 23.935 -2.327 -8.633
4187 1 32.644 -2.955 -6.416
4188 1 29.859 1.923 -15.013
4189 1 5.548 40.943 75.676
4190 1 10.341 33.298 77.150
4191 1 8.539 32.406 64.146
4192 1 76.859 20.337 39.969
4193 1 76.425 28.978 20.157
4194 1 79.666 28.187 36.130
4195 1 -4.618 57.816 24.549
4196 1 -3.515 76.805 19.266
4197 1 3.179 73.949 19.399
4198 1 -33.504 2.967 30.688
4199 1 -31.109 -0.205 37.133
4200 1 -36.773 10.965 29.537
4201 1 4.532 31.947 -8.818
4202 1 -5.493 39.066 -1.736
4203 1 -6.338 22.357 -0.276
4204 1 -17.468 -25.138 92.289
4205 1 -10.680 -29.164 88.404
4206 1 -13.262 -10.032 78.079
4207 1 52.160 70.006 47.880
4208 1 46.167 68.109 47.965
4209 1 56.573 65.869 49.894
4210 1 20.728 68.653 72.311
4211 1 14.700 77.720 78.009
4212 1 16.915 83.035 66.519
4213 1 54.384 44.663 43.153
4214 1 63.200 38.095 40.326
4215 1 58.768 44.800 41.597
4216 1 39.299 1.630 22.249
4217 1 35.613 6.560 31.264
4218 1 30.577 2.408 24.538
4219 1 31.736 39.596 15.305
4220 1 38.373 46.857 3.739
4221 1 32.944 45.107 10.588
4222 1 27.706 73.328 43.359
4223 1 14.487 77.458 25.380
4224 1 20.581 69.385 46.645
4225 1 -18.560 77.173 23.626
4226 1 -21.381 74.886 24.757
4227 1 -13.884 84.852 21.004
4228 1 93.788 22.800 24.093
4229 1 102.630 26.515 28.749
4230 1 105.321 18.675 20.113
4231 1 54.697 10.144 -10.378
4232 1 56.107 0.014 5.193
4233 1 53.727 16.711 6.402
4234 1 -54.426 -33.510 58.766
4235 1 -49.361 -22.318 54.833
4236 1 -55.102 -30.600 53.993
4237 1 21.854 -56.338 89.419
4238 1 31.730 -52.492 90.781
4239 1 27.230 -44.335 92.080
4240 1 6.627 -6.444 60.339
4241 1 10.652 -14.020 58.671
4242 1 5.407 -18.581 60.027
4243 1 29.920 26.231 17.976
4244 1 24.415 36.210 0.423
4245 1 18.867 34.399 13.425
4246 1 -33.516 -29.577 8.823
4247 1 -33.993 -11.621 24.347
4248 1 -30.132 -18.724 9.469
4249 1 21.666 -2.553 98.192
4250 1 10.229 -11.403 113.159
4251 1 10.735 -5.584 107.062
4252 1 66.555 -31.748 0.202
4253 1 65.708 -35.547 -4.677
4254 1 66.637 -31.589 3.982
4255 1 -0.390 -15.189 -7.464
4256 1 7.788 -14.139 -16.994
4257 1 3.473 -2.097 -7.883
4258 1 70.714 -46.077 59.015
4259 1 81.275 -56.938 73.245
4260 1 64.242 -46.890 59.072
4261 1 1.202 6.686 69.397
4262 1 5.952 3.062 64.314
4263 1 6.603 0.351 66.050
4264 1 2.466 -15.424 35.497
4265 1 -1.117 -10.703 51.227
4266 1 2.879 -7.078 41.099
4267 1 21.681 16.772 42.156
4268 1 22.000 28.746 50.468
4269 1 14.740 12.667 45.560
4270 1 30.752 -18.443 65.735
4271 1 27.200 -20.341 59.433
4272 1 20.076 -12.273 60.305
4273 1 24.122 1.071 52.775
4274 1 14.814 14.302 50.817
4275 1 10.075 2.498 48.501
4276 1 8.218 51.064 34.452
4277 1 9.131 45.560 24.939
4278 1 8.369 54.896 50.332
4279 1 -34.434 -38.590 40.477
4280 1 -39.665 -41.905 20.013
4281 1 -33.031 -37.800 29.424
4282 1 -15.431 31.764 38.943
4283 1 -9.724 26.115 47.896
4284 1 -15.915 20.366 55.344
4285 1 7.095 41.767 42.905
4286 1 -0.933 41.595 29.682
4287 1 6.586 45.855 35.537
4288 1 -10.488 26.151 68.773
4289 1 -22.056 16.696 53.790
4290 1 -17.204 7.945 67.580
4291 1 54.024 3.824 53.464
4292 1 50.650 13.773 53.340
4293 1 48.073 -2.414 35.012
4294 1 19.841 -9.738 80.334
4295 1 20.189 -4.125 85.229
4296 1 17.425 -1.254 90.733
4297 1 29.114 -30.651 82.958
4298 1 36.822 -37.414 92.857
4299 1 27.944 -19.239 82.028
4300 1 22.820 7.444 37.091
4301 1 30.483 -8.697 48.075
4302 1 18.286 0.861 39.963
4303 1 82.521 -7.220 53.899
4304 1 78.147 -5.673 52.675
4305 1 91.546 -6.831 56.117
4306 1 71.336 64.538 32.147
4307 1 68.879 67.132 35.044
4308 1 63.807 59.935 32.197
4309 1 79.942 -25.132 23.779
4310 1 86.465 -26.077 4.129
4311 1 77.630 -31.792 20.380
4312 1 8.433 54.814 42.411
4313 1 7.866 45.071 39.388
4314 1 5.318 56.393 35.257
4315 1 19.362 6.228 63.306
4316 1 20.348 0.983 52.950
4317 1 19.882 15.974 52.360
4318 1 -40.395 -22.329 78.567
4319 1 -34.862 -19.197 63.563
4320 1 -37.568 -33.441 71.572
4321 1 -26.873 -19.887 8.668
4322 1 -25.636 -12.274 11.280
4323 1 -26.185 -15.536 19.344
4324 1 27.237 28.444 50.496
4325 1 27.202 19.730 52.236
4326 1 27.725 28.916 56.780
4327 1 11.607 -12.708 58.402
4328 1 4.601 -14.095 45.577
4329 1 16.409 -14.603 44.350
4330 1 26.596 -50.950 54.928
4331 1 27.502 -49.727 48.956
4332 1 34.105 -41.936 50.226
4333 1 52.318 3.122 54.132
4334 1 43.925 11.732 49.632
4335 1 48.669 4.143 39.346
4336 1 40.618 50.246 25.949
4337 1 41.861 38.944 16.311
4338 1 38.335 37.855 25.634
4339 1 29.107 -32.395 62.966
4340 1 21.908 -33.803 55.094
4341 1 27.918 -34.292 47.984
4342 1 80.236 37.817 23.093
4343 1 75.376 40.589 21.581
4344 1 73.125 38.028 25.821
4345 1 12.994 -4.521 86.273
4346 1 19.106 4.302 96.315
4347 1 15.424 -0.673 85.929
4348 1 8.157 5.543 -8.231
4349 1 14.686 8.131 -1.245
4350 1 14.084 11.916 -21.191
4351 1 -35.476 8.071 33.651
4352 1 -30.423 6.093 44.711
4353 1 -38.412 2.715 31.107
4354 1 5.061 -55.003 74.406
4355 1 -9.982 -50.377 73.473
4356 1 12.241 -51.020 66.976
4357 1 -29.785 70.523 48.419
4358 1 -49.623 83.805 61.125
4359 1 -46.407 79.082 53.657
4360 1 40.960 -51.215 71.629
4361 1 31.361 -53.080 73.229
4362 1 41.602 -50.978 67.383
4363 1 -36.090 2.695 59.187
4364 1 -35.772 -3.229 59.174
4365 1 -23.279 0.594 68.496
4366 1 -21.043 16.614 3.314
4367 1 -13.918 18.399 -2.752
4368 1 -28.229 14.643 -13.085
4369 1 5.303 41.683 2.863
4370 1 -1.590 47.272 5.086
4371 1 -4.546 46.544 3.069
4372 1 63.181 -17.671 44.707
4373 1 65.793 -20.246 32.879
4374 1 59.071 -18.121 49.829
4375 1 10.202 -8.778 77.179
4376 1 13.266 -17.055 69.770
4377 1 18.475 -12.703 67.076
4378 1 30.718 -14.653 70.367
4379 1 28.563 -10.961 55.817
4380 1 21.984 -8.892 62.917
4381 1 30.726 8.380 116.992
4382 1 26.759 16.466 112.515
4383 1 31.896 13.910 94.942
4384 1 27.568 11.758 57.626
4385 1 30.941 11.099 58.740
4386 1 26.758 10.271 36.916
4387 1 -37.786 -1.171 30.676
4388 1 -34.899 12.746 55.541
4389 1 -29.954 13.030 37.831
4390 1 20.342 64.080 -11.732
4391 1 26.899 63.987 -0.177
4392 1 25.100 69.832 -12.206
4393 1 -3.216 11.248 54.264
4394 1 -2.817 22.410 38.823
4395 1 -4.635 11.230 45.272
4396 1 42.267 40.335 30.163
4397 1 50.665 32.617 14.737
4398 1 39.379 50.463 22.235
4399 1 70.828 13.124 42.087
4400 1 66.557 13.444 36.654
4401 1 62.036 15.893 29.295
4402 1 60.748 -14.782 40.623
4403 1 65.788 -38.014 41.477
4404 1 57.176 -30.832 41.857
4405 1 95.778 -55.084 61.539
4406 1 93.700 -27.283 54.247
4407 1 94.604 -41.526 43.983
4408 1 -41.815 50.678 75.873
4409 1 -45.332 51.401 79.003
4410 1 -48.379 49.828 78.014
4411 1 -71.766 -1.514 53.079
4412 1 -78.287 19.682 65.412
4413 1 -80.758 0.743 52.104
4414 1 -23.405 116.389 82.269
4415 1 -14.534 111.024 76.255
4416 1 -21.183 101.403 81.091
4417 1 4.140 32.412 43.795
4418 1 -1.749 43.842 52.222
4419 1 -2.949 27.838 47.428
4420 1 65.572 35.699 35.776
4421 1 61.046 28.662 49.146
4422 1 70.918 25.374 32.167
4423 1 86.765 9.215 64.774
4424 1 81.325 8.366 52.663
4425 1 86.265 13.790 56.437
4426 1 -27.649 29.818 88.598
4427 1 -27.211 29.776 64.702
4428 1 -24.105 34.064 83.498
4429 1 -45.805 12.686 6.436
4430 1 -46.250 23.010 14.018
4431 1 -36.154 22.603 14.503
4432 1 18.590 31.257 30.809
4433 1 21.244 25.980 25.497
4434 1 22.151 35.997 33.054
4435 1 31.728 -20.649 44.835
4436 1 30.750 -25.774 46.014
4437 1 28.652 -19.127 57.993
4438 1 60.858 -24.900 64.380
4439 1 62.181 -27.750 79.678
4440 1 62.549 -16.588 67.905
4441 1 80.262 -40.465 42.868
4442 1 76.656 -26.770 58.833
4443 1 79.569 -38.647 47.768
4444 1 29.565 52.923 67.054
4445 1 29.740 60.295 61.470
4446 1 31.219 57.734 64.305
4447 1 52.348 9.777 -14.770
4448 1 54.336 12.296 -19.189
4449 1 42.724 10.100 -10.680
4450 1 -22.493 34.420 23.707
4451 1 -25.707 37.901 27.651
4452 1 -25.097 26.174 29.068
4453 1 41.753 24.079 42.442
4454 1 45.037 36.528 53.514
4455 1 45.749 25.517 45.174
4456 1 52.302 -16.690 28.465
4457 1 43.182 -12.630 27.565
4458 1 42.070 -7.990 32.536
4459 1 10.611 36.705 64.893
4460 1 17.452 28.545 48.792
4461 1 7.667 39.877 52.817
4462 1 17.722 -2.477 7.006
4463 1 22.660 -7.567 3.051
4464 1 13.079 -7.062 4.201
4465 1 45.748 56.667 23.450
4466 1 43.409 46.462 42.177
4467 1 46.033 57.060 40.087
4468 1 29.543 120.623 12.788
4469 1 36.036 112.456 0.244
4470 1 29.570 110.617 6.633
4471 1 -29.149 -44.985 66.517
4472 1 -39.152 -50.144 65.955
4473 1 -26.280 -34.309 66.414
4474 1 51.115 22.218 15.339
4475 1 48.103 31.041 17.041
4476 1 57.473 22.420 18.648
4477 1 -29.067 26.912 57.548
4478 1 -24.786 26.994 53.193
4479 1 -26.123 24.345 48.047
4480 1 45.707 -21.045 60.993
4481 1 48.152 -2.385 67.734
4482 1 46.189 2.199 71.776
4483 1 44.111 34.818 38.592
4484 1 66.563 39.727 29.390
4485 1 54.443 35.413 38.870
4486 1 27.556 3.850 5.255
4487 1 26.194 7.060 15.686
4488 1 28.974 12.028 6.330
4489 1 -37.950 73.600 21.023
4490 1 -39.029 78.794 29.767
4491 1 -47.863 76.478 16.889
4492 1 23.292 -57.218 53.108
4493 1 28.261 -52.358 47.357
4494 1 20.025 -47.589 31.446
4495 1 -7.306 30.070 39.095
4496 1 -5.487 18.366 37.588
4497 1 -8.518 17.759 40.406
4498 1 4.425 -1.681 75.365
4499 1 9.379 -0.776 92.633
4500 1 13.202 -1.023 85.029
4501 1 18.063 -1.971 57.783
4502 1 14.462 -7.394 46.765
4503 1 19.989 4.061 52.020
4504 1 13.062 11.355 49.118
4505 1 10.041 11.288 53.053
4506 1 7.543 17.974 42.071
4507 1 13.476 49.526 22.383
4508 1 18.651 52.370 27.096
4509 1 10.044 63.202 58.973
4510 1 45.905 68.758 69.242
4511 1 44.677 71.337 57.351
4512 1 47.993 52.319 65.039
4513 1 38.767 30.373 77.144
4514 1 32.775 28.560 78.992
4515 1 26.043 13.500 93.105
4516 1 -7.978 53.934 62.380
4517 1 0.054 43.918 56.827
4518 1 -10.682 45.226 51.189
4519 1 21.842 15.426 6.396
4520 1 11.096 13.079 26.122
4521 1 11.139 5.363 12.316
4522 1 14.261 41.402 56.826
4523 1 9.675 49.816 52.239
4524 1 19.720 54.148 60.725
4525 1 7.911 55.373 -2.940
4526 1 4.178 50.284 8.311
4527 1 7.804 54.138 -4.369
4528 1 36.696 -31.241 37.596
4529 1 38.821 -36.651 42.026
4530 1 36.984 -34.117 43.886
4531 1 -25.314 -1.888 23.881
4532 1 -22.742 5.048 19.227
4533 1 -24.026 11.279 22.587
4534 1 -12.217 12.946 53.449
4535 1 -13.380 21.633 53.207
4536 1 -17.465 22.387 42.172
4537 1 5.118 22.505 106.660
4538 1 0.632 28.112 124.149
4539 1 8.160 29.569 104.324
4540 1 28.069 24.324 9.217
4541 1 15.405 21.413 -4.080
4542 1 19.473 31.273 -2.780
4543 1 75.019 -0.344 89.278
4544 1 71.223 6.520 87.867
4545 1 77.106 0.738 71.838
4546 1 98.988 19.815 58.897
4547 1 100.199 17.560 58.764
4548 1 95.315 8.508 68.068
4549 1 28.980 71.223 101.826
4550 1 28.997 65.282 84.836
4551 1 36.830 64.682 97.077
4552 1 55.910 57.011 104.016
4553 1 54.536 41.635 100.924
4554 1 54.837 54.194 93.043
4555 1 6.929 56.660 51.499
4556 1 8.547 60.732 56.581
4557 1 1.052 53.607 49.653
4558 1 21.149 16.395 1.345
4559 1 19.977 20.255 12.171
4560 1 24.555 26.121 24.815
4561 1 -31.079 17.940 44.342
4562 1 -38.960 18.743 44.114
4563 1 -31.851 15.975 55.672
4564 1 55.252 72.935 47.826
4565 1 56.810 70.553 40.129
4566 1 55.312 70.568 29.810
4567 1 17.268 30.767 25.377
4568 1 8.426 37.549 35.326
4569 1 10.748 41.354 26.246
4570 1 0.354 36.509 84.165
4571 1 -1.947 41.589 89.202
4572 1 -9.463 46.808 66.767
4573 1 34.373 46.572 29.859
4574 1 29.394 36.776 29.440
4575 1 40.153 26.784 16.308
4576 1 36.054 29.682 22.137
4577 1 41.285 22.807 32.590
4578 1 40.601 25.732 22.377
4579 1 -33.893 44.248 44.503
4580 1 -34.853 53.634 53.120
4581 1 -32.406 44.114 50.010
4582 1 16.510 30.916 12.164
4583 1 1.500 33.569 13.661
4584 1 21.311 31.976 19.666
4585 1 36.940 -15.231 33.215
4586 1 36.176 -18.344 30.328
4587 1 37.612 -4.173 21.776
4588 1 21.630 5.622 58.656
4589 1 23.825 4.845 74.767
4590 1 20.189 13.978 52.105
4591 1 54.863 62.032 38.958
4592 1 60.325 71.111 39.860
4593 1 42.812 59.775 49.845
4594 1 1.033 58.013 12.880
4595 1 -4.092 59.957 20.458
4596 1 9.400 58.150 29.365
4597 1 7.847 57.720 52.001
4598 1 4.320 61.566 50.679
4599 1 2.733 57.459 60.221
4600 1 -3.910 57.440 54.106
4601 1 -6.954 57.005 67.779
4602 1 -6.597 57.592 60.595
4603 1 -23.792 24.229 65.463
4604 1 -27.330 35.428 84.007
4605 1 -26.621 21.437 73.538
4606 1 -24.671 31.607 58.901
4607 1 -18.170 31.374 54.118
4608 1 -20.263 23.792 61.093
4609 1 -11.203 82.677 59.354
4610 1 -13.973 95.409 46.448
4611 1 -10.292 89.066 39.177
4612 1 22.431 31.494 35.686
4613 1 27.054 34.492 43.853
4614 1 21.561 41.610 52.506
4615 1 50.014 71.064 31.691
4616 1 49.902 78.982 42.074
4617 1 57.855 79.830 37.065
4618 1 42.188 102.950 38.387
4619 1 43.361 99.439 43.820
4620 1 36.928 101.122 39.101
4621 1 62.255 15.262 56.364
4622 1 58.003 17.250 48.847
4623 1 54.678 26.128 65.548
4624 1 42.494 83.924 30.042
4625 1 45.224 81.119 51.657
4626 1 37.619 75.288 40.993
4627 1 -9.521 69.738 5.596
4628 1 -6.824 64.006 28.014
4629 1 -9.282 67.546 23.712
4630 1 110.970 -13.788 51.744
4631 1 107.416 -20.862 39.810
4632 1 102.163 -6.549 53.898
4633 1 8.457 -26.681 56.259
4634 1 4.336 -29.755 56.913
4635 1 10.480 -22.521 68.943
4636 1 12.909 -33.463 14.597
4637 1 7.685 -31.071 10.602
4638 1 1.267 -45.910 15.487
4639 1 -4.392 54.882 75.099
4640 1 -6.674 57.631 66.424
4641 1 1.020 64.332 85.344
4642 1 12.005 -0.128 33.922
4643 1 3.502 -2.255 43.528
4644 1 8.328 -4.579 41.159
4645 1 12.919 27.928 46.720
4646 1 10.303 26.211 43.404
4647 1 12.361 37.787 47.845
4648 1 26.905 4.511 62.481
4649 1 24.230 4.097 59.623
4650 1 29.768 0.780 66.406
4651 1 -47.279 -21.964 73.341
4652 1 -48.295 -12.741 68.768
4653 1 -46.301 -7.635 70.947
4654 1 -18.065 -26.194 54.578
4655 1 -22.985 -25.783 47.658
4656 1 -16.138 -16.738 42.913
4657 1 13.982 7.722 52.567
4658 1 14.161 -3.176 35.562
4659 1 16.158 13.883 39.752
4660 1 11.447 -14.638 51.272
4661 1 14.545 -22.955 54.985
4662 1 5.934 -8.085 46.699
4663 1 25.702 -42.303 28.702
4664 1 26.211 -36.077 29.968
4665 1 25.054 -33.091 49.994
4666 1 49.001 -0.476 37.016
4667 1 57.926 6.110 50.536
4668 1 53.756 -1.556 46.684
4669 1 50.247 3.307 71.175
4670 1 60.047 17.473 86.108
4671 1 57.853 8.191 56.191
4672 1 -32.999 28.778 26.378
4673 1 -35.362 23.591 15.948
4674 1 -39.924 20.549 24.634
4675 1 -21.817 -0.019 64.967
4676 1 -25.111 10.561 69.141
4677 1 -20.127 5.645 64.799
4678 1 45.933 2.064 57.589
4679 1 43.259 2.343 62.782
4680 1 45.563 6.780 53.117
4681 1 21.009 -22.082 34.428
4682 1 27.791 -8.402 33.775
4683 1 28.320 -2.991 16.051
4684 1 -36.089 16.102 100.263
4685 1 -34.236 18.274 95.687
4686 1 -41.622 23.330 98.046
4687 1 -36.235 -27.387 71.577
4688 1 -24.499 -17.876 50.509
4689 1 -25.823 -27.021 55.788
4690 1 50.529 7.061 42.571
4691 1 44.477 4.001 46.593
4692 1 46.862 1.221 47.402
4693 1 -2.222 -35.343 -25.046
4694 1 -3.879 -17.116 -9.873
4695 1 1.395 -17.691 -14.208
4696 1 25.259 -4.721 21.768
4697 1 33.094 0.173 7.619
4698 1 18.073 3.655 23.415
4699 1 47.610 -24.755 -6.431
4700 1 35.574 -38.732 -19.042
4701 1 52.416 -30.630 -2.086
4702 1 45.441 -23.665 11.805
4703 1 41.896 -27.209 7.292
4704 1 50.078 -25.948 13.038
4705 1 67.435 -49.581 36.021
4706 1 73.883 -49.083 32.849
4707 1 76.774 -40.214 33.433
4708 1 71.664 -45.992 26.737
4709 1 70.155 -51.832 30.873
4710 1 74.162 -51.408 33.354
4711 1 -22.816 -15.495 55.952
4712 1 -13.906 -23.251 55.244
4713 1 -17.563 -24.092 47.791
4714 1 11.930 8.017 40.314
4715 1 7.928 -3.583 47.363
4716 1 2.687 -9.232 42.685
4717 1 -38.078 1.939 111.280
4718 1 -41.932 -7.681 122.963
4719 1 -30.030 -3.697 105.439
4720 1 11.523 50.180 66.844
4721 1 17.331 37.355 61.920
4722 1 17.179 38.645 72.944
4723 1 11.459 19.454 72.320
4724 1 11.975 9.972 82.665
4725 1 14.893 9.564 70.372
4726 1 48.611 7.571 44.401
4727 1 45.939 10.512 42.980
4728 1 55.938 -7.812 37.805
4729 1 -7.445 54.515 49.719
4730 1 -11.878 48.074 59.365
4731 1 -5.679 42.523 49.127
4732 1 25.327 10.106 6.673
4733 1 33.865 2.147 11.324
4734 1 30.233 -4.135 14.076
4735 1 38.409 1.351 8.735
4736 1 53.337 16.980 15.674
4737 1 51.157 3.352 9.276
4738 1 -8.136 -7.763 46.827
4739 1 0.494 -13.114 47.374
4740 1 5.260 -11.009 54.220
4741 1 36.822 -6.419 117.419
4742 1 37.381 5.062 112.250
4743 1 42.257 -11.785 110.812
4744 1 55.021 4.492 47.110
4745 1 69.144 0.930 40.390
4746 1 64.756 -0.223 51.928
4747 1 66.262 -13.550 61.344
4748 1 53.395 -23.639 72.176
4749 1 60.466 -16.591 66.578
4750 1 -49.677 -5.369 64.993
4751 1 -57.802 1.506 63.094
4752 1 -37.919 7.744 60.485
4753 1 10.204 52.013 37.364
4754 1 20.884 51.419 25.731
4755 1 11.892 51.840 29.346
4756 1 -8.152 30.398 41.860
4757 1 -6.694 38.549 31.802
4758 1 -18.352 25.781 39.961
4759 1 42.649 30.516 2.157
4760 1 37.503 27.674 -2.465
4761 1 39.194 35.256 5.937
4762 1 34.711 -29.449 31.263
4763 1 37.502 -19.371 16.857
4764 1 35.629 -17.496 24.010
4765 1 12.506 -24.977 81.096
4766 1 14.365 -26.058 90.721
4767 1 18.130 -9.000 90.802
4768 1 48.610 33.555 -1.178
4769 1 47.967 29.078 8.338
4770 1 37.383 28.183 -6.316
4771 1 30.862 16.546 30.072
4772 1 28.115 8.291 34.910
4773 1 26.144 10.958 39.662
4774 1 49.740 -9.748 69.380
4775 1 37.946 -17.536 60.958
4776 1 38.787 -0.742 66.389
4777 1 46.451 -11.726 8.539
4778 1 39.180 -10.531 1.476
4779 1 45.445 -11.949 -5.894
4780 1 23.651 46.108 42.751
4781 1 24.741 37.522 34.296
4782 1 32.463 40.631 29.914
4783 1 34.276 -18.000 25.905
4784 1 33.364 -33.637 14.433
4785 1 37.529 -27.540 19.303
4786 1 10.789 15.212 12.487
4787 1 20.407 15.620 16.566
4788 1 13.439 21.193 15.132
4789 1 -11.915 40.753 19.261
4790 1 -0.735 40.485 14.547
4791 1 -2.877 36.125 4.777
4792 1 -1.044 20.940 51.237
4793 1 -3.755 30.487 48.392
4794 1 -4.943 19.228 58.531
4795 1 0.930 -2.884 39.854
4796 1 -5.341 2.783 55.450
4797 1 -5.740 3.921 50.991
4798 1 38.016 33.646 60.605
4799 1 30.518 25.198 45.520
4800 1 43.059 32.543 51.196
4801 1 29.030 -10.000 16.277
4802 1 25.561 -6.394 20.880
4803 1 25.463 -11.003 10.696
4804 1 33.395 7.846 31.730
4805 1 21.580 12.346 36.744
4806 1 26.727 21.711 31.826
4807 1 39.203 52.626 80.489
4808 1 33.784 41.500 78.029
4809 1 34.784 39.800 60.007
4810 1 107.946 21.721 30.194
4811 1 97.708 20.474 38.578
4812 1 90.230 28.252 43.539
4813 1 56.534 46.370 52.381
4814 1 51.707 47.763 49.422
4815 1 51.555 35.349 43.076
4816 1 -15.724 -14.478 67.341
4817 1 -20.889 -19.075 72.719
4818 1 -6.999 -13.405 70.537
4819 1 3.532 74.176 41.679
4820 1 -7.236 68.741 46.857
4821 1 -0.827 71.543 30.685
4822 1 -28.963 -6.467 70.096
4823 1 -32.628 -13.563 55.459
4824 1 -36.021 -16.216 75.266
4825 1 34.643 44.147 87.653
4826 1 42.291 43.364 82.473
4827 1 36.961 43.063 73.744
4828 1 106.545 33.007 49.412
4829 1 103.674 40.980 69.947
4830 1 99.789 47.565 50.477
4831 1 27.209 5.869 71.135
4832 1 31.074 17.018 76.892
4833 1 34.495 18.159 75.423
4834 1 7.236 -30.617 52.019
4835 1 7.360 -27.948 51.269
4836 1 10.187 -19.171 53.326
4837 1 85.052 -18.401 45.869
4838 1 95.416 -3.318 59.244
4839 1 90.241 -5.842 44.650
4840 1 11.749 51.663 42.383
4841 1 14.838 69.429 37.093
4842 1 3.636 58.728 27.573
4843 1 -25.346 -19.995 66.581
4844 1 -21.623 -25.400 59.833
4845 1 -23.229 -10.070 34.612
4846 1 -19.706 69.075 21.767
4847 1 -18.357 72.704 17.188
4848 1 -25.752 72.564 24.123
4849 1 38.993 29.054 43.441
4850 1 34.283 21.020 61.671
4851 1 31.656 33.352 40.261
4852 1 26.044 23.228 -7.656
4853 1 31.037 22.133 -24.946
4854 1 26.690 19.586 -13.035
4855 1 -8.675 51.183 38.317
4856 1 -11.556 56.726 39.766
4857 1 -3.344 50.829 38.135
4858 1 88.332 6.845 62.892
4859 1 102.645 3.373 68.258
4860 1 82.149 -3.641 75.276
4861 1 40.763 32.648 41.999
4862 1 37.174 34.006 56.990
4863 1 36.823 32.825 50.956
4864 1 -36.147 28.241 48.423
4865 1 -46.257 18.945 56.862
4866 1 -34.017 14.553 59.623
4867 1 -31.535 50.692 94.514
4868 1 -27.091 60.150 103.147
4869 1 -31.790 63.505 90.406
4870 1 -17.946 15.132 0.559
4871 1 -26.934 16.959 4.207
4872 1 -18.642 7.593 3.754
4873 1 14.273 65.380 48.406
4874 1 12.234 62.509 56.760
4875 1 10.084 63.146 54.652
4876 1 57.967 44.153 66.117
4877 1 56.880 46.846 69.543
4878 1 65.237 37.967 67.039
4879 1 5.567 31.562 25.435
4880 1 8.355 35.782 18.198
4881 1 10.425 29.120 21.677
4882 1 63.945 33.981 63.397
4883 1 62.364 37.114 67.899
4884 1 52.411 50.668 61.174
4885 1 25.719 30.429 82.184
4886 1 28.359 35.949 83.111
4887 1 36.763 28.109 75.337
4888 1 -23.353 6.941 48.530
4889 1 -38.931 1.824 56.520
4890 1 -32.238 -1.353 49.077
4891 1 6.099 39.646 66.537
4892 1 11.718 51.857 67.767
4893 1 4.308 51.994 89.277
4894 1 -16.776 39.939 29.800
4895 1 -13.337 50.930 22.990
4896 1 -16.617 39.475 22.364
4897 1 0.508 33.627 19.258
4898 1 4.023 30.594 9.573
4899 1 2.138 38.411 23.477
4900 1 3.871 37.682 44.269
4901 1 8.771 45.979 61.714
4902 1 6.584 44.552 31.294
4903 1 -38.212 61.224 37.772
4904 1 -47.125 55.056 35.999
4905 1 -40.878 42.812 39.597
4906 1 47.003 56.635 78.065
4907 1 37.391 55.797 69.594
4908 1 44.653 61.763 87.819
4909 1 60.731 2.817 40.716
4910 1 48.435 3.904 45.396
4911 1 49.231 -8.251 48.887
4912 1 -12.755 69.993 64.775
4913 1 -14.912 71.586 52.083
4914 1 -13.982 61.156 54.590
4915 1 53.514 8.625 25.653
4916 1 48.324 5.481 37.652
4917 1 60.557 15.340 17.577
4918 1 -25.317 11.479 42.810
4919 1 -26.384 7.471 21.440
4920 1 -21.026 4.990 41.662
4921 1 77.396 -0.305 60.874
4922 1 76.011 5.183 76.175
4923 1 72.163 -1.071 77.247
4924 1 21.016 2.660 33.385
4925 1 30.993 14.165 30.867
4926 1 26.697 7.194 33.208
4927 1 71.095 74.102 46.853
4928 1 73.806 81.468 57.329
4929 1 83.877 57.276 60.797
4930 1 12.673 42.707 68.665
4931 1 15.925 38.149 64.232
4932 1 11.771 33.141 40.751
4933 1 52.280 55.220 24.523
4934 1 52.775 55.660 30.412
4935 1 51.159 48.701 35.140
4936 1 25.587 13.271 27.629
4937 1 32.802 10.659 9.599
4938 1 30.261 14.008 22.786
4939 1 13.435 95.678 59.709
4940 1 17.271 98.856 53.757
4941 1 10.788 79.372 48.438
4942 1 27.943 18.149 20.010
4943 1 28.176 43.656 21.499
4944 1 32.642 35.208 18.186
4945 1 29.481 21.839 73.556
4946 1 27.278 14.135 48.235
4947 1 20.295 24.131 53.830
4948 1 7.141 5.706 -20.711
4949 1 16.340 7.044 -24.057
4950 1 6.639 12.648 -34.155
4951 1 9.534 64.017 46.824
4952 1 10.662 67.410 60.879
4953 1 1.972 63.099 51.316
4954 1 -6.400 89.190 51.434
4955 1 -7.798 89.967 40.606
4956 1 -4.388 94.837 68.256
4957 1 -37.166 25.802 82.052
4958 1 -34.645 31.263 86.864
4959 1 -28.614 35.350 91.947
4960 1 -0.763 44.108 71.572
4961 1 1.728 43.529 60.611
4962 1 -6.043 51.074 84.462
4963 1 33.505 93.693 38.808
4964 1 23.724 97.438 47.350
4965 1 29.961 89.063 48.092
4966 1 4.946 42.211 29.128
4967 1 -1.684 39.851 26.036
4968 1 -2.542 45.904 29.989
4969 1 -6.320 36.180 30.637
4970 1 -14.035 40.445 28.422
4971 1 -17.419 36.575 25.804
4972 1 -1.798 28.201 46.696
4973 1 -15.140 32.615 46.794
4974 1 -7.129 36.262 52.429
4975 1 23.907 3.969 45.313
4976 1 16.964 15.141 19.843
4977 1 28.948 10.912 16.935
4978 1 65.928 24.573 40.651
4979 1 79.649 17.611 66.714
4980 1 75.369 5.237 56.729
4981 1 29.574 37.186 62.257
4982 1 30.750 39.430 58.515
4983 1 24.393 44.197 64.662
4984 1 35.249 5.499 66.267
4985 1 34.561 2.041 61.438
4986 1 25.603 -2.157 71.575
4987 1 17.157 33.734 59.170
4988 1 18.101 31.200 69.712
4989 1 18.332 48.663 65.090
4990 1 -27.818 35.265 43.275
4991 1 -19.439 40.026 38.420
4992 1 -19.233 42.638 44.264
4993 1 1.763 47.015 6.640
4994 1 9.458 47.017 11.022
4995 1 3.399 54.194 12.052
4996 1 36.622 82.077 12.938
4997 1 36.392 83.828 19.807
4998 1 43.434 72.062 8.301
4999 1 -5.612 67.253 63.550
5000 1 -6.626 57.402 69.872
5001 1 -4.703 50.065 76.190
5002 1 -2.055 50.187 63.077
5003 1 -7.970 52.827 56.051
5004 1 -5.479 37.290 48.896
5005 1 -4.522 41.764 73.559
5006 1 -3.459 35.790 64.365
5007 1 4.765 46.017 84.115
5008 1 -16.781 54.886 32.816
5009 1 -20.141 51.695 49.539
5010 1 -11.576 57.292 39.278
5011 1 21.478 47.710 50.032
5012 1 11.444 37.522 74.284
5013 1 12.181 44.286 69.721
5014 1 0.619 37.645 54.527
5015 1 -0.490 32.770 71.828
5016 1 -5.187 29.334 52.001
5017 1 66.161 33.419 23.785
5018 1 69.138 32.016 16.173
5019 1 64.569 36.538 14.854
5020 1 35.720 19.793 20.219
5021 1 38.174 13.755 8.752
5022 1 34.514 29.371 0.422
5023 1 10.976 58.634 65.035
5024 1 11.203 67.218 60.076
5025 1 11.134 63.726 68.872
5026 1 6.578 32.769 75.500
5027 1 1.599 45.960 73.661
5028 1 7.809 50.679 65.544
5029 1 -10.193 42.264 12.870
5030 1 -12.380 43.737 6.575
5031 1 -16.767 40.875 12.859
5032 1 -23.580 10.304 39.033
5033 1 -31.278 9.208 45.046
5034 1 -32.654 11.400 37.317
5035 1 59.367 42.637 10.716
5036 1 53.801 40.020 18.347
5037 1 53.530 31.391 34.397
5038 1 -5.838 55.546 41.987
5039 1 -8.830 52.959 36.709
5040 1 -7.118 58.818 33.195
5041 1 -4.659 70.283 68.353
5042 1 -7.318 69.096 58.838
5043 1 -14.216 65.737 74.081
5044 1 13.252 31.659 83.514
5045 1 10.177 32.691 86.176
5046 1 -6.275 29.436 83.827
5047 1 9.876 -4.272 41.670
5048 1 10.883 0.968 43.938
5049 1 3.724 -0.895 47.518
5050 1 25.115 32.756 -10.551
5051 1 38.859 30.643 3.302
5052 1 35.040 32.684 -1.726
5053 1 -17.871 52.980 49.608
5054 1 -14.006 57.228 32.076
5055 1 -20.349 55.310 44.479
5056 1 52.156 -10.170 44.339
5057 1 47.732 -8.840 44.517
5058 1 45.052 -2.599 47.905
5059 1 76.822 28.865 33.402
5060 1 77.388 50.583 27.580
5061 1 73.632 50.259 37.302
5062 1 60.259 42.256 41.574
5063 1 47.553 51.754 33.620
5064 1 46.132 52.103 37.618
5065 1 79.659 102.722 24.934
5066 1 75.941 101.030 34.086
5067 1 71.891 105.353 43.315
5068 1 -39.504 7.533 51.250
5069 1 -30.150 9.260 39.383
5070 1 -33.573 0.383 36.844
5071 1 -26.451 -55.178 67.420
5072 1 -30.962 -53.500 73.818
5073 1 -36.564 -48.167 69.978
5074 1 -16.363 -45.438 68.120
5075 1 -6.001 -21.590 69.298
5076 1 -21.196 -37.181 65.190
5077 1 0.070 -58.887 63.448
5078 1 -1.463 -52.146 61.112
5079 1 -3.993 -61.978 54.314
5080 1 8.388 15.237 44.533
5081 1 11.410 26.780 38.045
5082 1 9.425 5.241 36.831
5083 1 10.324 4.741 105.646
5084 1 19.875 3.676 112.858
5085 1 13.460 -3.308 101.631
5086 1 30.338 -43.612 40.624
5087 1 33.167 -42.274 23.960
5088 1 28.193 -45.328 46.103
5089 1 24.335 -21.456 47.562
5090 1 32.756 -22.698 37.795
5091 1 30.758 -18.396 47.445
5092 1 40.479 -1.803 66.507
5093 1 42.675 -14.489 57.223
5094 1 34.923 -1.285 63.668
5095 1 51.974 17.590 21.200
5096 1 44.208 12.183 34.072
5097 1 60.592 10.722 27.946
5098 1 27.867 -16.670 61.643
5099 1 16.023 -11.562 59.143
5100 1 22.898 -38.775 63.729
5101 1 62.131 39.016 49.032
5102 1 58.706 25.691 50.055
5103 1 68.011 18.373 52.211
5104 1 35.420 -52.757 46.503
5105 1 38.494 -46.294 42.180
5106 1 48.030 -51.814 54.976
5107 1 -75.339 28.267 112.046
5108 1 -74.997 17.869 96.917
5109 1 -78.937 24.878 117.029
5110 1 -5.205 0.058 47.809
5111 1 -0.391 -3.743 48.397
5112 1 -8.697 -13.498 47.013
5113 1 32.391 2.502 50.147
5114 1 33.875 -3.950 27.380
5115 1 32.828 11.034 29.631
5116 1 54.123 17.256 42.582
5117 1 55.177 10.413 29.916
5118 1 50.526 9.675 38.613
5119 1 47.752 3.475 7.317
5120 1 38.779 -1.288 18.526
5121 1 40.120 4.173 4.717
5122 1 -26.796 -9.302 1.270
5123 1 -21.095 -15.319 11.509
5124 1 -18.576 1.187 24.573
5125 1 14.123 34.840 -8.434
5126 1 22.451 36.489 -4.025
5127 1 17.792 31.236 0.169
5128 1 -27.076 42.625 64.653
5129 1 -23.411 39.142 50.102
5130 1 -24.728 31.824 40.204
5131 1 86.007 29.519 26.529
5132 1 89.182 47.943 26.754
5133 1 96.545 30.528 17.320
5134 1 17.480 -12.398 36.940
5135 1 21.260 -25.906 31.807
5136 1 20.245 -30.106 33.824
5137 1 51.523 -74.021 57.826
5138 1 50.539 -74.994 60.206
5139 1 55.379 -65.163 45.075
5140 1 19.811 -33.118 74.786
5141 1 17.041 -41.128 71.508
5142 1 13.379 -41.665 64.979
5143 1 29.340 -65.610 44.913
5144 1 27.378 -68.462 51.886
5145 1 32.087 -61.002 48.071
5146 1 2.119 7.928 31.117
5147 1 16.073 -6.587 27.093
5148 1 5.528 -1.125 28.653
5149 1 -6.811 24.987 83.141
5150 1 -1.752 21.731 76.124
5151 1 -2.654 22.233 88.452
5152 1 5.205 -10.019 54.992
5153 1 -9.640 -16.966 62.243
5154 1 -3.465 -14.129 59.708
5155 1 53.028 58.147 37.506
5156 1 45.475 48.186 33.196
5157 1 41.502 45.656 38.784
5158 1 -36.376 -10.097 63.298
5159 1 -47.619 -8.597 38.081
5160 1 -36.300 -4.565 63.980
5161 1 -12.598 26.223 75.845
5162 1 -16.363 26.452 70.809
5163 1 -9.791 31.652 62.790
5164 1 -38.759 -10.304 55.842
5165 1 -37.783 -4.031 63.387
5166 1 -32.974 -13.927 60.493
5167 1 25.388 42.637 47.066
5168 1 22.382 38.119 26.404
5169 1 22.318 43.010 41.448
5170 1 13.138 27.514 27.099
5171 1 12.948 45.595 35.531
5172 1 3.030 34.754 28.570
5173 1 62.639 36.234 73.697
5174 1 55.981 30.284 79.087
5175 1 60.679 28.058 59.995
5176 1 52.572 48.000 61.859
5177 1 54.768 43.367 60.410
5178 1 58.724 53.186 58.943
5179 1 80.434 -33.572 46.731
5180 1 76.803 -33.717 44.715
5181 1 82.117 -28.989 63.029
5182 1 69.659 -43.882 56.224
5183 1 75.984 -45.893 58.701
5184 1 73.405 -35.627 53.236
5185 1 -33.180 50.256 88.693
5186 1 -31.777 54.669 72.301
5187 1 -25.226 50.661 77.902
5188 1 1.349 59.663 87.386
5189 1 -4.676 66.157 81.663
5190 1 -0.505 72.007 97.155
5191 1 9.518 9.413 16.411
5192 1 4.455 16.267 38.803
5193 1 5.361 -1.862 16.010
5194 1 40.725 68.040 79.426
5195 1 33.199 69.075 74.306
5196 1 36.405 69.020 79.031
5197 1 25.731 11.802 61.162
5198 1 29.330 15.967 51.372
5199 1 33.198 14.414 52.241
5200 1 1.693 41.195 39.271
5201 1 18.498 25.913 26.289
5202 1 12.372 39.448 36.944
5203 1 52.982 -15.690 44.079
5204 1 58.760 -16.635 30.752
5205 1 53.772 -22.903 37.562
5206 1 51.870 14.578 31.877
5207 1 48.883 9.527 23.679
5208 1 53.886 13.024 11.588
5209 1 -4.397 41.936 -28.714
5210 1 -10.976 38.819 -17.424
5211 1 6.131 47.376 -12.379
5212 1 5.473 10.066 54.007
5213 1 0.304 8.450 39.800
5214 1 -7.979 17.410 55.212
5215 1 16.873 -0.698 59.587
5216 1 16.443 9.685 69.920
5217 1 13.564 1.321 72.188
5218 1 27.635 -25.489 36.606
5219 1 34.829 -30.556 33.854
5220 1 36.663 -31.432 43.875
5221 1 84.620 -24.315 80.343
5222 1 74.530 -23.842 58.432
5223 1 83.268 -22.682 48.836
5224 1 -25.416 -22.780 44.495
5225 1 -28.142 -13.511 55.520
5226 1 -25.727 -29.423 35.022
5227 1 7.824 20.611 80.667
5228 1 15.134 23.706 77.086
5229 1 17.379 20.524 85.872
5230 1 36.985 43.958 82.059
5231 1 32.075 33.905 64.621
5232 1 39.711 32.242 72.109
5233 1 24.071 -8.748 30.351
5234 1 20.792 -3.129 51.720
5235 1 35.417 -4.217 43.248
5236 1 6.911 31.445 -0.649
5237 1 7.607 13.313 -6.345
5238 1 1.392 28.804 -7.276
5239 1 16.828 44.114 76.156
5240 1 17.804 61.396 75.002
5241 1 14.756 59.112 82.084
5242 1 -11.864 67.536 53.425
5243 1 -8.029 61.655 59.597
5244 1 -0.675 66.191 65.552
5245 1 66.381 -2.392 41.952
5246 1 52.873 -2.372 40.812
5247 1 65.782 -5.110 36.342
5248 1 54.886 9.714 3.588
5249 1 46.139 6.552 17.444
5250 1 54.987 0.557 10.094
5251 1 10.666 -3.320 26.367
5252 1 5.753 -16.014 22.243
5253 1 4.539 -4.146 14.969
5254 1 30.320 -9.909 77.507
5255 1 35.766 -17.179 74.639
5256 1 24.912 -21.851 84.501
5257 1 99.938 82.771 9.342
5258 1 105.146 81.882 7.630
5259 1 101.760 84.966 -0.722
5260 1 21.947 52.395 75.155
5261 1 17.895 51.975 84.720
5262 1 27.137 39.034 65.043
5263 1 49.222 5.764 88.165
5264 1 48.880 12.844 89.673
5265 1 48.974 11.539 83.821
5266 1 1.611 14.231 28.846
5267 1 5.049 2.578 37.612
5268 1 -0.168 2.794 45.652
5269 1 -24.608 7.252 100.693
5270 1 -21.825 0.459 86.574
5271 1 -21.524 13.875 95.684
5272 1 39.482 8.004 62.919
5273 1 34.485 13.227 64.342
5274 1 25.555 -0.575 64.905
5275 1 43.586 43.057 71.352
5276 1 39.191 42.094 53.037
5277 1 44.307 38.088 69.387
5278 1 24.955 40.285 62.946
5279 1 17.995 23.964 57.816
5280 1 18.026 31.317 82.923
5281 1 42.431 -17.604 25.395
5282 1 51.841 -13.194 20.551
5283 1 49.683 -17.931 17.017
5284 1 30.777 20.651 43.884
5285 1 33.215 19.697 40.727
5286 1 41.019 21.053 39.479
5287 1 66.734 45.275 28.571
5288 1 59.431 38.960 41.559
5289 1 70.074 42.439 26.916
5290 1 21.820 -24.880 61.307
5291 1 31.832 -28.252 81.320
5292 1 25.158 -15.253 67.658
5293 1 12.216 9.014 48.984
5294 1 13.346 9.899 42.141
5295 1 14.852 5.337 29.824
5296 1 -10.135 -1.976 48.129
5297 1 -14.202 -4.675 57.078
5298 1 -12.953 -5.530 51.947
5299 1 40.714 3.373 73.119
5300 1 35.658 -6.922 71.817
5301 1 33.622 -9.155 64.376
5302 1 13.429 26.928 11.332
5303 1 6.340 9.699 22.480
5304 1 15.215 16.917 7.239
5305 1 32.641 22.306 12.019
5306 1 28.791 11.260 19.448
5307 1 24.678 16.638 23.388
5308 1 -6.740 31.570 54.295
5309 1 -5.889 37.144 54.591
5310 1 -8.207 30.156 64.513
5311 1 35.642 104.802 5.735
5312 1 37.645 109.599 21.862
5313 1 39.532 97.013 18.768
5314 1 22.236 57.316 72.909
5315 1 17.890 60.499 77.070
5316 1 24.502 54.927 80.666
5317 1 22.834 -9.615 24.609
5318 1 7.679 -9.942 28.407
5319 1 10.471 -10.486 36.643
5320 1 -7.419 40.562 30.771
5321 1 -10.923 47.308 37.296
5322 1 -15.441 45.919 45.828
5323 1 -23.315 8.878 30.038
5324 1 -27.450 -1.043 27.273
5325 1 -22.826 10.678 39.749
5326 1 45.223 10.462 42.524
5327 1 41.039 20.474 43.256
5328 1 47.146 19.996 47.456
5329 1 8.138 18.043 17.862
5330 1 14.183 14.143 23.743
5331 1 3.740 17.013 10.083
5332 1 23.809 44.872 113.047
5333 1 34.162 58.896 98.095
5334 1 22.153 49.357 102.816
5335 1 38.535 45.780 40.028
5336 1 39.593 54.431 53.442
5337 1 45.497 44.705 40.854
5338 1 18.320 16.107 69.586
5339 1 11.362 9.558 61.950
5340 1 20.784 5.156 66.579
5341 1 8.027 48.413 47.427
5342 1 15.870 39.627 43.209
5343 1 0.885 34.501 50.486
5344 1 57.828 -16.395 42.823
5345 1 42.112 -21.711 55.813
5346 1 53.359 -19.103 44.278
5347 1 9.020 34.213 78.367
5348 1 5.724 29.684 77.993
5349 1 5.823 38.276 78.345
5350 1 -31.997 4.448 29.881
5351 1 -36.661 9.728 24.501
5352 1 -41.997 7.467 35.031
5353 1 8.660 17.958 38.905
5354 1 -0.438 21.384 35.471
5355 1 4.222 7.179 31.335
5356 1 -21.232 40.394 35.900
5357 1 -16.241 46.830 27.277
5358 1 -13.663 46.399 26.670
5359 1 10.846 45.111 88.608
5360 1 18.445 51.575 91.567
5361 1 11.029 41.708 95.645
5362 1 -4.585 50.025 88.890
5363 1 4.528 42.944 87.795
5364 1 -0.740 48.533 84.514
5365 1 0.916 55.962 88.766
5366 1 7.488 61.931 69.600
5367 1 8.943 60.637 80.019
5368 1 21.556 0.289 60.741
5369 1 21.464 5.544 62.167
5370 1 26.419 5.805 60.008
5371 1 -13.807 29.225 13.932
5372 1 -23.594 25.300 22.150
5373 1 -20.217 30.893 32.722
5374 1 4.371 89.402 55.392
5375 1 4.167 89.710 48.847
5376 1 0.079 91.237 44.346
5377 1 10.127 -24.675 41.106
5378 1 13.393 -25.506 55.216
5379 1 5.378 -27.477 42.097
5380 1 20.057 20.350 65.432
5381 1 28.021 21.817 63.601
5382 1 14.923 24.519 64.442
5383 1 37.814 47.968 7.862
5384 1 35.956 54.687 21.192
5385 1 30.998 54.639 25.828
5386 1 -7.365 104.050 71.566
5387 1 -17.710 95.884 70.849
5388 1 -19.940 100.998 60.513
5389 1 35.296 14.992 59.138
5390 1 38.062 26.962 52.574
5391 1 25.786 26.305 59.197
5392 1 -30.401 45.906 46.064
5393 1 -31.207 55.406 35.264
5394 1 -29.686 48.037 28.303
5395 1 27.503 40.561 120.902
5396 1 32.147 44.421 119.097
5397 1 22.085 46.105 127.938
5398 1 8.340 -14.902 41.917
5399 1 16.060 -21.545 36.396
5400 1 12.958 -17.314 62.246
5401 1 76.163 25.282 72.089
5402 1 83.029 30.275 64.646
5403 1 85.665 36.554 68.651
5404 1 -7.905 -0.199 15.762
5405 1 -8.518 0.362 20.348
5406 1 -4.900 14.025 8.952
5407 1 16.060 50.501 72.279
5408 1 20.072 50.969 80.200
5409 1 19.372 62.549 75.163
5410 1 8.624 41.039 83.727
5411 1 8.940 47.403 87.420
5412 1 13.292 46.188 74.864
5413 1 14.985 51.552 37.000
5414 1 16.973 59.870 30.578
5415 1 26.529 64.844 46.990
5416 1 13.875 -10.538 73.826
5417 1 24.162 -7.801 76.771
5418 1 18.148 -5.152 59.362
5419 1 69.740 67.660 27.241
5420 1 69.794 67.993 32.522
5421 1 70.092 62.326 44.657
5422 1 38.250 40.901 41.183
5423 1 23.930 43.923 49.953
5424 1 29.931 40.296 50.696
5425 1 -9.375 17.957 38.113
5426 1 -15.375 24.216 49.707
5427 1 -7.201 26.213 40.175
5428 1 10.727 23.051 72.678
5429 1 11.216 26.122 63.238
5430 1 4.732 33.363 68.485
5431 1 -26.099 12.675 40.066
5432 1 -27.190 5.746 48.379
5433 1 -24.267 0.382 45.425
5434 1 13.860 -9.880 37.096
5435 1 20.775 -9.221 26.941
5436 1 11.729 -22.991 32.399
5437 1 27.457 76.755 6.796
5438 1 12.683 64.935 0.807
5439 1 13.694 73.917 1.715
5440 1 -7.088 63.167 43.730
5441 1 3.386 73.313 57.796
5442 1 -8.951 71.162 53.137
5443 1 -16.117 22.758 87.199
5444 1 -19.883 29.482 75.903
5445 1 -18.160 27.887 78.322
5446 1 36.805 83.346 29.712
5447 1 44.929 60.839 63.675
5448 1 44.105 67.462 41.525
5449 1 -71.236 47.517 26.459
5450 1 -71.993 53.130 32.853
5451 1 -71.494 44.270 26.368
5452 1 25.771 27.373 25.168
5453 1 31.282 27.125 27.688
5454 1 20.067 27.438 26.657
5455 1 2.840 37.536 14.392
5456 1 4.864 26.142 20.831
5457 1 4.422 37.985 26.621
5458 1 3.722 19.715 100.215
5459 1 2.858 8.494 89.565
5460 1 8.980 24.400 80.934
5461 1 54.624 35.830 81.018
5462 1 58.669 28.047 88.518
5463 1 58.355 15.946 75.173
5464 1 -3.190 47.780 57.348
5465 1 8.053 48.407 41.308
5466 1 -3.136 61.342 37.302
5467 1 -0.722 39.353 62.948
5468 1 -1.818 46.676 51.694
5469 1 3.997 51.057 63.759
5470 1 -17.390 26.629 79.226
5471 1 -22.945 26.105 85.110
5472 1 -24.263 31.494 83.686
5473 1 -20.918 8.913 73.696
5474 1 -23.907 7.632 86.003
5475 1 -25.525 3.550 90.701
5476 1 1.311 57.957 54.911
5477 1 10.226 66.285 57.150
5478 1 5.195 64.172 53.142
5479 1 46.931 58.438 104.289
5480 1 42.786 52.746 90.927
5481 1 45.170 48.356 93.159
5482 1 33.337 25.785 41.650
5483 1 24.631 34.544 16.968
5484 1 24.229 30.822 33.385
5485 1 22.976 58.273 84.786
5486 1 21.713 75.506 84.404
5487 1 20.807 73.464 77.464
5488 1 51.305 66.889 41.132
5489 1 53.147 67.687 41.089
5490 1 58.739 57.475 34.945
5491 1 70.033 48.466 32.934
5492 1 68.657 48.363 31.154
5493 1 75.559 41.098 44.570
5494 1 28.781 70.974 31.580
5495 1 29.201 73.189 25.376
5496 1 31.408 63.104 30.167
5497 1 12.957 68.295 -11.029
5498 1 24.250 55.628 -14.602
5499 1 10.538 64.802 -27.174
5500 1 23.379 33.058 81.358
5501 1 24.034 33.955 80.321
5502 1 30.296 35.695 74.109
5503 1 -22.693 101.557 70.091
5504 1 -31.204 104.014 78.630
5505 1 -21.269 95.933 68.238
5506 1 47.952 47.370 70.698
5507 1 49.084 48.397 61.329
5508 1 46.258 45.027 57.840
5509 1 18.727 -10.271 54.666
5510 1 22.444 -8.487 70.342
5511 1 21.143 -3.127 70.442
5512 1 -16.356 80.635 66.025
5513 1 -18.648 74.872 68.022
5514 1 -15.151 76.321 58.141
5515 1 -10.441 36.753 102.460
5516 1 -15.781 40.460 103.399
5517 1 -4.983 39.474 104.181
5518 1 -11.982 53.623 70.709
5519 1 -15.540 42.208 84.433
5520 1 -12.761 58.029 68.397
5521 1 -33.274 140.052 17.004
5522 1 -23.076 138.854 40.209
5523 1 -29.977 125.906 20.908
5524 1 38.360 39.542 73.658
5525 1 37.794 47.679 61.389
5526 1 35.247 47.222 70.873
5527 1 41.249 103.322 7.142
5528 1 47.233 96.795 14.120
5529 1 45.437 100.859 10.514
5530 1 46.024 31.846 87.833
5531 1 43.296 19.622 89.290
5532 1 38.853 27.841 79.684
5533 1 42.130 35.622 60.061
5534 1 46.132 37.121 61.149
5535 1 53.976 40.651 69.038
5536 1 55.549 18.940 20.770
5537 1 59.396 25.480 33.785
5538 1 70.947 23.106 18.772
5539 1 79.668 28.121 94.721
5540 1 75.978 13.648 101.779
5541 1 81.286 18.730 89.933
