ITEM: TIMESTEP
601000
ITEM: NUMBER OF ATOMS
5541
ITEM: BOX BOUNDS pp pp pp
-19.1 19.1
-19.1 19.1
-19.1 19.1
ITEM: ATOMS id type xu yu zu
1 1 2.847208 18.421727 25.726237
2 1 3.965510 17.708880 25.525308
3 1 4.531861 17.438126 26.224340
4 1 3.645758 17.820101 25.515739
5 1 3.472007 17.656637 25.337811
6 1 3.319496 17.914281 26.707933
7 1 3.503312 19.056816 25.989684
8 1 4.106956 18.001895 25.419649
9 1 4.110517 18.001005 27.313740
10 1 5.268534 19.178709 25.977604
11 1 4.132457 18.495474 26.722705
12 1 3.517658 18.889676 27.872498
13 1 2.618286 18.848503 26.357119
14 1 4.170854 17.459027 27.426093
15 1 3.679099 17.962754 25.567191
16 1 4.067695 16.660967 25.365789
17 1 4.649470 17.570671 28.206023
18 1 4.557790 17.786245 26.292258
19 1 2.919262 16.925384 26.251119
20 1 2.970404 17.613363 26.859795
21 1 4.368961 17.240321 25.953720
22 1 4.698282 17.394581 26.700255
23 1 3.391953 17.477558 27.543586
24 1 4.252354 16.395185 28.535386
25 1 3.359782 18.332876 24.162430
26 1 3.980174 18.014212 26.064796
27 1 3.697164 19.929736 26.126897
28 1 4.169363 16.929078 27.329039
29 1 4.034158 16.106045 24.966050
30 1 4.268164 18.600567 25.216124
31 1 4.921709 18.410438 26.351463
32 1 3.386346 18.064130 25.906199
33 1 4.793366 19.159976 26.256245
34 1 2.819737 18.559940 26.540385
35 1 4.783859 18.058409 25.673397
36 1 4.553673 18.991900 25.244881
37 1 4.110015 18.757877 25.509186
38 1 2.719171 17.950783 24.703386
39 1 2.210889 17.829394 25.370200
40 1 3.522815 17.692511 25.274501
41 1 4.527374 18.018134 28.381058
42 1 4.177076 17.617003 25.864850
43 1 4.308609 17.344165 24.623869
44 1 4.095448 18.121342 24.963200
45 1 4.715337 17.170942 27.395496
46 1 3.862449 15.901479 26.833701
47 1 3.627823 19.141596 25.927406
48 1 3.994409 17.634129 26.809307
49 1 4.422866 17.194907 27.602287
50 1 4.637656 17.249243 29.027715
51 1 4.193664 16.764404 26.350752
52 1 3.785398 16.848325 28.415966
53 1 3.641373 18.249181 27.029711
54 1 3.827963 17.548143 26.674260
55 1 4.520053 17.520405 28.156016
56 1 3.242332 18.948818 25.764551
57 1 3.161565 17.051097 25.605719
58 1 3.563030 17.859002 25.817940
59 1 3.723600 16.942640 26.153360
60 1 3.959660 18.276929 25.433211
61 1 22.828872 18.229086 18.717510
62 1 21.384015 20.455824 18.842351
63 1 21.663081 19.681662 21.085924
64 1 23.074445 18.918709 20.773974
65 1 20.843392 19.359205 17.953977
66 1 22.678452 18.993381 18.894280
67 1 22.306520 18.930423 19.996492
68 1 23.660827 19.848675 19.480259
69 1 23.143749 19.512788 21.469055
70 1 22.544006 19.400137 19.501259
71 1 22.247931 20.049435 19.149823
72 1 21.415278 19.726472 19.788154
73 1 22.557555 20.462385 21.036855
74 1 23.242486 19.650608 19.153515
75 1 21.587894 20.540681 20.991565
76 1 22.049294 18.914516 20.813829
77 1 21.805426 20.270588 20.708646
78 1 22.900564 19.756669 20.751185
79 1 22.938274 18.931606 19.910508
80 1 22.226190 19.501561 19.041427
81 1 21.813074 19.094446 21.932866
82 1 22.172715 17.941093 20.365844
83 1 22.386531 19.075333 21.104700
84 1 22.988728 20.231582 20.702396
85 1 22.906299 20.848774 19.261561
86 1 23.092548 18.086901 19.798747
87 1 22.176911 20.144840 17.575449
88 1 22.916877 20.112742 19.543394
89 1 21.621298 19.614071 19.475256
90 1 23.074342 18.516478 19.844666
91 1 22.707876 19.168763 20.474316
92 1 22.171585 19.157938 20.892006
93 1 21.637148 19.633473 19.763227
94 1 22.682323 18.874598 18.595315
95 1 21.727850 20.026729 19.735464
96 1 22.279546 21.012373 20.645961
97 1 23.080581 19.852030 21.133971
98 1 22.352301 18.683273 21.399525
99 1 22.207196 18.260961 20.381778
100 1 22.866275 17.712923 20.286878
101 1 22.020470 18.850464 20.802173
102 1 22.499742 17.969129 20.403743
103 1 22.038302 18.389420 20.304475
104 1 22.328562 17.963963 22.097488
105 1 22.633203 19.838956 20.939668
106 1 23.419062 18.399656 20.393172
107 1 21.461940 19.290954 20.915611
108 1 22.721011 19.514702 22.594010
109 1 23.110224 20.412284 20.583165
110 1 22.653145 18.445568 19.292734
111 1 22.696978 18.863723 21.021093
112 1 22.138496 16.874236 21.693233
113 1 22.686981 17.174403 18.909302
114 1 23.776797 19.536827 22.747063
115 1 22.882330 20.584405 19.788576
116 1 22.942321 18.982110 20.139766
117 1 21.745326 19.297225 20.381521
118 1 21.698913 18.133504 20.218349
119 1 21.788689 20.370896 21.657250
120 1 22.517422 17.679356 21.695815
121 1 18.765603 20.369478 26.059870
122 1 19.516258 19.978643 26.099219
123 1 19.070083 19.321995 25.606656
124 1 19.579992 20.962789 28.657899
125 1 19.364400 21.169746 25.792619
126 1 18.266171 20.656903 25.408251
127 1 17.973955 21.177335 26.411701
128 1 18.417630 19.466341 27.627436
129 1 18.513034 20.400282 26.610875
130 1 19.697278 21.038326 26.323414
131 1 19.649342 21.216922 26.497361
132 1 19.579723 18.825423 25.885914
133 1 19.756724 20.941071 25.661444
134 1 18.652238 21.224231 22.636982
135 1 20.013181 20.272066 24.386970
136 1 19.506262 19.675602 24.714652
137 1 18.144395 20.091641 26.884266
138 1 18.234535 21.224530 25.658529
139 1 19.112698 20.829568 23.914482
140 1 19.371255 22.184836 25.729944
141 1 17.976824 19.916978 22.351086
142 1 18.632023 21.319836 25.412252
143 1 18.366664 21.567274 21.644862
144 1 18.477939 20.899055 24.714482
145 1 19.376184 20.462844 27.425453
146 1 18.323492 20.639664 26.584131
147 1 17.788988 20.428230 25.202192
148 1 18.352152 21.408869 24.694072
149 1 18.588696 20.815817 26.179998
150 1 18.032169 20.865582 26.623973
151 1 18.951695 20.135355 24.419326
152 1 18.941982 20.839750 25.361633
153 1 18.858385 20.442545 26.168161
154 1 18.466550 18.688977 25.434531
155 1 18.851752 19.433540 25.556683
156 1 19.220714 20.861613 27.363646
157 1 16.788741 20.555996 25.854224
158 1 18.093234 19.732944 27.519485
159 1 17.957498 20.086319 26.021216
160 1 18.204670 20.338835 25.964053
161 1 18.099859 20.024847 26.556963
162 1 18.770441 20.353387 26.356632
163 1 18.718919 19.546400 26.478556
164 1 17.403638 21.797884 23.672188
165 1 18.128538 20.620284 24.169393
166 1 18.717118 20.546989 25.558931
167 1 18.667748 19.978683 24.323915
168 1 19.498066 19.703971 26.476028
169 1 19.563659 22.490117 26.220228
170 1 19.804272 19.987677 26.347653
171 1 19.238407 20.909287 24.764103
172 1 18.047716 20.550672 24.613833
173 1 18.565900 20.913132 24.612318
174 1 19.345496 18.079283 27.430581
175 1 18.236752 21.751733 25.867150
176 1 18.691464 20.163043 24.180967
177 1 19.421800 19.571036 24.951482
178 1 19.055785 19.336563 25.468358
179 1 19.407037 18.552429 25.322855
180 1 19.026245 20.281558 25.592687
181 2 8.113000 20.110616 24.066444
182 3 8.820721 21.533221 24.363427
183 3 7.865405 19.123236 23.439287
184 2 24.614731 8.345729 11.451842
185 3 23.412209 9.673862 10.576385
186 3 24.094657 9.511962 9.963258
187 2 24.632185 3.043789 -3.362729
188 3 25.549837 2.666316 -3.749984
189 3 25.692099 2.859125 -4.176840
190 2 12.962276 13.454633 23.062844
191 3 13.413372 13.837682 22.945204
192 3 12.456365 12.971128 24.505047
193 2 26.091398 26.788805 2.588937
194 3 26.687307 27.594900 1.451639
195 3 26.636330 27.703630 1.787532
196 2 13.175927 16.984192 14.413562
197 3 14.384291 16.368059 14.761245
198 3 15.354940 16.558085 13.791536
199 2 15.248366 25.371296 11.088674
200 3 15.063843 24.796564 11.561388
201 3 15.515460 24.774539 12.273401
202 2 24.332207 4.783360 -4.296506
203 3 24.742821 5.710733 -3.378477
204 3 24.640091 6.026040 -2.129766
205 2 19.682748 14.575813 10.526450
206 3 19.231946 14.255146 9.555819
207 3 19.496492 15.244854 9.870273
208 2 20.702241 10.572646 7.575107
209 3 20.334153 10.731811 8.086625
210 3 20.185781 9.690634 6.337624
211 2 24.531672 7.315019 8.025317
212 3 25.858263 6.727636 7.688450
213 3 25.350260 8.678839 7.349412
214 2 47.374797 1.865320 8.613687
215 3 47.133579 3.104498 9.410083
216 3 47.497405 2.855279 7.501910
217 2 38.109115 9.601640 0.148385
218 3 38.536969 9.039180 0.927782
219 3 36.742082 8.784509 -1.320114
220 2 20.398809 9.180737 -1.852847
221 3 19.884420 8.603592 -0.784257
222 3 20.028796 9.899786 -2.352149
223 2 14.079211 12.430448 19.711574
224 3 14.902739 12.860172 18.930260
225 3 15.087875 11.445802 20.620127
226 2 2.140383 16.570920 10.663616
227 3 3.912626 17.187275 10.783552
228 3 4.153653 17.274320 12.290264
229 2 1.267413 9.717685 2.343656
230 3 0.647226 8.452139 2.874343
231 3 0.013661 7.849860 2.052976
232 2 11.639207 11.388495 7.942274
233 3 10.718862 9.983502 10.870909
234 3 10.708461 10.353635 8.372004
235 2 23.293737 8.980613 -0.361399
236 3 22.335523 9.118480 -0.129581
237 3 22.164716 8.904142 -2.068131
238 2 9.011790 14.659315 3.483101
239 3 6.847239 14.700054 0.962406
240 3 7.052524 13.605794 3.206938
241 2 21.150335 3.075123 7.874406
242 3 21.572858 2.137958 9.397991
243 3 20.762631 3.399265 9.123531
244 2 23.763615 14.903119 -4.456923
245 3 23.866696 15.960959 -4.873669
246 3 24.077139 14.699994 -4.316235
247 2 31.398533 7.494547 4.356752
248 3 31.168792 7.716182 3.943019
249 3 31.454608 7.540110 3.219823
250 2 29.477489 20.165283 22.499157
251 3 30.134099 18.459663 21.828311
252 3 31.108878 19.061083 21.828379
253 2 44.207392 18.355019 5.773665
254 3 44.311403 17.641054 8.156894
255 3 44.703403 18.631493 8.304098
256 2 28.246811 10.949861 8.688391
257 3 28.479049 11.654232 7.779389
258 3 28.937509 11.732730 5.868909
259 2 12.300979 19.107567 28.806434
260 3 11.445743 19.491952 27.984341
261 3 12.115392 19.315522 27.519857
262 2 7.556296 23.751253 11.268054
263 3 7.615413 22.863517 10.940155
264 3 7.114242 24.185389 11.683025
265 2 21.949401 14.096082 -3.749472
266 3 22.617736 13.452291 -2.599074
267 3 21.716732 14.850946 -0.929581
268 2 13.841444 5.633176 -13.534829
269 3 12.917274 5.535230 -12.658778
270 3 14.083565 5.509290 -12.967720
271 2 21.376734 17.909147 9.608951
272 3 21.742426 19.714488 10.937941
273 3 21.031299 18.100797 12.421504
274 2 11.299380 3.753806 18.075527
275 3 12.459204 4.053242 18.832357
276 3 11.466910 4.621601 17.263514
277 2 18.662402 14.240726 1.349499
278 3 19.161217 16.141786 2.107160
279 3 17.513680 15.444685 2.057688
280 2 9.679973 6.062962 -1.660998
281 3 9.554407 5.523455 -0.522654
282 3 9.522632 4.637299 0.268884
283 2 28.552569 6.922755 19.267875
284 3 27.521015 6.481210 20.010941
285 3 26.582234 4.994158 19.662439
286 2 12.914188 20.029483 11.275329
287 3 13.000561 21.475414 9.800324
288 3 12.701578 19.259408 9.117464
289 2 24.750092 15.528559 1.222459
290 3 24.279385 15.147108 1.162097
291 3 25.211296 14.403212 0.200640
292 2 18.104311 23.469402 19.504751
293 3 18.288504 23.361989 20.760756
294 3 18.838430 22.993428 21.915363
295 2 41.790696 17.694412 -0.214701
296 3 41.690462 18.192791 -0.366499
297 3 42.399320 17.518448 2.306712
298 2 14.004524 21.222082 17.506008
299 3 13.437435 20.178386 18.354295
300 3 14.296189 21.402881 19.216021
301 2 18.775021 17.955779 7.561841
302 3 19.574408 17.313267 10.822177
303 3 19.480347 19.431190 6.604638
304 2 9.487745 13.079011 12.144362
305 3 8.817551 13.748411 12.193456
306 3 8.895430 13.435250 14.399680
307 2 17.642526 12.583621 14.087625
308 3 17.543716 12.423370 15.286862
309 3 19.042409 12.328564 14.664005
310 2 21.614407 19.979880 -8.232208
311 3 21.485321 17.580640 -8.480656
312 3 22.095818 18.609952 -11.242533
313 2 0.726320 6.573399 8.165323
314 3 1.306952 6.906167 9.684681
315 3 -0.036965 8.618717 9.531551
316 2 25.954625 13.325806 11.612111
317 3 26.181603 11.343372 11.778334
318 3 26.192955 12.859539 12.518619
319 2 10.663558 26.904425 8.988070
320 3 9.309436 26.542755 6.541246
321 3 10.429198 25.965462 7.726448
322 2 23.287756 14.926788 17.212207
323 3 23.519003 16.243049 18.633279
324 3 24.109603 15.844820 18.394647
325 2 17.880383 11.096124 12.963085
326 3 16.897309 11.504816 13.159693
327 3 17.153198 9.974229 12.617746
328 2 20.365518 14.099973 6.289287
329 3 20.137243 15.604170 6.682677
330 3 19.226436 13.184725 5.482763
331 2 24.482948 8.102059 18.618990
332 3 22.782099 7.483193 16.942289
333 3 23.282522 8.318763 19.305782
334 2 28.093333 6.354887 6.309356
335 3 29.305892 6.517981 6.723562
336 3 29.119563 6.023814 6.076396
337 2 5.620220 12.671801 0.173751
338 3 5.753395 12.525562 -1.375564
339 3 5.796000 12.904649 -1.670325
340 2 21.480188 17.592761 2.068742
341 3 21.830488 16.973323 2.396256
342 3 21.932546 17.241282 1.068001
343 2 13.855482 11.021066 2.010411
344 3 13.612980 10.303774 2.930904
345 3 14.507477 12.675413 3.858042
346 2 25.176736 18.998115 26.831941
347 3 25.342090 19.001853 26.845327
348 3 24.281181 20.566502 27.516896
349 2 17.277964 20.900271 14.765696
350 3 16.092229 19.658656 15.683049
351 3 15.899285 19.939885 12.195962
352 2 7.923145 15.386736 8.675695
353 3 8.288045 15.322894 8.045868
354 3 7.500740 15.665418 9.641604
355 2 18.448411 22.565672 18.896203
356 3 18.965486 21.344628 18.376416
357 3 19.268337 22.217525 19.350118
358 2 13.904421 17.732180 6.195190
359 3 13.930404 15.819995 4.993759
360 3 15.729034 15.041068 4.891827
361 2 26.478316 23.755790 8.730258
362 3 26.576540 25.214155 8.990851
363 3 25.638400 23.746766 9.559766
364 2 41.425299 17.656781 8.582490
365 3 40.358075 19.496432 6.401142
366 3 41.130517 18.278908 7.107293
367 2 37.995412 22.885190 10.589775
368 3 38.107590 22.948314 8.468058
369 3 38.965037 21.222478 8.942089
370 2 24.412708 19.812392 3.660138
371 3 26.653649 18.602659 4.262352
372 3 25.899920 19.328326 2.528568
373 2 35.949501 25.301551 6.640343
374 3 36.267699 24.911192 6.808322
375 3 35.875795 23.830898 6.215863
376 2 21.776760 27.554928 10.664308
377 3 20.894975 26.241552 10.420134
378 3 21.309081 27.377585 10.221705
379 2 30.590476 12.986603 0.105346
380 3 30.322038 13.952903 1.286906
381 3 30.502263 13.080692 -0.014364
382 2 -2.643164 22.497328 5.544809
383 3 -3.097077 24.005090 5.053519
384 3 -1.900863 23.130217 4.747837
385 2 11.600558 17.428360 19.106188
386 3 11.223280 16.363149 19.507920
387 3 11.267488 16.611586 20.296064
388 2 28.751340 13.779518 5.760445
389 3 27.429035 13.339140 7.617934
390 3 28.072710 14.480629 7.401975
391 2 24.643453 19.930844 10.560917
392 3 24.308357 18.186145 11.390689
393 3 24.213038 20.164657 9.872253
394 2 4.653801 11.394670 15.444595
395 3 5.235884 11.373303 14.593013
396 3 6.063604 13.167700 14.836668
397 2 13.181473 25.387174 20.298186
398 3 14.435597 24.001590 20.825267
399 3 14.863216 25.435052 21.636529
400 2 11.790725 19.436291 21.733988
401 3 12.503130 19.714972 21.848591
402 3 12.449492 18.308989 21.434455
403 2 29.781945 13.963133 17.307147
404 3 29.463392 13.824196 15.277636
405 3 30.218055 14.287092 14.915347
406 2 36.413368 18.950940 13.958507
407 3 36.991659 18.351588 11.971950
408 3 37.192335 18.711041 13.909375
409 2 16.246155 19.769125 3.263379
410 3 16.787432 19.977908 3.447277
411 3 17.157968 20.568152 1.974934
412 2 17.179903 24.599304 13.461924
413 3 17.929609 23.220327 12.710481
414 3 16.527901 24.535208 13.291435
415 2 7.894373 13.494169 16.256228
416 3 6.981086 15.106854 15.588184
417 3 7.220615 14.327822 17.304610
418 2 21.730170 33.970068 12.740041
419 3 19.901661 33.967739 10.316583
420 3 20.838659 34.919368 11.236538
421 2 26.355128 32.760032 13.057996
422 3 26.247571 33.527051 13.031864
423 3 27.356565 34.608361 13.953353
424 2 9.466393 17.761775 0.530831
425 3 8.907941 16.695146 1.661029
426 3 8.982895 17.496375 0.750972
427 2 19.624362 23.481633 6.346422
428 3 19.782950 22.351578 5.402771
429 3 20.109435 23.251552 7.830197
430 2 12.376935 15.205836 5.829741
431 3 11.554626 16.430058 6.233015
432 3 10.984613 15.349029 4.411491
433 2 16.962357 17.892685 -3.534298
434 3 17.252307 19.050925 -2.055999
435 3 17.316041 17.966693 0.066595
436 2 24.581138 31.232737 9.647406
437 3 24.491796 29.119960 9.481802
438 3 24.325269 30.919256 10.692067
439 2 7.809520 15.874834 13.434939
440 3 6.647572 16.214797 13.070634
441 3 6.439687 15.245703 13.451710
442 2 35.873113 24.677965 9.082376
443 3 35.091818 25.163452 9.292571
444 3 36.004621 24.832176 8.456690
445 2 38.381508 7.507939 15.317629
446 3 39.161339 6.888727 14.904075
447 3 39.785063 7.635803 14.244012
448 2 30.526952 38.157478 6.712825
449 3 31.051917 38.387848 6.946297
450 3 29.985909 37.594711 7.624764
451 2 34.245993 13.545694 0.942875
452 3 33.973851 13.326840 0.908181
453 3 33.481838 12.593316 0.866491
454 2 6.632529 11.567545 3.036753
455 3 5.274850 12.806006 2.638836
456 3 6.741017 12.787877 2.461507
457 2 29.413258 15.515534 17.949134
458 3 28.830952 15.697518 16.095242
459 3 28.461717 15.904037 16.509257
460 2 21.806155 25.428419 5.146921
461 3 21.550149 24.660549 4.937071
462 3 21.602945 25.030917 3.921136
463 2 5.234203 25.278877 -1.078809
464 3 5.204126 24.073650 -0.000297
465 3 5.516022 25.628312 -0.291472
466 2 27.437551 34.550095 16.915350
467 3 25.574157 35.256291 17.531645
468 3 27.604253 35.148229 17.589623
469 2 20.863481 18.826011 -3.141281
470 3 22.110983 19.380203 -1.223547
471 3 22.199582 18.638703 -1.845893
472 2 10.388084 25.299661 14.763095
473 3 10.496060 26.500182 15.284177
474 3 8.912149 23.866914 15.257543
475 2 24.330222 24.407408 -10.666744
476 3 26.094784 24.189866 -10.199904
477 3 25.221429 25.111102 -9.462463
478 2 41.868490 26.284296 14.209168
479 3 41.135900 25.359054 15.436962
480 3 40.612909 26.149192 14.523203
481 2 34.161060 19.961586 9.311056
482 3 33.497116 21.117447 8.813751
483 3 33.097663 21.080683 9.327086
484 2 37.395219 9.982371 2.230693
485 3 36.827773 10.545310 4.516137
486 3 36.749937 10.756861 5.691319
487 2 21.430915 19.163989 17.749826
488 3 20.954690 18.203575 18.328367
489 3 21.019973 18.221318 16.726911
490 2 43.845366 20.727302 7.823888
491 3 42.613548 18.232069 9.069780
492 3 42.410665 19.567378 8.476248
493 2 21.459512 29.587054 8.942083
494 3 20.903674 29.325118 11.064128
495 3 22.199947 30.553014 9.001923
496 2 9.195165 20.042872 8.659973
497 3 10.316122 18.658543 9.057309
498 3 9.508787 19.763675 9.047280
499 2 17.332755 33.957010 6.996870
500 3 17.704524 32.456390 8.551062
501 3 15.557476 34.504390 7.851659
502 2 10.006927 11.621369 7.881231
503 3 8.814989 12.060931 5.774090
504 3 8.935340 10.983366 5.803165
505 2 4.426521 12.456343 17.980478
506 3 3.417045 10.397238 17.866589
507 3 3.643035 10.395764 15.738947
508 2 19.747624 14.355591 9.848930
509 3 20.522017 15.083226 10.243923
510 3 19.643568 16.627093 9.638075
511 2 3.365786 29.726226 27.261052
512 3 2.526480 29.359461 25.864701
513 3 4.484395 27.713872 28.069750
514 2 19.308794 25.254121 6.714888
515 3 18.283060 24.514789 7.233478
516 3 18.023982 26.165684 7.322588
517 2 32.181111 12.731750 14.561141
518 3 34.047441 14.729214 13.938182
519 3 33.593010 12.868852 12.908255
520 2 24.812827 26.841059 9.518424
521 3 24.924173 28.033422 8.332347
522 3 25.354745 27.381296 8.179109
523 2 34.327816 14.929298 -0.581775
524 3 36.102592 15.208519 -0.561123
525 3 37.338066 14.414434 0.023577
526 2 31.513333 16.152852 5.625484
527 3 31.486929 15.602172 7.000910
528 3 32.178186 17.119745 5.999259
529 2 32.381583 33.105848 11.180955
530 3 31.715243 31.940892 10.997803
531 3 31.511185 32.749176 11.081880
532 2 -1.121269 21.269027 9.648978
533 3 -2.063238 21.752215 7.856323
534 3 -0.213592 21.776655 8.107251
535 2 9.066054 33.841878 -1.738924
536 3 8.827853 35.098620 -0.273834
537 3 9.593076 35.335232 -2.978167
538 2 21.779924 25.609118 22.618265
539 3 23.249983 23.883808 23.324729
540 3 23.140220 25.894441 22.550296
541 2 18.233492 17.303049 17.250637
542 3 17.750582 17.629412 16.383816
543 3 17.976671 17.473945 17.850118
544 2 17.522635 25.528259 10.417242
545 3 16.307039 25.873990 9.584504
546 3 16.937779 26.839502 10.866948
547 2 20.793991 15.207339 8.573181
548 3 20.867109 14.401000 8.375826
549 3 21.566473 15.508538 11.584161
550 2 34.358942 26.372475 3.967993
551 3 34.491808 25.912685 4.277960
552 3 36.035641 25.347494 3.921083
553 2 24.184288 26.885342 5.453668
554 3 24.995518 29.328910 5.128385
555 3 23.923625 27.547465 4.915789
556 2 19.697111 20.321485 10.279464
557 3 20.299728 18.880832 8.698853
558 3 19.796861 18.904317 10.118866
559 2 9.403565 22.431979 0.132117
560 3 10.585817 21.359851 0.218882
561 3 9.332133 21.121530 -0.131897
562 2 20.337674 15.838048 11.712528
563 3 20.827399 15.629804 12.623109
564 3 20.253109 14.225490 13.082485
565 2 31.166469 20.914318 3.624985
566 3 30.551870 20.958186 2.364542
567 3 30.795212 19.917231 3.452857
568 2 32.814383 5.748395 11.038237
569 3 32.434997 6.922793 12.984743
570 3 31.839580 6.976191 11.710735
571 2 8.149182 23.291171 7.166030
572 3 9.433496 22.940691 7.251719
573 3 8.894613 23.694721 7.751021
574 2 -2.731873 39.317693 8.458801
575 3 -1.563287 39.876805 9.810828
576 3 -2.462498 39.771138 9.616277
577 2 9.388958 21.762352 17.912029
578 3 10.027972 22.569562 15.488551
579 3 9.545199 21.849960 15.813602
580 2 10.228242 29.778289 17.674483
581 3 11.961982 29.304619 17.353171
582 3 10.991590 29.708530 19.044124
583 2 6.054905 28.696684 4.458311
584 3 5.701341 29.265181 4.881360
585 3 5.558294 30.148906 5.312938
586 2 18.235356 29.488416 11.769898
587 3 19.068580 29.452587 11.654998
588 3 20.604182 29.085168 11.528804
589 2 11.673756 23.789624 -2.711579
590 3 10.569293 22.824843 -2.371514
591 3 10.930607 24.996008 -3.534309
592 2 33.856166 10.835389 16.645394
593 3 31.884356 11.105913 17.923728
594 3 33.908135 11.850157 19.166182
595 2 21.083853 24.119021 17.920734
596 3 19.798853 23.900642 18.747367
597 3 22.871508 23.042451 19.278644
598 2 14.334280 17.510990 14.128731
599 3 14.083117 16.233363 12.221838
600 3 16.052637 17.199379 12.280909
601 2 25.049902 16.927367 5.106140
602 3 23.951297 17.035623 4.195030
603 3 24.595672 16.906208 2.869007
604 2 21.452589 31.644231 18.635793
605 3 20.656133 32.165649 19.465162
606 3 21.772984 33.654702 19.284903
607 2 37.668709 22.389155 7.536556
608 3 37.741559 22.863023 5.868269
609 3 37.467395 21.469807 7.471188
610 2 -7.797507 19.004754 11.256197
611 3 -6.499334 17.472558 11.567392
612 3 -7.258027 19.071105 11.750877
613 2 9.725835 22.207880 12.947171
614 3 9.850477 22.795146 13.390397
615 3 9.201405 22.589268 13.721719
616 2 27.744768 17.390878 15.680247
617 3 28.000515 17.738764 16.732549
618 3 27.026210 17.427851 15.418929
619 2 8.402291 32.037262 10.985399
620 3 7.239004 30.722931 9.613449
621 3 7.687407 31.905164 9.321262
622 2 28.561591 23.085199 -3.235654
623 3 29.933858 25.222633 -4.794762
624 3 30.916815 24.401429 -4.342257
625 2 7.415057 23.052468 28.399657
626 3 7.862812 23.700259 26.894876
627 3 6.397483 23.559266 29.378564
628 2 15.596569 25.242661 22.639096
629 3 15.529266 23.968163 22.058872
630 3 15.744558 24.289119 21.261805
631 2 30.620050 12.281302 15.641442
632 3 30.378474 15.473435 15.145620
633 3 31.490641 13.741071 15.824391
634 2 25.453699 37.009623 2.275178
635 3 25.196694 37.134070 4.216500
636 3 26.965666 38.047445 1.827741
637 2 25.153949 36.164142 6.763570
638 3 26.990525 37.298777 5.465608
639 3 25.450716 34.634178 6.643794
640 2 12.018486 20.098329 8.198203
641 3 11.960140 19.982189 8.070139
642 3 11.002403 21.058303 7.680510
643 2 21.546511 43.480122 16.925390
644 3 22.204014 42.461450 17.522959
645 3 21.729345 42.189299 16.297376
646 2 17.756780 46.193670 12.442791
647 3 18.879344 45.335788 11.411810
648 3 18.555894 47.164475 13.214112
649 2 21.117331 34.813758 27.776855
650 3 21.333459 33.574344 28.631332
651 3 21.366357 33.678302 28.526415
652 2 -5.375537 27.121011 12.047666
653 3 -6.318766 26.299827 13.824050
654 3 -5.140855 24.694144 13.079487
655 2 21.336180 32.051090 4.643819
656 3 20.595980 31.022717 2.412525
657 3 21.063331 30.395715 2.310730
658 2 6.024334 23.234217 5.140835
659 3 6.260484 23.454539 4.576082
660 3 7.120789 23.232718 5.851217
661 2 23.968330 25.469901 33.390637
662 3 23.439303 24.968925 31.369391
663 3 25.011715 26.153336 31.629340
664 2 23.919698 30.470162 3.051481
665 3 23.581045 28.929355 3.910887
666 3 24.114909 30.967814 3.369672
667 2 14.668780 23.842648 1.001156
668 3 15.063619 24.829801 -1.510492
669 3 14.880368 24.855220 -0.846712
670 2 28.982639 33.850417 15.336132
671 3 28.893780 35.475058 13.910158
672 3 29.714953 34.441034 15.374181
673 2 24.000967 29.096480 8.204111
674 3 23.323500 27.614493 6.686145
675 3 23.858210 29.574230 9.034032
676 2 24.064621 24.664767 8.416720
677 3 23.779258 24.601725 10.514079
678 3 23.615082 25.099049 10.396535
679 2 39.280911 26.510049 -3.363967
680 3 39.302298 25.208049 -1.915274
681 3 39.481094 26.822560 -2.796134
682 2 28.246980 26.411247 23.035738
683 3 27.686648 25.371143 23.554324
684 3 28.161034 26.274233 23.884055
685 2 24.584076 33.518539 12.133793
686 3 22.811995 33.330331 11.767382
687 3 24.416784 33.489351 11.921671
688 2 21.690536 11.520066 21.980566
689 3 19.264225 10.939050 22.758190
690 3 20.973520 12.369223 22.179058
691 2 11.386435 7.844901 22.425152
692 3 9.645822 7.634013 22.528407
693 3 10.825051 6.531882 22.597769
694 2 9.115373 11.308376 5.112764
695 3 8.816349 11.882267 5.372785
696 3 10.085644 10.979616 7.078988
697 2 6.869836 3.406698 22.340407
698 3 5.719570 4.354698 23.454640
699 3 6.700502 5.603769 22.119568
700 2 18.217380 4.635593 28.813361
701 3 17.039839 5.545535 28.396225
702 3 16.669924 6.049135 29.543664
703 2 15.885644 12.027502 -8.436634
704 3 15.916137 12.985052 -8.430944
705 3 17.224669 13.662433 -7.875744
706 2 12.729286 19.945605 15.485787
707 3 13.501975 19.497776 12.982102
708 3 12.963277 21.106388 13.592322
709 2 13.047315 22.388494 8.879007
710 3 13.314417 20.381609 11.680379
711 3 13.222649 21.479409 9.405340
712 2 39.581512 11.855657 10.866276
713 3 39.869111 9.550505 10.472336
714 3 40.709843 10.781176 8.905715
715 2 25.237138 8.728363 16.166618
716 3 24.995291 8.291053 14.658326
717 3 25.771227 8.451952 14.563097
718 2 27.139136 -4.786375 10.057426
719 3 28.293199 -4.930020 9.852700
720 3 28.374312 -3.479788 10.315423
721 2 39.767837 10.605776 12.612328
722 3 38.004374 11.647637 14.421863
723 3 38.530816 11.716305 13.907182
724 2 41.692500 24.010004 17.356023
725 3 42.213680 23.783567 18.320864
726 3 41.135070 23.517083 17.554509
727 2 23.590280 6.121224 12.224832
728 3 22.637281 5.339124 12.369700
729 3 22.794319 5.569302 13.370269
730 2 10.643489 7.639956 5.443009
731 3 10.484135 7.632583 5.191277
732 3 10.362663 7.763518 6.448143
733 2 18.754286 12.951113 13.051472
734 3 17.883760 13.633303 11.997088
735 3 18.155079 13.755068 13.297757
736 2 15.036419 4.976214 13.774381
737 3 14.444703 5.801239 12.316011
738 3 15.046638 6.007226 14.450913
739 2 25.103594 7.201093 8.693839
740 3 25.487821 9.779969 7.661553
741 3 25.615010 10.264990 8.906346
742 2 14.738300 9.444704 10.378733
743 3 13.883005 12.098839 9.394356
744 3 14.337623 10.563266 9.832074
745 2 15.761196 9.297192 9.190782
746 3 16.725447 10.613846 9.364250
747 3 14.534463 8.611633 10.144587
748 2 14.912700 6.680519 9.921049
749 3 16.278738 5.163995 10.103682
750 3 14.330310 6.882654 10.729905
751 2 21.742121 3.072580 1.887084
752 3 19.846240 1.433608 3.395113
753 3 21.141627 0.339867 3.662682
754 2 34.636889 10.058287 16.432214
755 3 34.731484 12.052513 18.395995
756 3 35.057043 11.064961 18.621719
757 2 20.604231 19.145741 15.622980
758 3 21.195683 18.762738 13.604412
759 3 21.234281 18.596941 14.996119
760 2 27.719978 9.451052 21.203395
761 3 27.757694 7.467684 21.879337
762 3 26.995283 9.910952 22.584767
763 2 22.595204 27.473514 20.557360
764 3 23.775962 27.332757 20.391578
765 3 21.685249 27.956812 19.808405
766 2 5.265469 15.837882 10.971430
767 3 4.921624 16.297934 10.598921
768 3 4.963051 15.272158 10.316951
769 2 13.497383 12.032558 7.704457
770 3 13.749991 11.801694 6.491041
771 3 13.987473 13.050221 6.514852
772 2 4.243154 18.673488 4.949393
773 3 4.910968 20.117849 4.532766
774 3 5.396659 20.192727 3.009744
775 2 5.743820 4.603686 10.601381
776 3 5.691286 4.932410 8.831323
777 3 6.104882 5.573688 10.585061
778 2 10.604278 5.359736 18.055715
779 3 10.467896 5.798242 17.927175
780 3 11.365020 6.998896 18.207463
781 2 9.524893 20.484325 18.357513
782 3 9.565119 20.621974 19.593930
783 3 9.011364 21.665871 19.087288
784 2 17.659004 10.571287 1.978185
785 3 17.296538 11.130855 1.651162
786 3 17.591345 10.116734 1.657781
787 2 16.364645 24.317659 20.196624
788 3 15.246595 23.748647 21.091966
789 3 15.883497 24.602569 20.763640
790 2 15.696655 10.547217 4.429291
791 3 16.431966 10.899645 5.885502
792 3 16.937006 10.234361 5.016698
793 2 30.315242 8.179632 13.127397
794 3 29.583923 9.017267 14.190910
795 3 30.046783 8.548450 15.348508
796 2 17.788497 4.867235 12.001756
797 3 17.651783 4.317753 12.552828
798 3 17.182945 5.328698 12.317955
799 2 35.270653 22.795041 5.243263
800 3 33.865989 21.823062 5.124484
801 3 35.706123 23.910439 5.838331
802 2 15.849099 20.234992 2.477705
803 3 16.581013 21.478058 1.302123
804 3 15.921711 21.973014 2.645158
805 2 6.448756 -2.632972 8.966798
806 3 7.683145 -1.146266 8.420553
807 3 6.381933 -3.480451 7.617950
808 2 13.913703 23.256788 17.388729
809 3 13.383584 22.115796 15.474478
810 3 13.451288 24.508196 16.843592
811 2 19.679709 17.235265 14.287717
812 3 21.480873 17.363680 12.246856
813 3 19.679516 16.900759 14.154258
814 2 21.039407 11.313779 7.181712
815 3 21.602773 10.443237 7.534460
816 3 21.759384 10.684634 6.277716
817 2 7.479019 28.018465 0.085917
818 3 7.572445 26.459346 0.093941
819 3 6.558151 27.366757 0.385891
820 2 16.799435 19.008096 6.177217
821 3 17.646581 19.098431 9.347526
822 3 17.073227 18.344992 8.260867
823 2 17.391225 28.226522 7.849989
824 3 17.392928 26.791540 5.546454
825 3 18.258623 27.243636 6.260645
826 2 -5.477663 18.675875 8.544767
827 3 -4.995424 17.788053 7.748883
828 3 -6.135554 17.740541 8.146652
829 2 29.426795 9.573812 9.462382
830 3 28.294602 8.689234 9.235186
831 3 28.804168 9.291702 7.955134
832 2 19.321455 10.765687 23.017885
833 3 19.187395 11.009197 25.551479
834 3 20.802250 11.511986 24.059595
835 2 13.616365 18.325562 19.175616
836 3 11.929429 16.356761 17.361643
837 3 12.724727 16.980292 17.130493
838 2 40.277728 27.055865 12.241813
839 3 41.166949 26.870770 11.287992
840 3 39.587526 25.851433 11.372586
841 2 29.324196 11.444319 6.125337
842 3 29.738174 12.493539 6.006399
843 3 29.585438 13.563559 6.503194
844 2 2.283432 16.153335 15.806388
845 3 2.123969 16.149413 13.357305
846 3 1.064637 16.191056 14.137767
847 2 10.877459 17.705215 29.727744
848 3 12.839119 17.198821 29.277185
849 3 11.622658 17.802900 30.591078
850 2 3.669940 15.832901 4.417291
851 3 4.356696 16.372879 5.768104
852 3 3.712887 16.246762 5.697072
853 2 12.535054 15.883661 9.938114
854 3 12.862330 14.111725 10.045006
855 3 12.576258 14.643315 10.298377
856 2 16.760593 25.136408 17.085467
857 3 16.693632 25.739405 17.312557
858 3 16.403588 24.591699 15.395280
859 2 26.525254 30.562365 21.416862
860 3 26.035537 33.040220 21.103876
861 3 26.955786 31.458408 22.310604
862 2 15.971244 26.365463 13.319216
863 3 17.187797 25.777101 13.861840
864 3 16.047016 26.841720 12.812335
865 2 17.498089 21.254126 18.020376
866 3 19.257554 20.904855 18.577591
867 3 17.219692 19.978831 18.198186
868 2 26.283005 16.127044 19.973125
869 3 26.160588 15.524254 19.831625
870 3 25.386822 14.751133 20.894133
871 2 21.788988 26.143238 9.372965
872 3 21.867010 25.804797 7.791519
873 3 21.101062 25.906751 10.303356
874 2 28.629246 12.895773 17.084242
875 3 29.008622 13.138773 17.244225
876 3 29.131424 12.378455 18.374999
877 2 42.037489 28.144195 32.319177
878 3 40.842909 28.699908 28.953188
879 3 41.999645 27.490900 29.116869
880 2 30.151384 10.118391 19.553963
881 3 30.838724 10.254673 18.686424
882 3 31.053162 9.750719 18.185986
883 2 1.971588 31.503765 24.321768
884 3 2.866532 32.062711 24.823300
885 3 1.746688 32.123995 26.024330
886 2 10.490635 18.054621 21.213747
887 3 9.587357 18.602140 21.458746
888 3 10.047458 18.422235 22.852078
889 2 6.574009 23.008874 -1.530662
890 3 6.122303 23.209330 0.957757
891 3 6.673038 22.663854 -0.619179
892 2 11.220221 7.038862 15.493646
893 3 10.736005 8.031101 17.523544
894 3 11.965464 7.447407 16.732956
895 2 24.357085 15.357383 11.511756
896 3 25.436375 15.107496 11.784822
897 3 24.289607 15.013109 11.716850
898 2 15.887365 2.000505 12.030774
899 3 17.699305 -0.589655 14.186752
900 3 17.309832 1.048497 13.710730
901 2 21.706822 12.312566 13.683120
902 3 22.795825 12.160162 14.474400
903 3 22.248397 12.484572 14.940354
904 2 14.014975 15.122124 22.576807
905 3 11.969806 16.985249 23.086833
906 3 14.289244 17.133728 24.576660
907 2 15.935149 18.878140 1.681271
908 3 15.337922 19.048838 1.532725
909 3 17.375997 18.934660 -0.141374
910 2 39.366833 28.195946 13.000596
911 3 39.433848 29.807192 12.180098
912 3 39.166010 30.581609 13.196332
913 2 23.112323 14.375792 16.276240
914 3 23.629588 15.563187 16.435587
915 3 23.387073 14.612493 15.686031
916 2 23.177944 21.776399 1.358939
917 3 22.601158 21.977344 1.374851
918 3 23.329652 22.077503 -0.501434
919 2 35.426457 17.408572 23.740033
920 3 35.118818 16.027896 21.555516
921 3 34.938237 17.649239 23.597033
922 2 8.691063 16.962460 13.093798
923 3 9.073964 15.532985 14.260073
924 3 7.594380 15.437808 14.518109
925 2 16.111850 11.937931 10.625876
926 3 15.392148 13.903629 10.642816
927 3 13.746111 13.078214 11.131183
928 2 17.492732 14.090543 12.746621
929 3 17.310921 13.202757 8.298117
930 3 17.737675 14.016473 10.714657
931 2 14.238819 18.897230 0.571681
932 3 12.173269 20.449424 1.699163
933 3 12.845745 20.733914 1.457243
934 2 29.158314 5.899069 17.793729
935 3 28.798441 6.359072 17.965466
936 3 28.176121 4.481289 18.083139
937 2 19.787570 15.029327 12.758694
938 3 19.925413 16.304804 13.081595
939 3 20.092012 15.830326 13.425193
940 2 20.207007 20.053376 13.366626
941 3 20.999413 20.068424 13.788006
942 3 20.696728 19.411459 12.312039
943 2 16.252484 25.071364 12.320928
944 3 16.801224 25.512762 12.733334
945 3 16.966613 24.050411 13.296619
946 2 23.563512 22.249917 11.550660
947 3 24.981293 21.619454 11.282527
948 3 23.433693 21.026453 13.216550
949 2 15.642493 30.907016 4.242158
950 3 15.031798 31.238916 2.915679
951 3 13.399785 31.217402 4.235437
952 2 16.345733 18.781199 17.086363
953 3 16.884738 19.478129 17.522492
954 3 15.031271 17.696944 16.653333
955 2 23.812775 18.019751 3.107174
956 3 25.682691 17.147416 3.126597
957 3 25.095158 16.860661 1.692780
958 2 31.181469 26.936496 9.195088
959 3 31.303327 28.430321 10.616716
960 3 32.243096 25.622614 9.504788
961 2 -5.791293 17.704203 13.443149
962 3 -6.585058 17.975687 12.891028
963 3 -5.925383 18.091865 13.361304
964 2 8.008719 19.287718 -5.442529
965 3 7.238479 19.858649 -4.221341
966 3 8.371396 19.559439 -5.096866
967 2 6.539355 28.683268 22.812251
968 3 6.564083 28.563419 21.243113
969 3 5.858263 28.155715 21.412078
970 2 7.242958 15.734196 10.798056
971 3 6.491265 15.805245 12.290533
972 3 8.029906 16.517032 9.243403
973 2 20.572334 21.357709 7.236222
974 3 20.540144 22.592898 4.755767
975 3 20.725926 21.646924 5.172224
976 2 4.994572 23.947839 -0.781460
977 3 4.100329 23.430600 0.655270
978 3 5.444538 23.697248 -0.004520
979 2 17.663657 22.744932 4.084437
980 3 18.890322 23.092749 3.929589
981 3 19.077091 22.743406 3.928682
982 2 17.127003 20.303059 5.321307
983 3 17.835092 22.325628 2.895588
984 3 17.540985 21.534628 4.978299
985 2 11.203780 23.863635 14.233172
986 3 11.872310 23.846371 14.590585
987 3 11.305898 24.604822 15.101743
988 2 27.102223 18.240888 2.416285
989 3 27.460662 18.969473 3.001472
990 3 26.702464 17.627530 3.271259
991 2 31.601992 16.047396 7.270088
992 3 29.974983 16.261030 6.137609
993 3 31.257916 17.636051 7.254300
994 2 33.965409 17.604980 19.646921
995 3 32.973936 17.782147 19.816555
996 3 32.439495 17.983042 19.099280
997 2 36.687467 11.554133 10.828018
998 3 39.264177 11.869648 10.547711
999 3 35.888600 11.360607 10.795492
1000 2 15.009397 26.257511 18.880804
1001 3 15.607492 26.164545 18.632185
1002 3 15.127741 26.120862 17.840600
1003 2 -0.442004 28.954361 21.538902
1004 3 0.416919 27.589294 22.242814
1005 3 0.301030 27.568478 21.439898
1006 2 4.120223 25.368958 -1.553634
1007 3 3.741088 24.493658 -2.665823
1008 3 5.724838 23.888512 -0.292828
1009 2 14.140942 28.034796 20.664650
1010 3 14.533442 27.850619 21.580809
1011 3 14.033650 27.736448 21.029911
1012 2 22.477812 21.445867 12.382789
1013 3 22.773283 22.026623 12.897289
1014 3 22.295354 22.143250 12.970340
1015 2 9.241038 17.077328 -2.795970
1016 3 7.678472 17.758426 -3.116320
1017 3 9.901110 18.206516 -2.042658
1018 2 5.328525 30.366852 8.088625
1019 3 6.351634 30.025254 7.103557
1020 3 5.386687 28.564406 5.896461
1021 2 33.275322 3.741200 -6.773691
1022 3 33.975995 3.095341 -8.933198
1023 3 35.260543 2.022871 -9.125267
1024 2 25.553584 23.558013 11.124048
1025 3 26.666370 22.675587 10.487422
1026 3 25.777424 22.696028 11.722270
1027 2 19.800959 25.858852 23.005491
1028 3 19.654921 25.796579 23.611620
1029 3 19.986703 24.509743 22.550342
1030 2 4.929403 16.595248 11.080692
1031 3 5.693154 17.029500 12.714891
1032 3 6.034054 16.497593 12.540853
1033 2 18.481367 20.425409 11.867623
1034 3 18.496630 21.776180 12.489453
1035 3 18.915470 21.869921 11.738614
1036 2 15.928208 35.226026 4.229931
1037 3 16.372615 34.285908 2.590361
1038 3 16.180469 33.200506 4.283434
1039 2 1.047978 10.853003 -0.665359
1040 3 1.679648 11.827910 -1.154332
1041 3 2.364873 10.172779 -0.761705
1042 2 4.402687 19.208536 9.972562
1043 3 4.199224 19.394013 12.365921
1044 3 4.588035 21.132970 11.579551
1045 2 15.074720 11.782934 26.877038
1046 3 16.420099 12.535214 27.811063
1047 3 15.495525 12.181455 30.003239
1048 2 9.334412 20.795259 6.879251
1049 3 9.171499 20.559415 9.008361
1050 3 9.422922 21.420883 7.768930
1051 2 19.350462 28.392615 -4.101338
1052 3 18.305565 29.690106 -4.133153
1053 3 18.205671 29.359663 -6.278436
1054 2 16.003509 24.963868 6.761337
1055 3 15.987838 24.188845 6.342518
1056 3 16.427100 25.100959 6.650540
1057 2 -2.744734 15.836937 -2.074019
1058 3 -2.623469 16.182903 -0.808226
1059 3 -1.880220 15.540108 -2.538560
1060 2 23.494641 5.574818 7.178337
1061 3 22.502150 6.344773 6.485611
1062 3 21.586631 4.123760 6.778682
1063 2 10.584879 17.077250 17.332892
1064 3 11.812217 16.094115 16.060655
1065 3 11.854549 16.232674 16.059564
1066 2 16.059070 37.833340 4.666939
1067 3 14.786132 38.942257 3.776345
1068 3 15.705381 38.388494 4.018400
1069 2 28.490418 26.118089 12.560978
1070 3 28.277764 24.123919 12.848941
1071 3 27.604214 23.846205 13.655755
1072 2 28.808114 41.952798 3.109755
1073 3 30.105504 42.432699 1.519799
1074 3 29.487128 43.044823 1.612618
1075 2 28.002790 26.126285 1.467479
1076 3 27.976951 24.901590 1.973371
1077 3 28.893200 24.248141 1.984417
1078 2 9.286170 39.989213 27.484288
1079 3 10.815100 41.296167 26.630208
1080 3 9.685263 40.178599 27.154660
1081 2 10.417398 34.789369 8.108538
1082 3 9.994252 36.048800 10.974842
1083 3 10.014050 34.345173 9.076366
1084 2 14.041764 29.423627 18.048991
1085 3 15.195955 31.167834 17.440359
1086 3 16.114278 29.144956 17.634751
1087 2 11.074858 41.474774 14.088513
1088 3 12.376218 42.832125 15.059616
1089 3 11.149135 41.553699 16.744062
1090 2 13.897205 18.398243 3.389829
1091 3 13.457577 18.884801 3.620404
1092 3 13.840253 18.260538 2.494671
1093 2 23.627950 30.792168 11.054423
1094 3 24.728300 32.140495 10.714994
1095 3 22.636832 32.362425 9.380566
1096 2 18.943566 32.390062 10.726895
1097 3 18.727251 32.410241 13.434218
1098 3 17.529235 31.906883 13.178020
1099 2 15.693611 31.848782 4.737731
1100 3 16.296798 33.000913 2.683528
1101 3 15.705160 34.723387 3.201933
1102 2 26.680617 28.475964 16.494579
1103 3 26.256201 28.910971 15.855760
1104 3 27.288402 26.740091 17.310507
1105 2 40.484471 28.041236 19.599495
1106 3 40.033024 26.149459 21.005074
1107 3 38.505408 26.571965 18.959085
1108 2 36.125233 28.949689 25.005720
1109 3 36.237564 29.331947 25.112106
1110 3 37.631011 29.190676 24.700496
1111 2 27.895470 37.394242 -1.062759
1112 3 28.611312 35.885438 -0.001462
1113 3 27.927748 36.358654 -1.308609
1114 2 47.373365 9.380060 18.268579
1115 3 45.121952 8.958160 18.877962
1116 3 45.270479 8.455755 17.710362
1117 2 7.975630 25.732616 23.959997
1118 3 9.080943 24.242748 22.763703
1119 3 8.457436 25.651598 22.815409
1120 2 22.016199 34.976030 11.049195
1121 3 23.073501 34.228109 12.188283
1122 3 22.685761 34.489612 11.164690
1123 2 16.467029 30.926432 1.423024
1124 3 17.182334 29.069137 0.181282
1125 3 15.215657 29.795876 -0.220340
1126 2 32.163058 13.331705 21.816110
1127 3 31.466727 12.540114 20.410215
1128 3 31.124439 12.809937 19.743314
1129 2 17.537784 32.424116 9.863745
1130 3 17.037387 32.043490 7.218790
1131 3 18.405593 32.692054 8.125096
1132 2 18.447775 20.749956 8.675827
1133 3 17.199273 20.739804 7.949506
1134 3 17.274044 20.074275 8.782531
1135 2 18.880338 33.925767 22.251660
1136 3 19.362789 33.693470 24.236398
1137 3 18.386227 32.706533 23.610035
1138 2 15.652941 27.382066 -6.547577
1139 3 15.453576 27.774702 -6.759712
1140 3 17.403721 27.920079 -5.647562
1141 2 25.882768 29.401282 16.316940
1142 3 26.830431 28.308970 17.810830
1143 3 25.541495 29.298847 17.960673
1144 2 13.884660 34.280785 18.683435
1145 3 12.821537 33.740907 18.177722
1146 3 13.070454 32.098962 18.352399
1147 2 41.490305 30.719974 4.632985
1148 3 40.408682 30.721761 3.641717
1149 3 41.447587 30.999238 3.147904
1150 2 16.447959 23.146388 17.768621
1151 3 17.718461 23.655769 15.781692
1152 3 17.079350 22.844777 17.970461
1153 2 24.140588 34.017333 14.569259
1154 3 24.858738 34.529724 15.544828
1155 3 25.793262 34.405129 14.163217
1156 2 10.379549 28.389236 7.375743
1157 3 10.072701 29.313476 6.100716
1158 3 10.168526 27.347945 5.322330
1159 2 11.108748 20.700451 13.343824
1160 3 12.033493 19.619373 14.027093
1161 3 12.572193 20.730885 13.802614
1162 2 6.772279 22.127763 10.647405
1163 3 5.430358 22.412889 11.508673
1164 3 6.777072 21.929279 10.031274
1165 2 11.302143 25.934066 9.986223
1166 3 10.798504 25.185278 9.243967
1167 3 11.941950 24.997072 10.054124
1168 2 16.915150 29.490809 21.046454
1169 3 17.090547 28.658955 17.078646
1170 3 16.701945 27.634486 19.831707
1171 2 35.612615 28.160287 12.403808
1172 3 36.139704 27.110654 12.513529
1173 3 36.733375 27.722289 11.840026
1174 2 26.415332 31.822805 24.009734
1175 3 26.557753 31.312083 23.821685
1176 3 25.776257 31.796998 22.434260
1177 2 15.148997 42.606054 13.378050
1178 3 14.324911 45.074339 14.862347
1179 3 13.638975 42.593832 11.699922
1180 2 25.999771 27.801629 5.903982
1181 3 24.737706 26.950084 4.549127
1182 3 25.428070 28.213553 4.219345
1183 2 28.465317 38.447633 16.270802
1184 3 27.363668 37.314329 15.111341
1185 3 28.732596 36.920300 16.047836
1186 2 45.320241 31.493975 -1.543758
1187 3 44.673292 31.056918 -0.432994
1188 3 44.833762 30.432712 -2.932024
1189 2 36.380744 23.459772 8.078181
1190 3 35.295371 22.263838 7.097649
1191 3 34.640933 22.626771 9.289930
1192 2 40.077179 27.394136 2.199458
1193 3 40.318835 26.359041 0.208346
1194 3 40.084539 26.667092 0.986789
1195 2 9.636240 8.905690 15.343106
1196 3 8.705541 9.017281 15.822680
1197 3 8.638542 9.378070 14.572489
1198 2 4.583908 11.210100 30.198367
1199 3 5.521918 10.600240 27.182588
1200 3 2.962608 10.694260 29.453669
1201 2 3.058131 21.244163 10.217733
1202 3 2.298435 21.313467 8.735449
1203 3 3.404433 22.450663 9.402753
1204 2 13.112751 18.098936 10.863747
1205 3 14.303219 16.633090 9.798507
1206 3 14.129606 17.446839 9.598313
1207 2 17.223130 9.221471 4.796294
1208 3 18.178876 9.178089 5.138447
1209 3 18.827822 7.845816 5.955211
1210 2 18.384737 17.697554 12.230645
1211 3 20.256317 17.316471 11.081353
1212 3 19.829460 19.633182 11.441136
1213 2 16.607414 7.545905 25.313180
1214 3 16.327268 6.285215 22.176134
1215 3 16.945161 7.046414 23.213447
1216 2 14.535223 10.147506 13.227254
1217 3 14.265369 12.176089 13.019211
1218 3 13.764133 10.860902 12.488189
1219 2 20.198678 9.880793 20.850892
1220 3 19.401356 8.206442 21.293900
1221 3 19.708698 8.674296 20.850741
1222 2 20.907411 9.659583 0.161536
1223 3 20.819330 8.983878 -1.473780
1224 3 20.754767 8.365062 -0.148688
1225 2 25.775973 7.281075 17.251721
1226 3 25.246981 7.015445 18.785719
1227 3 26.355000 7.055954 18.872093
1228 2 34.181358 7.075404 17.271164
1229 3 33.053421 7.689645 19.747836
1230 3 34.252295 6.670881 19.288675
1231 2 27.104190 4.360676 24.866683
1232 3 27.143011 5.312876 24.239835
1233 3 26.636717 4.407017 26.320892
1234 2 10.182436 11.487041 20.600058
1235 3 10.327320 12.470882 19.644293
1236 3 8.945172 11.965930 19.817971
1237 2 6.366588 20.029768 3.264517
1238 3 5.726856 20.357484 1.240854
1239 3 5.791794 20.527308 2.044373
1240 2 9.602012 9.591214 13.586057
1241 3 9.472230 10.323945 14.933296
1242 3 10.091434 8.671262 13.359534
1243 2 13.920578 3.489008 22.013216
1244 3 14.160316 5.188328 23.147590
1245 3 12.678451 4.792806 22.886567
1246 2 12.676544 16.562054 21.609487
1247 3 14.260708 15.720544 22.421407
1248 3 13.508015 15.786436 23.238721
1249 2 22.670061 -2.226622 9.497872
1250 3 22.477779 -1.204706 9.300415
1251 3 21.291755 -2.170990 10.760900
1252 2 30.187462 21.468532 9.155901
1253 3 28.621766 22.471369 8.959073
1254 3 28.510202 21.486610 10.631311
1255 2 23.611829 9.112966 1.794161
1256 3 22.742902 9.375445 1.028518
1257 3 23.548927 11.308390 2.506703
1258 2 19.451283 16.371558 2.488949
1259 3 19.860945 16.170679 3.628562
1260 3 19.418617 15.929414 3.525891
1261 2 29.665392 30.031834 7.951801
1262 3 29.944418 29.821661 7.210494
1263 3 30.192124 29.286535 4.988618
1264 2 24.263100 7.678297 9.784299
1265 3 24.918920 7.540969 12.388716
1266 3 23.747856 7.494790 11.018839
1267 2 36.343292 13.893800 17.659948
1268 3 38.495401 14.145098 17.770412
1269 3 37.553725 15.111787 16.970288
1270 2 19.405266 18.579836 16.490806
1271 3 19.693288 17.912407 17.855485
1272 3 20.644958 17.530044 18.076593
1273 2 -1.635979 25.101995 11.635276
1274 3 -2.414183 24.851398 11.825182
1275 3 -2.706692 27.825945 11.351827
1276 2 3.967984 12.529394 -3.728555
1277 3 3.856229 14.493578 -2.320449
1278 3 4.045594 13.840169 -0.855202
1279 2 6.226715 14.167968 13.179376
1280 3 6.564982 13.806330 13.471862
1281 3 6.210408 12.704188 12.460543
1282 2 5.805429 19.761184 16.885196
1283 3 5.784867 18.899399 16.262781
1284 3 5.007624 18.176345 15.065630
1285 2 8.087814 12.431755 1.630132
1286 3 7.879552 13.688018 0.811544
1287 3 8.136594 11.829040 1.656578
1288 2 15.769538 20.530053 5.891303
1289 3 15.566502 21.407398 4.139534
1290 3 15.317537 19.794486 4.455341
1291 2 14.644601 5.520783 26.160197
1292 3 13.358969 7.038718 23.814720
1293 3 13.578257 6.345247 25.827104
1294 2 40.064095 24.917232 20.802001
1295 3 39.651762 24.747974 19.289934
1296 3 40.618482 23.394611 18.472832
1297 2 26.762393 13.290216 19.570047
1298 3 28.108682 14.730113 22.664040
1299 3 27.655368 12.994102 21.795979
1300 2 17.443754 10.541547 9.684847
1301 3 18.238154 12.109424 11.651094
1302 3 17.490771 11.059106 11.654563
1303 2 31.918464 20.418863 3.996646
1304 3 30.634583 19.749489 4.988173
1305 3 31.223801 21.129490 3.535443
1306 2 19.135800 17.571634 13.449273
1307 3 19.521474 15.842983 12.870853
1308 3 18.429094 16.347719 11.673715
1309 2 14.166687 13.629863 8.796642
1310 3 15.147001 15.016849 8.402083
1311 3 14.881274 13.767085 5.230811
1312 2 -2.616959 10.149981 11.266032
1313 3 -1.381385 10.314804 10.633582
1314 3 -2.040812 9.891914 10.894983
1315 2 8.846249 20.290518 22.500839
1316 3 8.594131 20.117060 22.273963
1317 3 9.381529 19.482061 23.169979
1318 2 5.562317 7.742448 15.769205
1319 3 6.302733 8.187031 13.836361
1320 3 5.093025 8.020558 15.498194
1321 2 9.330739 16.342424 3.142269
1322 3 9.033638 15.576846 4.987674
1323 3 9.118854 17.970076 3.792345
1324 2 22.506436 16.329495 -2.102384
1325 3 23.713218 16.726472 -2.925582
1326 3 21.888455 15.922373 -1.841744
1327 2 18.549247 10.466663 2.516596
1328 3 18.285708 11.106425 3.426667
1329 3 18.874521 11.295442 0.591831
1330 2 15.537841 8.240649 24.065037
1331 3 15.306534 8.649917 23.600619
1332 3 16.391698 9.528697 21.741078
1333 2 24.466965 16.368372 16.652564
1334 3 25.054940 17.311270 16.674793
1335 3 23.663820 17.674369 17.726113
1336 2 11.345151 10.298816 19.606535
1337 3 11.440086 9.685265 19.317962
1338 3 12.374954 9.219259 19.511639
1339 2 20.035452 7.663273 7.910448
1340 3 21.750106 6.769060 8.292606
1341 3 20.872257 7.102907 8.759106
1342 2 25.452643 14.277434 7.043770
1343 3 26.251891 14.418484 8.690752
1344 3 23.784276 13.905109 7.744891
1345 2 35.150973 20.233339 12.254725
1346 3 34.819849 20.392480 12.661537
1347 3 35.299010 20.000712 13.732907
1348 2 44.512360 11.988855 6.997117
1349 3 43.891864 12.454074 7.239977
1350 3 44.859670 11.854839 6.003194
1351 2 2.773273 8.544107 14.528356
1352 3 5.110772 9.088912 15.212633
1353 3 2.579435 8.547052 15.375657
1354 2 20.493227 6.496441 13.953216
1355 3 20.590571 8.245943 11.950587
1356 3 20.240054 6.634545 14.340778
1357 2 18.196009 22.116780 11.598381
1358 3 17.797527 23.560880 12.405491
1359 3 17.060893 22.717798 11.787646
1360 2 13.976193 11.091504 6.442368
1361 3 14.267792 10.451539 4.279155
1362 3 13.934487 8.985984 5.268467
1363 2 11.565738 21.859424 15.523132
1364 3 12.937475 21.711009 13.926735
1365 3 11.245380 23.235334 13.830073
1366 2 21.739073 30.755493 9.128505
1367 3 22.917288 31.342512 11.434077
1368 3 21.627759 31.038293 10.117017
1369 2 21.229093 13.653586 25.501925
1370 3 21.986924 14.914497 27.161808
1371 3 21.425239 14.488905 26.590109
1372 2 4.868876 21.939711 15.559896
1373 3 4.470323 20.165492 16.641546
1374 3 3.685603 21.013638 16.240238
1375 2 26.766603 12.620472 4.832644
1376 3 26.597589 12.633777 6.749981
1377 3 26.310326 11.298059 5.999460
1378 2 20.059875 11.188333 9.421358
1379 3 19.698185 11.523471 11.217761
1380 3 19.533212 10.830204 11.203582
1381 2 14.050909 6.685927 3.623120
1382 3 12.479854 5.789345 4.161608
1383 3 13.379682 5.773777 2.374175
1384 2 33.068203 22.012344 20.346006
1385 3 33.495429 20.597478 18.052557
1386 3 33.690530 20.426781 20.062154
1387 2 32.150391 17.648346 15.386805
1388 3 32.248103 17.448012 16.210752
1389 3 31.872408 18.161999 16.382873
1390 2 12.894376 32.112934 13.629868
1391 3 13.641495 32.037397 14.245997
1392 3 13.763354 31.888353 12.613794
1393 2 10.586079 17.698175 11.238671
1394 3 11.287679 17.973717 12.324483
1395 3 11.447377 17.838108 10.960019
1396 2 10.819905 4.523711 0.710858
1397 3 10.906199 4.635043 0.112736
1398 3 12.470386 4.495743 0.490219
1399 2 8.267496 29.574531 14.415186
1400 3 7.754115 30.558256 15.515506
1401 3 7.570701 30.202688 14.524873
1402 2 10.115182 18.957231 11.591663
1403 3 9.876843 18.038014 12.330433
1404 3 8.605844 19.974825 9.145673
1405 2 14.778839 1.869230 13.605544
1406 3 13.653271 2.156657 14.969364
1407 3 15.993524 3.361156 14.112560
1408 2 10.329802 23.643388 20.247021
1409 3 10.231792 23.777352 19.794676
1410 3 10.464976 23.248459 20.657613
1411 2 19.226812 -4.707737 28.984712
1412 3 19.177268 -4.242697 28.774831
1413 3 18.496917 -5.284076 29.438430
1414 2 31.064907 22.628338 12.572478
1415 3 29.156201 24.077513 13.347371
1416 3 31.863827 23.632603 12.003797
1417 2 25.529680 15.909925 16.537290
1418 3 26.019473 17.831494 15.330826
1419 3 25.754022 18.998903 15.986299
1420 2 22.946039 5.548261 12.285959
1421 3 23.747796 5.383156 12.114123
1422 3 24.388506 5.641029 11.924476
1423 2 25.376497 15.800248 20.054421
1424 3 24.375818 16.026899 20.190540
1425 3 24.593026 16.586482 20.799140
1426 2 27.572175 9.895365 9.269241
1427 3 28.127208 9.844813 8.776191
1428 3 29.168726 9.805390 12.537019
1429 2 10.465469 20.541408 21.914312
1430 3 10.810276 21.325171 22.025333
1431 3 9.972140 22.051246 22.027456
1432 2 26.762959 31.688934 1.975644
1433 3 26.317745 32.418235 0.955814
1434 3 26.812572 33.072204 2.210125
1435 2 16.499874 18.093041 10.018893
1436 3 15.301135 19.017510 10.099254
1437 3 16.661300 17.936464 11.797158
1438 2 27.388131 21.046025 1.351873
1439 3 26.890433 22.649880 -0.257297
1440 3 26.964327 21.119020 -0.198053
1441 2 11.007816 14.788302 14.981042
1442 3 11.782924 15.690229 13.993568
1443 3 10.575560 15.190554 14.399196
1444 2 19.437752 28.259195 -0.491832
1445 3 18.302597 29.898433 -1.574236
1446 3 19.811990 29.531664 -1.383041
1447 2 8.336608 37.931220 10.555527
1448 3 7.759784 38.003822 9.200517
1449 3 9.004008 36.602213 10.454869
1450 2 16.321157 33.934281 5.376084
1451 3 16.433726 33.682185 5.321073
1452 3 17.203596 33.551083 7.197385
1453 2 25.435387 31.335865 18.356574
1454 3 25.040330 31.777181 19.981730
1455 3 24.821768 29.606032 19.554411
1456 2 30.249985 12.316596 4.045079
1457 3 29.202171 13.545807 5.099535
1458 3 29.771357 12.952233 3.741682
1459 2 15.424534 32.074227 20.262366
1460 3 16.915289 31.139707 20.376182
1461 3 17.121696 30.106157 19.673432
1462 2 24.585952 3.492321 0.713340
1463 3 24.004124 1.608632 3.251439
1464 3 25.489228 2.422145 2.402487
1465 2 11.472675 14.039649 12.468269
1466 3 10.322543 14.707462 14.157507
1467 3 10.278296 13.534573 11.531469
1468 2 2.328286 31.845394 12.954563
1469 3 2.759199 31.780308 13.639486
1470 3 1.436806 31.518905 11.601145
1471 2 -6.106538 18.775477 30.673183
1472 3 -6.027110 17.846587 29.085344
1473 3 -5.223146 16.931856 29.247392
1474 2 12.649708 15.951438 10.435359
1475 3 12.746696 14.580815 10.403209
1476 3 12.948855 14.711458 10.239042
1477 2 16.139195 28.136322 15.645927
1478 3 16.461424 28.692437 15.300945
1479 3 16.347968 27.510571 17.058644
1480 2 6.016419 35.483525 9.377821
1481 3 6.720204 34.746210 9.090273
1482 3 6.740889 35.251171 7.454638
1483 2 29.237399 35.586657 15.632199
1484 3 29.331393 34.958394 15.055610
1485 3 29.827410 34.120829 16.034555
1486 2 13.780791 21.742685 -2.778418
1487 3 12.997943 22.957258 -1.417408
1488 3 13.164563 22.377955 -1.606000
1489 2 14.423955 36.287505 0.119494
1490 3 14.587215 35.002545 -2.541636
1491 3 13.819275 34.530258 0.710009
1492 2 28.105911 24.238090 18.711320
1493 3 27.742387 24.028130 18.033398
1494 3 28.079899 24.499470 19.202459
1495 2 22.471880 13.601031 2.160008
1496 3 23.457837 13.420215 3.091879
1497 3 23.878235 14.952127 4.133440
1498 2 32.721530 23.628384 13.375689
1499 3 32.772884 23.858481 12.294842
1500 3 31.835938 23.286448 11.901150
1501 2 -0.058246 8.280312 1.575049
1502 3 2.197820 8.934167 -0.358888
1503 3 1.080968 8.674420 1.178377
1504 2 28.246040 8.019595 7.054434
1505 3 28.229204 9.462588 5.890035
1506 3 28.583670 8.659590 5.190966
1507 2 11.674639 18.396497 10.251238
1508 3 12.099186 19.175378 10.891150
1509 3 11.539549 17.950829 10.321902
1510 2 12.874316 22.732863 13.830297
1511 3 13.415768 22.027238 14.875667
1512 3 11.049600 21.898717 15.040357
1513 2 9.083914 11.083143 14.531588
1514 3 10.169003 9.723900 11.786072
1515 3 9.943789 10.484832 13.146428
1516 2 5.102155 20.204639 12.347077
1517 3 2.905136 19.209713 11.899828
1518 3 3.303569 17.741023 12.893401
1519 2 21.896559 13.620850 4.626273
1520 3 22.334191 12.879942 5.901638
1521 3 23.010395 12.973775 5.000730
1522 2 19.671115 13.137219 15.271317
1523 3 20.074347 11.905836 16.069503
1524 3 19.064984 13.167185 15.178671
1525 2 18.264549 20.344262 1.793784
1526 3 18.969215 20.379559 1.289329
1527 3 18.568733 20.929532 1.961471
1528 2 32.617216 22.126386 11.568751
1529 3 32.082515 22.680069 11.466326
1530 3 33.031538 22.496392 12.214990
1531 2 28.751242 23.812609 13.311040
1532 3 28.424242 23.764559 14.015287
1533 3 28.233902 24.795270 14.874753
1534 2 31.270556 19.369367 14.736610
1535 3 30.639716 19.535151 15.006418
1536 3 32.259619 18.982586 14.049815
1537 2 22.898751 17.186278 16.543220
1538 3 21.513612 16.442136 15.737247
1539 3 22.955651 16.257039 18.283850
1540 2 23.524215 20.109363 14.091761
1541 3 23.374003 20.132165 12.776383
1542 3 23.598854 19.860814 13.298528
1543 2 26.683032 22.514723 12.039422
1544 3 26.651197 20.671860 13.210575
1545 3 25.803523 22.260175 12.118015
1546 2 4.301066 19.248472 5.510947
1547 3 3.766721 20.756073 6.387684
1548 3 5.003979 21.259889 5.925271
1549 2 12.785969 29.691399 12.351184
1550 3 11.750236 29.577517 14.398689
1551 3 12.340657 29.378448 14.119439
1552 2 0.649710 22.034381 36.471517
1553 3 1.991473 21.603586 36.937977
1554 3 1.429407 20.581541 35.463136
1555 2 10.504522 25.778090 8.987045
1556 3 11.129594 26.649758 6.522567
1557 3 12.232436 26.542126 7.608194
1558 2 13.711782 18.011605 18.888504
1559 3 13.643105 19.132655 17.842621
1560 3 12.887120 19.676353 20.044286
1561 2 5.301870 14.467352 23.777897
1562 3 6.128494 16.466722 22.269270
1563 3 5.191765 14.305050 24.609025
1564 2 26.272658 29.776554 12.582724
1565 3 27.443569 28.384195 12.820496
1566 3 26.631802 27.567517 14.189893
1567 2 20.148609 36.784781 12.221248
1568 3 19.887018 39.208252 11.633005
1569 3 20.374794 38.849093 11.753311
1570 2 3.643454 26.010426 13.585601
1571 3 2.865976 25.232056 15.918165
1572 3 3.569826 26.985619 14.680632
1573 2 10.875759 33.366217 5.550005
1574 3 11.611600 31.786844 3.656563
1575 3 11.263634 31.823365 4.123728
1576 2 16.649109 21.045386 -1.181528
1577 3 16.811428 20.109025 -2.224924
1578 3 17.337909 20.602493 -0.643971
1579 2 36.568264 14.632165 15.120194
1580 3 37.652098 15.899270 15.356752
1581 3 36.837630 15.190473 14.288976
1582 2 33.309334 16.557384 19.149714
1583 3 33.496871 17.145919 18.274916
1584 3 33.121704 17.545757 18.347243
1585 2 14.149896 34.074009 7.581176
1586 3 13.565604 32.906189 6.775159
1587 3 14.161447 34.333184 5.757659
1588 2 15.675430 24.850346 20.904518
1589 3 17.011015 25.074257 21.543129
1590 3 15.088406 24.927832 21.866020
1591 2 5.116409 6.737006 19.164969
1592 3 5.838842 7.608624 18.745940
1593 3 6.579736 6.579702 17.921036
1594 2 3.314537 26.806033 11.486927
1595 3 2.633746 24.993297 14.298624
1596 3 3.258340 26.003692 10.900443
1597 2 21.594207 41.052990 10.905248
1598 3 21.358000 40.915638 11.117436
1599 3 20.295340 41.507856 11.802061
1600 2 9.212969 15.171346 14.255050
1601 3 10.361452 13.786202 13.829395
1602 3 9.893415 14.461113 13.803126
1603 2 17.471647 8.003065 3.009451
1604 3 17.557925 7.415980 5.618974
1605 3 17.922745 6.976260 3.260590
1606 2 27.382156 20.888443 12.245755
1607 3 27.763405 21.723339 11.293237
1608 3 29.507916 20.860946 11.778613
1609 2 28.653946 32.038266 16.215145
1610 3 30.088175 32.766140 18.065297
1611 3 28.957044 32.135159 17.793562
1612 2 32.339653 35.821141 14.438211
1613 3 32.388440 34.631289 14.353315
1614 3 32.367108 36.438275 13.777317
1615 2 25.130659 29.718535 4.384405
1616 3 24.507722 28.804212 4.310629
1617 3 24.400950 30.632182 3.559434
1618 2 27.730993 36.355484 16.868648
1619 3 27.717004 38.279787 16.493338
1620 3 28.508077 39.593198 14.714384
1621 2 26.948900 40.140109 26.026585
1622 3 28.202493 39.870102 24.533359
1623 3 26.697664 40.814209 26.945692
1624 2 4.910556 26.979173 14.594324
1625 3 5.247445 27.300924 14.308322
1626 3 5.335608 26.726912 14.894728
1627 2 -4.742563 19.605156 22.070208
1628 3 -5.719707 20.875261 23.904475
1629 3 -5.225704 21.271608 20.141421
1630 2 0.641916 24.961189 3.482635
1631 3 2.036949 23.840985 4.315772
1632 3 1.235711 23.978368 4.725479
1633 2 7.169874 13.652222 12.458252
1634 3 7.193194 14.703420 13.061036
1635 3 6.089687 14.428216 12.485295
1636 2 17.093450 35.849930 20.815849
1637 3 16.625093 35.467402 19.134013
1638 3 16.816575 35.670005 18.649543
1639 2 27.360129 23.374940 15.215088
1640 3 26.829643 22.392507 14.779265
1641 3 27.322607 22.235303 14.705830
1642 2 15.700487 14.712815 19.400521
1643 3 16.718737 14.678486 20.358315
1644 3 16.329070 15.134448 22.011708
1645 2 21.531638 27.345450 12.041914
1646 3 21.630494 26.912810 11.324044
1647 3 22.801624 25.804974 12.696462
1648 2 41.401175 32.235739 17.968996
1649 3 41.432705 32.689058 17.943001
1650 3 41.551730 30.558531 17.789904
1651 2 36.091764 27.671601 13.976036
1652 3 36.038997 27.091925 13.730953
1653 3 35.260670 26.872429 13.253058
1654 2 19.148604 30.196481 18.019909
1655 3 20.829597 29.907070 19.862214
1656 3 18.763650 29.615397 18.556505
1657 2 25.229882 32.262205 9.096825
1658 3 25.095465 32.204003 9.294384
1659 3 25.524750 32.935869 9.968874
1660 2 29.561743 44.984820 21.744002
1661 3 28.969907 46.078236 21.786887
1662 3 29.056210 45.584577 23.302545
1663 2 16.419468 30.116475 21.181742
1664 3 15.613691 29.564175 21.299678
1665 3 15.082097 30.696474 20.123555
1666 2 19.175500 9.332558 1.448850
1667 3 19.232703 9.606194 2.757483
1668 3 19.560661 10.141715 2.284155
1669 2 11.475590 25.124575 14.509573
1670 3 11.956958 25.532839 15.432976
1671 3 11.289358 25.197334 13.268075
1672 2 6.465180 29.771024 16.134812
1673 3 9.246571 28.164009 18.019551
1674 3 7.261968 29.976724 17.308831
1675 2 10.742515 24.162851 5.431360
1676 3 11.253894 24.292176 5.664398
1677 3 10.382779 23.982358 5.309448
1678 2 19.031647 35.910992 15.589701
1679 3 20.098065 36.358994 14.899660
1680 3 20.338545 37.412157 15.581725
1681 2 25.438233 34.653709 27.042933
1682 3 26.559698 33.350529 26.032679
1683 3 26.711480 33.609567 25.891704
1684 2 22.257602 34.604512 15.588351
1685 3 21.718181 34.978495 13.676358
1686 3 22.350870 34.265587 15.744809
1687 2 15.452813 24.843681 11.502577
1688 3 13.979398 24.472573 10.006761
1689 3 14.117920 24.741087 11.373470
1690 2 15.103639 30.853218 -0.207124
1691 3 14.902932 30.796000 1.015133
1692 3 15.736553 30.501277 1.410079
1693 2 37.177159 24.257184 4.915188
1694 3 36.756347 23.231584 5.391733
1695 3 36.587607 23.687162 4.150223
1696 2 20.588164 35.618820 9.645002
1697 3 21.412968 36.383623 7.677006
1698 3 21.059983 35.657778 8.939939
1699 2 39.068492 35.293227 6.688188
1700 3 39.056256 32.869328 5.846042
1701 3 37.819071 33.781025 8.391730
1702 2 0.757675 12.834561 8.963273
1703 3 -1.910748 12.568660 11.045669
1704 3 -0.048649 11.707264 9.502268
1705 2 -4.737438 10.973720 16.692348
1706 3 -5.161780 11.099375 17.318415
1707 3 -6.068663 10.285490 16.893673
1708 2 13.675368 0.810764 6.742353
1709 3 12.768896 0.987904 7.250029
1710 3 13.641016 0.823656 7.375393
1711 2 10.136378 11.207324 10.842923
1712 3 11.144583 10.751305 12.042649
1713 3 9.769920 9.935325 11.970832
1714 2 15.672544 16.032675 21.520743
1715 3 15.158442 15.947850 20.971214
1716 3 15.517019 17.616504 21.562034
1717 2 26.313029 9.038184 16.208802
1718 3 26.932173 8.229190 17.158794
1719 3 25.641165 9.242763 15.530834
1720 2 19.450646 7.881363 9.493720
1721 3 19.501826 8.373869 8.802494
1722 3 19.244585 7.640507 8.070731
1723 2 30.936753 -0.285276 15.131950
1724 3 31.895626 1.183686 14.133171
1725 3 32.507800 -0.349189 13.585118
1726 2 14.946799 11.746833 0.229337
1727 3 16.607889 10.971972 2.585317
1728 3 16.349338 10.762322 2.595535
1729 2 26.739209 0.383507 0.936244
1730 3 27.474162 -0.699941 4.490684
1731 3 26.090637 -0.752726 2.730261
1732 2 30.496624 14.928815 14.270713
1733 3 31.607711 15.491313 12.787890
1734 3 32.524018 16.693685 15.045607
1735 2 20.643148 12.725239 13.202969
1736 3 19.679285 12.287384 13.913887
1737 3 18.888437 15.460200 13.915502
1738 2 30.058035 20.157000 8.551800
1739 3 30.746649 19.663975 9.781716
1740 3 29.507371 20.305393 9.994176
1741 2 2.120619 25.715671 14.115352
1742 3 3.470208 26.670866 15.508894
1743 3 4.080319 25.419594 14.752853
1744 2 9.833868 3.835075 3.213216
1745 3 10.160905 2.681709 3.698677
1746 3 11.632451 0.564060 2.965864
1747 2 11.788548 17.669511 12.246900
1748 3 10.835063 15.897917 12.012877
1749 3 11.738120 16.569231 12.113092
1750 2 20.784620 22.796249 19.114352
1751 3 20.251657 22.353752 19.858269
1752 3 20.799824 22.540096 18.898316
1753 2 20.431561 12.034624 11.204805
1754 3 21.290608 11.707398 11.556382
1755 3 19.288630 11.813550 11.839832
1756 2 9.507123 20.901671 6.399047
1757 3 11.871474 21.839303 6.304356
1758 3 10.170366 19.520754 5.873085
1759 2 17.692718 27.326185 11.574738
1760 3 18.529323 25.973997 11.296925
1761 3 18.047061 28.355624 7.897818
1762 2 27.402327 7.504117 12.643647
1763 3 27.142598 8.663164 13.696006
1764 3 26.201734 8.538324 12.838328
1765 2 14.166490 14.375388 17.573870
1766 3 13.853033 14.150029 16.971483
1767 3 14.941292 14.186227 17.634232
1768 2 24.995331 17.579854 23.085739
1769 3 25.002408 16.968300 22.009991
1770 3 25.266408 17.764244 24.233792
1771 2 18.068855 2.600119 9.080319
1772 3 17.663728 2.549253 11.056598
1773 3 18.356776 2.738396 8.735155
1774 2 33.825074 14.912860 22.925227
1775 3 33.437879 14.720592 25.074269
1776 3 34.255076 15.500592 24.078919
1777 2 40.038064 19.297220 18.785057
1778 3 41.013436 17.717680 19.262342
1779 3 42.177979 17.303310 19.498101
1780 2 13.999185 8.330622 10.199083
1781 3 14.630034 9.737798 9.251547
1782 3 13.545161 8.046643 10.530268
1783 2 9.089472 18.966005 3.891586
1784 3 8.999546 19.312335 3.799452
1785 3 9.571135 19.975971 4.765389
1786 2 12.842556 5.567532 13.456741
1787 3 11.847960 5.257297 12.915502
1788 3 13.546968 4.486349 13.946409
1789 2 11.253147 22.150400 16.634747
1790 3 11.024857 21.879098 16.774577
1791 3 11.017264 22.269850 16.906821
1792 2 23.715950 19.926788 7.884995
1793 3 24.409523 18.786439 7.277313
1794 3 23.951830 19.017313 6.075367
1795 2 22.840053 21.654502 8.901897
1796 3 22.716066 23.274876 9.204364
1797 3 22.714292 21.457000 7.135598
1798 2 7.078561 19.153580 18.537169
1799 3 5.879337 17.782383 19.461898
1800 3 7.643910 17.345873 18.604193
1801 2 20.780471 24.981701 16.413441
1802 3 22.921205 25.159624 17.937469
1803 3 20.279088 25.558729 17.436874
1804 2 25.573653 -3.465441 24.007615
1805 3 27.164763 -3.552865 24.325467
1806 3 26.231563 -3.495076 24.472139
1807 2 21.320303 -3.084668 6.604939
1808 3 21.729978 -2.843441 6.559337
1809 3 22.390157 -3.170485 5.260966
1810 2 31.082475 11.774984 0.171170
1811 3 30.813228 11.288527 0.115797
1812 3 31.848698 11.157441 -0.012376
1813 2 22.413125 4.957632 5.198955
1814 3 22.873597 3.918392 5.619209
1815 3 22.503119 4.735068 5.856552
1816 2 14.318445 16.374854 13.716271
1817 3 14.721344 16.474322 12.110648
1818 3 14.392636 15.108021 12.650428
1819 2 4.015575 2.263165 27.809081
1820 3 3.532257 2.165130 27.694843
1821 3 4.059323 2.245794 28.454874
1822 2 3.709143 13.893280 21.331005
1823 3 2.260349 13.847628 22.657787
1824 3 3.835976 12.684546 22.789317
1825 2 13.316476 18.045997 20.035020
1826 3 13.905931 18.440139 20.250272
1827 3 14.141417 18.548761 19.403723
1828 2 11.140029 18.980151 1.661109
1829 3 11.549677 19.947707 0.874898
1830 3 10.537684 20.167908 2.208155
1831 2 29.517481 12.198321 12.359305
1832 3 28.208245 10.884830 15.268614
1833 3 29.528502 10.175876 15.189879
1834 2 9.337890 17.798385 15.937162
1835 3 10.221693 18.931674 17.272523
1836 3 9.966109 17.601666 15.788401
1837 2 21.874674 12.421965 9.726504
1838 3 21.827867 12.038831 9.917147
1839 3 22.057620 11.116283 10.029183
1840 2 25.801467 21.526379 -1.104773
1841 3 24.545932 19.483705 -0.886482
1842 3 25.568346 19.917361 -0.024049
1843 2 15.232687 13.023451 13.342250
1844 3 13.676860 10.328008 13.225643
1845 3 14.682441 12.160453 12.494379
1846 2 8.652129 20.006554 7.360075
1847 3 5.839756 19.023121 7.276322
1848 3 5.104275 19.479755 6.460563
1849 2 20.096529 19.339734 9.525288
1850 3 19.387817 18.785385 12.192507
1851 3 20.233968 18.877435 9.756603
1852 2 26.674013 8.275538 17.042974
1853 3 26.933974 7.615023 18.035749
1854 3 27.509696 8.813613 18.765425
1855 2 34.443047 12.426158 17.765942
1856 3 34.145050 11.040667 17.749398
1857 3 33.522637 12.209529 16.762152
1858 2 17.521612 25.691069 18.939014
1859 3 17.951743 26.472926 19.757865
1860 3 17.590061 26.654316 19.902655
1861 2 2.677101 17.705403 15.533221
1862 3 2.961408 17.088331 15.682389
1863 3 3.990778 17.705722 14.591022
1864 2 4.635806 18.859341 15.138015
1865 3 3.726717 18.755538 16.835702
1866 3 4.355269 18.987621 14.598060
1867 2 7.969374 14.791687 25.845078
1868 3 7.230295 13.400081 25.144322
1869 3 8.822995 13.526955 23.156024
1870 2 18.154266 11.209045 14.043680
1871 3 17.556668 12.057618 11.343855
1872 3 17.479079 9.330845 10.830691
1873 2 16.857872 28.510405 25.047078
1874 3 15.910810 29.211033 23.139546
1875 3 16.685546 31.289799 24.026058
1876 2 4.562575 26.391501 17.792769
1877 3 3.670764 25.961033 17.725633
1878 3 5.202975 25.519985 18.439247
1879 2 38.194355 21.522157 29.769561
1880 3 36.848143 21.468495 30.065578
1881 3 36.657147 21.838272 29.297402
1882 2 22.510568 8.103872 17.787332
1883 3 21.503338 8.254277 19.256219
1884 3 22.154052 8.089710 18.327610
1885 2 10.417399 14.442637 19.656646
1886 3 9.904809 15.210711 20.286881
1887 3 9.764313 15.112792 21.550639
1888 2 24.987887 20.691182 23.746154
1889 3 24.631056 20.156068 22.481960
1890 3 26.490285 19.770322 23.565783
1891 2 26.732455 34.663331 10.135687
1892 3 25.809452 32.839992 10.730972
1893 3 26.600148 34.631813 10.558032
1894 2 14.610139 7.899384 19.675128
1895 3 14.012376 7.999006 20.885829
1896 3 14.605291 6.705276 20.514260
1897 2 15.738605 12.914346 8.011549
1898 3 15.768212 12.194412 9.473241
1899 3 14.960246 13.539884 10.449886
1900 2 11.459004 10.021883 22.183145
1901 3 12.242723 7.885324 21.881053
1902 3 10.832249 8.159553 22.206470
1903 2 14.585823 23.704832 9.157775
1904 3 15.506535 21.377541 7.762265
1905 3 14.479305 23.261688 6.982215
1906 2 7.781759 15.298176 10.290556
1907 3 7.011395 14.301851 11.529162
1908 3 7.940433 14.893433 12.031913
1909 2 35.648440 9.919790 16.299336
1910 3 37.283397 10.018305 14.261149
1911 3 36.566588 10.778311 15.890322
1912 2 13.657716 16.336656 -1.170307
1913 3 12.941486 16.658051 -1.876318
1914 3 13.467469 16.413789 -0.944054
1915 2 19.626052 17.118749 7.058397
1916 3 20.594326 17.343637 7.214939
1917 3 18.794483 17.600237 9.027715
1918 2 19.880153 16.442782 20.437079
1919 3 20.555499 15.820887 20.168507
1920 3 18.141904 16.442170 19.340518
1921 2 26.033804 23.718707 13.545341
1922 3 25.020765 23.671052 15.387168
1923 3 25.150957 24.606893 13.926400
1924 2 7.123660 21.950147 3.728672
1925 3 7.546609 22.201503 2.345903
1926 3 7.311966 21.151431 2.067455
1927 2 5.533647 13.810610 15.875172
1928 3 5.027576 12.633410 16.762323
1929 3 5.225770 14.176400 15.170769
1930 2 21.180631 15.348558 11.539433
1931 3 22.845376 14.513743 10.228625
1932 3 22.583155 15.559437 12.036824
1933 2 24.014649 19.539225 21.081482
1934 3 24.475131 18.509734 20.835202
1935 3 24.384217 19.203393 19.870508
1936 2 15.528044 19.869516 22.415184
1937 3 15.436771 18.598764 22.561737
1938 3 14.333513 18.860954 23.296193
1939 2 22.784361 15.571482 8.154754
1940 3 22.201717 16.062713 6.837844
1941 3 21.472156 17.209888 7.307543
1942 2 30.796657 21.680083 4.989361
1943 3 29.664155 22.579399 5.402663
1944 3 29.918663 22.468580 5.513244
1945 2 33.147685 14.043467 16.920847
1946 3 32.702789 13.051700 18.194641
1947 3 32.218284 11.890285 17.818311
1948 2 -2.948498 7.207285 17.749994
1949 3 -4.307790 7.648238 17.960565
1950 3 -3.836314 7.806425 18.830605
1951 2 20.011539 17.844172 18.210648
1952 3 21.126135 18.936863 17.335414
1953 3 20.418837 17.661046 18.434437
1954 2 18.580869 30.224440 9.832073
1955 3 17.491949 30.472193 8.483561
1956 3 18.487626 30.443313 10.017388
1957 2 18.659504 28.640423 22.957430
1958 3 17.234115 30.234077 22.447937
1959 3 18.374305 27.787781 24.859910
1960 2 21.040870 24.659904 22.171934
1961 3 21.034525 26.015708 21.714015
1962 3 20.910536 23.853594 21.329870
1963 2 1.754608 31.296311 11.893803
1964 3 2.075750 30.396593 12.992142
1965 3 1.569751 32.315794 12.472002
1966 2 20.253032 19.968268 5.991892
1967 3 20.183485 19.061662 6.030123
1968 3 20.948109 19.100965 5.184424
1969 2 27.730658 12.488079 10.891460
1970 3 28.524895 12.105254 10.176908
1971 3 27.195449 14.480888 9.601015
1972 2 34.731885 26.583253 21.376526
1973 3 35.101264 27.208029 19.638797
1974 3 34.581493 26.476598 19.828158
1975 2 36.738172 14.788705 -4.868413
1976 3 38.251658 13.864924 -5.602268
1977 3 36.986559 14.908510 -5.312774
1978 2 3.971412 12.037535 2.101163
1979 3 5.302680 13.333453 1.579829
1980 3 5.374021 12.293162 1.967039
1981 2 4.080578 9.081888 10.774735
1982 3 4.138120 9.875984 10.584929
1983 3 5.462135 8.364602 9.281328
1984 2 10.176224 21.629903 15.287028
1985 3 9.593727 23.349913 15.350603
1986 3 10.046016 23.333566 17.007652
1987 2 7.424638 22.604106 17.516503
1988 3 8.268770 24.247966 16.553051
1989 3 8.324041 22.983571 17.646628
1990 2 13.972236 13.997781 8.444589
1991 3 12.876708 11.865641 9.654724
1992 3 13.588524 13.560743 9.118172
1993 2 23.041687 33.373287 16.212031
1994 3 23.175729 34.113698 18.022558
1995 3 23.180793 33.787703 15.342215
1996 2 12.209543 27.823261 16.869642
1997 3 13.622520 27.747549 17.348861
1998 3 12.881909 27.926228 17.553651
1999 2 24.314604 20.407194 21.388698
2000 3 25.896363 20.296388 21.900829
2001 3 24.576311 19.942161 22.282304
2002 2 19.421082 27.745485 17.129652
2003 3 17.552594 25.878796 16.551141
2004 3 18.452169 25.133302 16.331252
2005 2 21.266007 27.202078 19.810767
2006 3 22.489765 28.312267 19.094432
2007 3 20.679153 29.018220 19.849896
2008 2 24.459105 15.254141 25.434797
2009 3 25.041501 14.583970 26.551703
2010 3 23.906525 16.146618 26.427233
2011 2 24.957375 29.804958 28.241220
2012 3 26.968838 30.131106 27.920577
2013 3 24.497049 29.283947 28.072175
2014 2 30.126281 18.349601 20.944935
2015 3 29.129581 18.060576 19.859155
2016 3 30.132610 18.546853 19.750299
2017 2 1.157696 18.804361 16.858368
2018 3 0.548530 20.595735 15.836799
2019 3 3.347426 18.940019 15.239101
2020 2 7.950539 33.029914 16.687644
2021 3 7.420361 34.097044 16.197341
2022 3 7.787629 34.953353 15.024039
2023 2 8.964358 23.471847 3.357676
2024 3 8.104913 23.513552 3.665618
2025 3 7.817147 23.982983 5.476510
2026 2 14.392975 14.903348 19.455160
2027 3 16.447562 14.208145 20.144549
2028 3 15.320864 14.538251 19.960647
2029 2 35.953109 12.144125 16.280328
2030 3 36.572111 12.246179 17.433419
2031 3 34.964053 13.931878 15.998330
2032 2 15.692929 19.948253 14.555038
2033 3 16.361589 20.617843 14.033901
2034 3 17.233073 20.587777 16.572458
2035 2 23.735128 38.324154 15.430341
2036 3 23.818730 36.765574 16.387112
2037 3 23.693632 38.334101 15.518347
2038 2 19.212110 17.574055 16.390119
2039 3 19.393016 17.185191 17.153847
2040 3 19.379486 18.546399 17.863496
2041 2 23.707188 20.218321 10.590158
2042 3 24.087903 21.281058 10.270356
2043 3 23.471909 20.566958 12.600424
2044 2 33.329655 12.778800 0.341676
2045 3 34.721824 11.932806 -0.710760
2046 3 33.817947 11.265316 1.028406
2047 2 13.509987 9.524831 24.703107
2048 3 14.180367 9.580570 26.342844
2049 3 13.345658 8.135625 24.698947
2050 2 34.149245 33.991188 16.038541
2051 3 33.033362 33.696393 16.996193
2052 3 32.920334 34.423400 15.810774
2053 2 27.863608 26.521266 18.628662
2054 3 28.048041 26.210145 19.814873
2055 3 27.136445 27.707380 18.695808
2056 2 5.431105 23.945227 14.606487
2057 3 5.386370 22.854041 14.340465
2058 3 5.530614 24.090177 14.856826
2059 2 6.898187 14.906604 0.400292
2060 3 7.359614 14.229757 1.202569
2061 3 7.582201 15.887085 1.740168
2062 2 10.321223 28.841496 20.921601
2063 3 11.723181 28.683957 20.290396
2064 3 11.913662 28.808418 20.650133
2065 2 15.943554 11.150714 8.358583
2066 3 15.115141 11.427602 9.030727
2067 3 15.734850 10.672241 8.714491
2068 2 16.789097 11.639236 13.813316
2069 3 16.224843 10.835170 12.206238
2070 3 16.926456 11.313621 10.562503
2071 2 23.666454 17.148799 27.116470
2072 3 23.549411 18.456878 26.772763
2073 3 23.645126 18.596647 25.937753
2074 2 16.596429 47.454643 13.096413
2075 3 15.874763 46.203388 14.581507
2076 3 16.085875 45.615493 14.668999
2077 2 27.132785 28.757222 18.228237
2078 3 28.114131 29.038916 18.413572
2079 3 27.340413 28.985163 17.318324
2080 2 30.479161 31.379528 12.288930
2081 3 29.277727 31.057804 11.609155
2082 3 30.507111 29.848330 13.366826
2083 2 29.759746 18.310959 8.568373
2084 3 29.136443 18.172572 9.519411
2085 3 29.540019 18.831564 9.600821
2086 2 24.759605 26.224517 20.826968
2087 3 25.944617 25.345901 21.810892
2088 3 25.727310 23.917842 21.194628
2089 2 41.267294 28.497937 5.764886
2090 3 40.798521 27.689221 7.092308
2091 3 41.703885 27.573973 5.439990
2092 2 35.826609 32.568178 23.708396
2093 3 36.430138 31.306211 23.784429
2094 3 36.067929 30.334021 23.049926
2095 2 3.426047 26.953313 30.144891
2096 3 1.746374 27.700008 28.404125
2097 3 2.694509 25.923934 30.353904
2098 2 6.416546 22.528162 7.078956
2099 3 7.005282 23.133154 6.547550
2100 3 7.125934 23.894067 9.305249
2101 2 9.429630 31.115375 16.152013
2102 3 8.722111 31.428671 15.350063
2103 3 9.115041 30.277140 15.494200
2104 2 16.443470 20.236310 10.104832
2105 3 15.851256 20.285090 12.153392
2106 3 16.149096 20.542899 9.385642
2107 2 16.366073 13.988933 14.912417
2108 3 14.944577 13.630365 16.778067
2109 3 15.792948 15.377668 15.473934
2110 2 25.629576 48.705304 7.069710
2111 3 25.743585 47.236506 7.767467
2112 3 24.874064 47.008538 7.446955
2113 2 33.573603 21.011966 14.968500
2114 3 33.543115 22.542720 15.890819
2115 3 33.834856 22.001926 14.124833
2116 2 25.018694 38.439873 17.336193
2117 3 24.109300 38.165005 18.113566
2118 3 24.179627 38.195111 16.403398
2119 2 5.220256 36.210621 4.591432
2120 3 5.790566 35.830229 3.740687
2121 3 4.246398 36.358536 4.237588
2122 2 28.964693 23.862813 16.914921
2123 3 29.691289 24.727141 18.031232
2124 3 27.972769 24.567131 17.975348
2125 2 32.640065 48.138762 18.883989
2126 3 33.286458 50.887915 18.154214
2127 3 31.614868 47.833542 18.637029
2128 2 26.747654 22.392782 18.359550
2129 3 26.128219 22.889478 19.182491
2130 3 25.940228 23.357221 19.070060
2131 2 47.071269 14.252027 9.957497
2132 3 47.633961 16.175673 8.769304
2133 3 48.295774 16.670718 10.329425
2134 2 -0.932914 40.730821 10.565336
2135 3 0.005964 42.409364 9.845706
2136 3 -0.944439 42.770945 9.601156
2137 2 6.942220 33.914532 7.988690
2138 3 8.624941 33.144520 8.682300
2139 3 6.541966 35.118849 8.806503
2140 2 15.820154 25.585260 13.181995
2141 3 14.844079 24.248513 12.888336
2142 3 15.388349 26.576715 11.913452
2143 2 12.193729 39.397032 2.455392
2144 3 12.643976 39.980776 4.907574
2145 3 11.540518 39.244011 2.931546
2146 2 19.260843 38.617471 8.916615
2147 3 18.893984 36.919036 7.345860
2148 3 18.542256 38.354165 8.392245
2149 2 0.813640 35.997554 13.435209
2150 3 2.895749 34.841642 15.716471
2151 3 1.298988 36.802883 14.255054
2152 2 25.407946 18.644165 -3.261720
2153 3 26.431168 18.608449 -5.491103
2154 3 26.009927 19.214667 -1.774414
2155 2 15.983619 26.812970 10.049777
2156 3 15.616015 25.379048 10.472406
2157 3 16.609931 25.596453 10.241243
2158 2 17.134691 31.898861 16.773732
2159 3 17.335314 33.707040 16.674347
2160 3 17.139540 33.325888 16.394503
2161 2 19.441636 13.206314 13.282667
2162 3 19.050575 14.983931 12.546595
2163 3 18.933297 13.077621 15.495500
2164 2 17.237315 38.051729 22.182634
2165 3 18.794171 40.417848 20.948137
2166 3 17.738126 37.892601 21.115429
2167 2 32.694145 34.647455 19.460687
2168 3 32.481071 32.942185 19.045124
2169 3 31.835023 33.677339 19.383590
2170 2 28.263874 18.953614 14.811627
2171 3 29.043834 18.669046 16.132384
2172 3 29.261658 17.912470 14.790094
2173 2 11.081081 14.336349 19.951905
2174 3 9.168241 14.662089 17.414107
2175 3 10.546087 13.577216 19.243892
2176 2 4.234803 9.928677 27.715178
2177 3 5.220550 10.157798 26.987652
2178 3 3.888037 9.500611 29.001030
2179 2 10.977872 9.294752 35.884663
2180 3 9.283557 9.717163 36.376556
2181 3 9.957634 10.038120 37.120001
2182 2 17.475955 14.175035 18.544388
2183 3 17.421556 13.293229 16.414942
2184 3 16.295679 14.265020 16.507451
2185 2 8.338106 14.888902 16.942477
2186 3 7.727572 13.250767 15.473377
2187 3 7.876740 14.250048 16.081740
2188 2 17.751647 7.363193 18.345446
2189 3 16.240740 6.867559 16.421675
2190 3 16.320867 7.079285 15.210851
2191 2 20.513326 8.111946 29.712396
2192 3 20.688216 8.185371 28.310671
2193 3 19.359882 9.112675 29.499031
2194 2 10.415926 15.162860 12.072914
2195 3 10.143823 16.356536 13.923230
2196 3 10.323821 14.942475 13.509862
2197 2 31.686153 13.274327 24.046271
2198 3 30.263992 12.612244 24.389280
2199 3 31.097497 12.045022 21.519340
2200 2 17.155794 24.969726 9.448686
2201 3 18.029487 24.906781 7.840043
2202 3 16.905618 24.932654 8.686266
2203 2 15.768211 10.855336 27.945122
2204 3 17.428094 9.577381 27.542319
2205 3 15.924313 11.859105 27.448278
2206 2 30.840532 6.468683 14.188686
2207 3 32.150847 5.316593 14.721100
2208 3 31.074591 6.032388 17.221599
2209 2 25.962859 15.184794 19.599505
2210 3 26.145941 14.231767 18.973726
2211 3 25.354751 14.062761 19.666385
2212 2 11.995553 14.648912 18.713834
2213 3 12.745086 15.756656 17.693152
2214 3 13.607492 14.908825 18.895829
2215 2 12.685244 8.459400 3.862706
2216 3 12.464611 8.461243 3.726228
2217 3 10.480794 7.980592 5.381646
2218 2 6.086975 18.015542 3.784081
2219 3 8.120889 18.090707 4.520122
2220 3 7.786863 18.878631 4.423365
2221 2 12.629786 18.089473 14.872118
2222 3 12.458058 19.666087 15.119620
2223 3 12.716540 18.357340 14.674978
2224 2 7.117075 10.009655 11.615394
2225 3 7.770716 8.473832 11.135255
2226 3 6.907153 9.340555 9.875748
2227 2 15.282083 0.588411 9.744613
2228 3 15.522137 0.701917 10.263235
2229 3 14.663349 0.025429 7.707581
2230 2 17.600450 7.379436 18.585855
2231 3 18.761027 7.629002 18.201148
2232 3 17.967050 7.219591 18.735892
2233 2 38.261269 8.742630 11.062073
2234 3 39.520767 8.693091 11.989538
2235 3 39.849476 8.561331 11.505709
2236 2 16.628784 9.560975 29.923100
2237 3 17.378144 7.016007 31.422247
2238 3 16.610686 9.612965 29.261048
2239 2 10.593412 26.649398 18.336711
2240 3 11.489925 26.128551 19.466437
2241 3 11.258697 26.303793 18.580186
2242 2 17.575753 7.945182 16.582548
2243 3 17.295709 7.276907 15.778280
2244 3 16.352867 7.243711 17.427812
2245 2 30.746318 14.490424 23.378502
2246 3 30.241705 12.726104 22.956258
2247 3 29.723957 13.658590 23.606735
2248 2 35.603407 3.525480 26.540313
2249 3 34.422670 5.186711 25.591160
2250 3 34.065812 5.354352 26.084265
2251 2 5.522137 7.287972 29.350122
2252 3 5.161903 7.847743 28.627590
2253 3 4.250479 7.410840 29.944336
2254 2 -12.043406 14.792900 9.825099
2255 3 -9.599247 15.440403 10.822683
2256 3 -11.619992 14.548662 10.523226
2257 2 19.350929 8.320784 14.092204
2258 3 19.435867 9.079324 14.996874
2259 3 18.705935 8.253092 14.384397
2260 2 4.016780 20.009809 13.110986
2261 3 5.602754 20.945673 14.484779
2262 3 3.828046 18.994097 13.278703
2263 2 17.819054 16.990268 11.890842
2264 3 18.804815 15.556848 10.942544
2265 3 18.307971 15.763512 13.251629
2266 2 10.344394 14.439520 13.676465
2267 3 9.744571 13.229012 13.512411
2268 3 10.154773 13.471227 12.345738
2269 2 18.889123 9.101505 6.935395
2270 3 17.557606 10.648017 7.979325
2271 3 18.750237 9.239220 8.036838
2272 2 20.631954 14.886562 7.746964
2273 3 20.955358 14.239305 7.510905
2274 3 20.552188 14.703178 7.859265
2275 2 19.660772 2.968169 18.509497
2276 3 18.673959 3.711025 18.548966
2277 3 20.561841 5.084792 19.321388
2278 2 19.764760 13.939371 18.687801
2279 3 18.857315 14.929009 16.619834
2280 3 18.460144 14.873479 17.661123
2281 2 17.343816 12.199812 21.014129
2282 3 16.649942 12.207678 19.695105
2283 3 15.861471 13.663934 21.282407
2284 2 33.024488 12.288095 31.434190
2285 3 31.488086 12.190808 32.864399
2286 3 32.295750 10.675122 30.099864
2287 2 16.328154 7.118341 17.621812
2288 3 15.277622 7.552737 18.215618
2289 3 16.534853 8.579229 17.989443
2290 2 2.438488 15.789748 27.721788
2291 3 2.126527 16.846808 29.603898
2292 3 2.557743 15.378283 29.247620
2293 2 16.077197 27.114266 27.875361
2294 3 15.693064 26.448842 28.879927
2295 3 15.355067 26.838600 28.723214
2296 2 -0.374698 7.052733 16.378311
2297 3 0.059966 8.433895 15.762939
2298 3 -0.382091 8.039554 17.724313
2299 2 8.493067 2.841105 -0.462051
2300 3 9.219216 2.378630 -2.036823
2301 3 9.746852 4.063125 -1.132817
2302 2 13.634270 4.531154 14.874985
2303 3 13.023718 4.772819 14.850632
2304 3 13.372084 5.710444 14.827586
2305 2 28.553419 6.912524 15.555723
2306 3 29.088557 6.289350 17.295615
2307 3 28.706456 5.743839 15.467544
2308 2 22.866416 5.216953 16.049458
2309 3 22.941319 5.247033 16.144818
2310 3 23.154388 3.495212 15.055893
2311 2 20.071427 -0.522140 20.922457
2312 3 19.002947 -1.037527 20.440580
2313 3 18.897757 -1.429568 20.315929
2314 2 20.351148 1.552216 8.827457
2315 3 20.346750 1.862302 8.427206
2316 3 20.771378 1.505095 7.326758
2317 2 22.042114 6.022441 26.508030
2318 3 22.181432 7.247544 27.212815
2319 3 22.034741 6.325825 26.198729
2320 2 29.525887 24.013921 22.180742
2321 3 29.306319 24.673399 21.213908
2322 3 28.520403 24.295951 22.128089
2323 2 18.228711 17.585659 21.265927
2324 3 16.987940 16.231087 21.060883
2325 3 16.591668 15.920433 20.005087
2326 2 10.292493 13.535805 12.786857
2327 3 11.647013 14.495097 12.006286
2328 3 10.057258 11.822065 11.851530
2329 2 11.280298 27.980738 21.647631
2330 3 9.837613 29.832073 20.097127
2331 3 10.914812 28.961316 21.851617
2332 2 9.170570 10.190949 13.628512
2333 3 8.459787 10.254558 13.337186
2334 3 9.495575 9.873619 14.452671
2335 2 23.105520 17.007455 17.538328
2336 3 21.539724 16.450500 18.174515
2337 3 23.097989 16.282003 18.742756
2338 2 31.344628 23.505905 18.648208
2339 3 31.011130 23.627720 18.562363
2340 3 30.341003 24.779683 18.893859
2341 2 33.805337 5.928367 38.422461
2342 3 33.084047 8.679704 37.169374
2343 3 34.044688 9.414788 34.933483
2344 2 20.110165 31.814130 12.874464
2345 3 19.789607 32.021019 13.038380
2346 3 19.372547 30.990655 14.004706
2347 2 25.256609 18.772450 20.227094
2348 3 24.039371 19.887517 20.337529
2349 3 24.570290 19.406936 19.766223
2350 2 35.527019 6.917569 7.098070
2351 3 35.772965 5.655035 5.881358
2352 3 35.455767 5.727231 8.706233
2353 2 19.225429 20.568918 23.689023
2354 3 19.672898 22.567496 22.250165
2355 3 19.751996 20.743216 22.010953
2356 2 33.027855 16.391185 15.078210
2357 3 33.419554 17.260239 13.799938
2358 3 32.917415 16.900179 14.099551
2359 2 9.768930 9.997006 26.702945
2360 3 9.722659 9.460994 27.100637
2361 3 8.604960 10.421166 27.743590
2362 2 1.115158 18.425941 24.981929
2363 3 1.746066 17.753870 23.058066
2364 3 3.049209 18.154285 22.618386
2365 2 27.280955 33.773864 25.390277
2366 3 27.497785 31.797873 23.267887
2367 3 27.217973 31.920731 24.402599
2368 2 24.002060 25.758403 4.278664
2369 3 25.001876 26.707374 5.798798
2370 3 24.357307 25.370967 5.355274
2371 2 8.071602 20.739970 12.587794
2372 3 8.164458 21.568890 12.694055
2373 3 7.138785 20.703402 12.826835
2374 2 -8.967667 45.405355 33.272098
2375 3 -9.801176 44.936257 33.406971
2376 3 -9.021482 45.591824 32.987773
2377 2 27.794878 27.159490 25.380044
2378 3 26.432817 27.124207 24.984165
2379 3 26.674012 27.210193 25.607321
2380 2 16.477928 25.823951 29.352011
2381 3 16.821926 25.998067 29.193408
2382 3 16.208868 25.750277 28.266204
2383 2 43.000797 20.359850 24.274531
2384 3 42.966678 19.034226 24.093091
2385 3 43.519703 19.477453 23.595167
2386 2 17.039213 27.452528 -7.256568
2387 3 16.983553 28.603097 -7.113198
2388 3 17.074243 26.651982 -9.823141
2389 2 20.934783 29.594105 12.047489
2390 3 20.959060 28.890317 11.120956
2391 3 20.710108 29.578308 11.068260
2392 2 8.604472 14.278222 21.779168
2393 3 7.834266 14.637514 20.453393
2394 3 7.508842 14.294855 19.502083
2395 2 4.394512 25.025602 -2.057011
2396 3 5.030303 24.971885 -1.873511
2397 3 4.932970 24.540841 -1.970503
2398 2 28.033991 18.721812 16.489391
2399 3 27.232994 18.742768 18.528392
2400 3 27.716020 18.270797 18.702158
2401 2 24.657404 28.560996 20.717267
2402 3 25.485591 29.623005 21.774315
2403 3 24.670826 27.936667 19.330762
2404 2 24.412278 29.000801 11.880895
2405 3 23.261647 28.569137 12.636367
2406 3 23.961514 28.099467 10.089870
2407 2 34.727180 34.886102 16.165856
2408 3 35.199773 35.375862 15.355887
2409 3 34.609579 34.267662 15.114666
2410 2 20.439726 33.451195 29.893893
2411 3 20.926523 31.910925 30.289039
2412 3 20.462407 33.284929 31.273300
2413 2 35.116604 36.880560 6.634693
2414 3 34.962693 36.667941 7.098282
2415 3 35.040159 37.896727 4.724721
2416 2 13.896788 25.667502 19.012435
2417 3 13.897129 24.494260 17.950929
2418 3 14.058917 24.101092 19.003489
2419 2 20.601818 22.289372 21.420629
2420 3 19.822021 22.131112 23.714578
2421 3 20.483828 23.154661 23.274730
2422 2 24.096549 22.417661 15.855165
2423 3 25.436378 21.145155 14.575362
2424 3 25.824692 21.706365 15.354007
2425 2 22.274760 10.577426 26.154799
2426 3 22.376104 11.496660 27.257906
2427 3 22.878550 12.347478 25.319501
2428 2 25.891103 22.277539 9.096043
2429 3 27.247385 21.039040 8.068159
2430 3 27.532068 20.616815 5.218029
2431 2 4.704406 36.465451 33.897196
2432 3 4.539877 36.481151 32.958437
2433 3 4.478949 36.790541 32.031938
2434 2 22.450683 28.253453 19.218712
2435 3 22.654458 28.836783 18.062643
2436 3 21.678981 27.851077 18.194613
2437 2 8.745955 11.197319 7.951692
2438 3 7.850594 12.875106 9.266648
2439 3 9.809444 10.907431 7.921304
2440 2 12.505194 25.571048 24.519467
2441 3 13.419149 24.217403 24.276323
2442 3 13.520197 25.806804 23.512409
2443 2 21.879529 24.042007 11.470887
2444 3 22.088873 22.685503 10.822815
2445 3 21.516224 22.500933 10.918050
2446 2 11.677322 28.825128 23.121048
2447 3 12.751065 28.990988 23.330336
2448 3 12.323480 28.627671 23.928021
2449 2 20.779303 36.481919 2.239407
2450 3 21.387540 36.273656 1.984704
2451 3 20.637262 35.715188 4.157496
2452 2 23.747254 31.059258 17.820150
2453 3 25.071786 29.931284 17.867759
2454 3 24.536307 31.593934 18.559561
2455 2 18.666304 19.803537 14.319406
2456 3 18.316675 21.197132 15.253887
2457 3 17.592396 21.257999 15.111174
2458 2 32.979177 25.976242 6.448725
2459 3 32.492281 26.986745 6.783887
2460 3 32.307988 26.484774 8.133946
2461 2 28.264630 31.059672 15.786482
2462 3 28.622152 29.815219 15.647618
2463 3 26.948348 30.887151 15.977030
2464 2 12.826400 26.349790 6.163333
2465 3 13.142637 28.257475 6.346166
2466 3 12.877694 27.299893 5.332229
2467 2 5.265774 20.669103 28.306320
2468 3 5.536157 23.588401 27.969802
2469 3 5.938898 21.905659 27.630431
2470 2 20.719362 34.972206 19.947062
2471 3 20.419406 34.191293 19.288582
2472 3 20.683632 35.060248 20.277733
2473 2 15.821500 30.189545 17.930784
2474 3 15.290391 31.585709 18.632554
2475 3 15.714577 31.794457 17.650421
2476 2 11.251796 27.932707 17.003589
2477 3 12.185511 28.754764 18.074517
2478 3 11.435564 27.618457 17.369131
2479 2 16.084776 37.503002 7.225497
2480 3 16.310623 37.185396 6.683549
2481 3 16.324040 38.455427 6.204454
2482 2 17.403985 27.316904 20.693449
2483 3 17.142916 26.897274 20.625676
2484 3 16.532869 27.013875 21.370535
2485 2 26.852548 19.287230 2.898039
2486 3 26.273456 18.665506 3.103419
2487 3 26.313012 18.829760 1.333394
2488 2 29.618573 12.607905 22.637501
2489 3 28.358171 13.933249 22.677362
2490 3 27.553612 13.886724 23.072986
2491 2 28.233767 31.182810 14.631804
2492 3 27.746319 31.060042 15.502592
2493 3 28.064901 31.657173 15.483182
2494 2 8.768060 30.204430 7.104170
2495 3 8.647359 31.645498 8.642604
2496 3 9.522111 30.463063 9.089758
2497 2 34.867806 21.336700 23.034416
2498 3 36.043480 19.616608 25.018103
2499 3 34.103258 21.880179 23.370093
2500 2 34.899147 16.346449 15.216443
2501 3 33.214016 15.052266 13.848272
2502 3 32.706390 14.828563 14.008188
2503 2 9.241957 39.989205 19.609561
2504 3 8.752518 40.823380 17.750907
2505 3 8.963479 40.968627 20.028741
2506 2 7.084597 21.420283 22.363217
2507 3 7.173736 22.916382 21.194433
2508 3 7.635438 22.942068 22.295296
2509 2 9.225492 25.628206 20.024332
2510 3 8.255028 24.477165 19.368540
2511 3 8.615028 25.034506 19.533618
2512 2 13.735062 28.138105 3.699426
2513 3 14.220006 30.182330 3.235612
2514 3 14.454169 28.438539 3.892025
2515 2 10.085645 20.571488 13.961127
2516 3 11.568535 19.667473 15.181632
2517 3 11.411035 19.841593 13.786324
2518 2 15.999496 24.407353 3.323502
2519 3 16.223046 24.868678 3.313190
2520 3 15.719901 24.177635 5.760671
2521 2 27.767248 25.186187 4.533290
2522 3 26.648419 25.421686 4.893252
2523 3 27.253738 26.314517 5.100200
2524 2 7.390035 35.113413 16.015122
2525 3 8.152078 35.051410 17.029313
2526 3 8.112302 35.305518 17.128997
2527 2 31.528897 24.988717 14.099557
2528 3 31.566425 25.157175 13.034106
2529 3 31.753081 25.081292 12.953536
2530 2 19.349391 36.913158 14.083811
2531 3 19.592291 37.015110 14.288193
2532 3 20.845446 36.295923 13.244436
2533 2 30.927142 38.231461 24.442164
2534 3 30.208119 38.520471 24.429455
2535 3 30.523901 37.359008 25.438909
2536 2 31.904468 25.461949 4.864949
2537 3 30.507707 26.866168 4.286397
2538 3 29.772093 26.905338 4.916202
2539 2 36.290562 25.273642 20.819631
2540 3 35.493020 26.615028 21.114023
2541 3 35.038497 27.479773 20.141424
2542 2 1.012653 5.390657 18.893794
2543 3 1.456926 7.999324 17.664090
2544 3 2.977734 7.408974 18.770434
2545 2 0.621633 14.380941 25.369111
2546 3 0.001647 15.878089 24.297482
2547 3 0.908541 13.649249 25.028159
2548 2 27.497062 17.972748 19.759156
2549 3 25.104035 16.085004 17.783912
2550 3 25.395391 18.129513 16.963235
2551 2 20.146283 7.536063 17.861165
2552 3 19.435671 5.493612 17.806542
2553 3 20.706003 7.237317 17.432856
2554 2 6.757682 17.935689 21.188665
2555 3 7.103276 17.320012 21.297048
2556 3 7.254176 16.904427 20.058818
2557 2 16.051638 1.799210 20.086170
2558 3 15.445360 3.140294 19.622704
2559 3 15.397606 2.731947 20.469445
2560 2 23.827760 4.042758 12.486319
2561 3 24.364400 2.947132 10.504858
2562 3 24.288754 3.583910 13.881767
2563 2 27.179500 -1.077988 17.615255
2564 3 28.274156 -0.742507 17.603374
2565 3 28.516042 -0.184042 19.452769
2566 2 18.912898 7.914912 16.519995
2567 3 17.866395 8.187117 15.763199
2568 3 17.866932 8.968024 13.565194
2569 2 18.498944 2.663969 20.686230
2570 3 17.580799 4.650942 17.580086
2571 3 18.211408 3.798592 18.167554
2572 2 22.003892 10.299750 15.161042
2573 3 22.928764 8.817757 13.937536
2574 3 22.822661 9.230881 15.463012
2575 2 21.728093 20.872449 33.778342
2576 3 23.165206 21.682545 32.584947
2577 3 22.696535 19.975925 32.407969
2578 2 26.086219 4.643829 25.493253
2579 3 26.500324 5.825771 26.048731
2580 3 25.465636 3.850684 25.396442
2581 2 4.256402 20.953073 26.527013
2582 3 4.501250 19.107147 26.639970
2583 3 4.136101 19.578082 26.027404
2584 2 13.058339 6.732516 29.909525
2585 3 12.779461 8.936858 28.356803
2586 3 12.665109 7.421483 28.079513
2587 2 -2.153739 14.543741 16.121805
2588 3 -2.003655 15.188649 18.360685
2589 3 -2.253343 15.583576 16.588896
2590 2 4.518833 21.114967 11.331351
2591 3 4.258482 21.155643 11.460395
2592 3 4.163159 20.711667 10.798958
2593 2 19.620450 10.706878 20.545658
2594 3 20.701898 11.180376 18.624645
2595 3 20.350382 10.726748 17.877081
2596 2 19.500893 -4.862771 22.037133
2597 3 18.783748 -4.150986 21.958679
2598 3 19.677284 -3.872442 20.240170
2599 2 33.007397 13.751818 19.927300
2600 3 32.917436 12.949743 18.919526
2601 3 32.853221 12.746065 16.979420
2602 2 32.721320 19.120224 21.935816
2603 3 33.154223 19.366276 22.278729
2604 3 32.212003 20.150921 21.661696
2605 2 22.291520 10.407005 19.010038
2606 3 21.819402 10.566693 19.617924
2607 3 22.378820 11.649329 19.680574
2608 2 34.877343 16.888717 17.519322
2609 3 36.156845 17.192397 17.241964
2610 3 36.966018 16.801341 18.375374
2611 2 22.230345 12.656911 15.012620
2612 3 21.241112 14.682641 15.650004
2613 3 21.331242 13.087435 14.275990
2614 2 23.066424 6.990802 10.311179
2615 3 23.506337 7.346466 9.825283
2616 3 23.424541 7.801451 10.164241
2617 2 21.697179 11.594728 7.705056
2618 3 22.565366 10.131352 6.350271
2619 3 21.955059 10.808843 8.070072
2620 2 3.731582 20.343613 9.392068
2621 3 5.635383 19.777144 9.617633
2622 3 4.190678 18.959744 9.027393
2623 2 2.388152 15.191423 18.673677
2624 3 2.344045 17.586309 17.194638
2625 3 2.923730 17.059179 18.530553
2626 2 2.170876 15.515243 15.255719
2627 3 1.203965 14.789112 16.272408
2628 3 2.614662 15.828546 15.966285
2629 2 16.410328 21.720477 19.924337
2630 3 16.165389 20.672290 18.188718
2631 3 15.357943 20.401369 19.602141
2632 2 15.765561 14.428280 19.955681
2633 3 16.743311 16.166614 19.984301
2634 3 15.908029 16.266631 18.978537
2635 2 17.272043 8.013929 19.515537
2636 3 16.590853 10.054134 18.708501
2637 3 17.864344 9.858108 18.628123
2638 2 5.630227 26.355282 20.344274
2639 3 5.470126 24.299938 19.031678
2640 3 4.441394 25.324947 20.668232
2641 2 25.622739 -0.872399 11.757180
2642 3 25.799873 0.387933 13.225521
2643 3 25.326585 -2.587663 10.322030
2644 2 15.680501 9.689349 7.053362
2645 3 16.909594 10.413798 3.824062
2646 3 17.228771 11.483656 1.967017
2647 2 26.776883 5.556926 2.473160
2648 3 26.571607 6.928140 3.312225
2649 3 25.795385 5.189456 2.341851
2650 2 17.174065 5.306419 20.559829
2651 3 17.003155 2.285483 19.679776
2652 3 18.081313 3.449907 19.317988
2653 2 22.516861 24.811205 20.232076
2654 3 22.010181 25.422436 20.281196
2655 3 22.700309 23.970451 19.631351
2656 2 34.822460 7.764521 6.691964
2657 3 35.618829 8.016838 5.201753
2658 3 35.042838 9.203059 7.407260
2659 2 8.236942 1.841332 13.659583
2660 3 6.929770 0.131110 14.927852
2661 3 8.522655 -0.041460 14.377382
2662 2 14.692745 22.846044 29.322479
2663 3 16.274700 24.464429 28.585514
2664 3 14.904494 22.722958 27.237858
2665 2 17.041681 21.599995 31.550043
2666 3 17.223117 22.283143 30.925774
2667 3 17.129398 21.067540 32.471049
2668 2 19.377214 8.219017 27.131192
2669 3 19.652948 7.328820 26.991211
2670 3 18.577587 8.101894 27.891026
2671 2 31.600451 6.859525 8.424477
2672 3 31.556449 6.842530 10.345264
2673 3 31.821164 6.744227 8.366710
2674 2 45.593887 14.530206 2.987314
2675 3 44.826543 14.282639 2.524819
2676 3 44.726183 13.879505 2.191743
2677 2 25.626688 16.903599 20.807759
2678 3 26.779127 16.204570 21.941482
2679 3 25.560477 17.139179 21.317050
2680 2 12.603170 18.206123 20.865103
2681 3 11.735843 19.612332 19.656330
2682 3 11.700742 17.776587 21.231290
2683 2 6.486782 18.428538 13.146002
2684 3 6.686064 16.949258 12.134304
2685 3 6.920994 17.574015 13.050461
2686 2 4.186973 9.862852 26.458350
2687 3 6.090389 10.855444 26.323706
2688 3 4.814707 9.827190 25.573186
2689 2 16.098757 17.340847 10.283891
2690 3 16.056359 18.956946 11.458781
2691 3 15.463045 19.271424 9.565154
2692 2 15.159260 15.623036 14.865861
2693 3 14.482119 15.805896 15.362530
2694 3 14.218275 15.147473 14.029959
2695 2 14.119772 19.349975 11.018854
2696 3 13.122972 19.689662 10.375655
2697 3 14.223235 18.365801 12.730032
2698 2 32.618761 27.064071 21.996972
2699 3 33.823295 27.456145 21.420331
2700 3 33.294385 28.459401 23.352838
2701 2 4.706475 23.875094 35.900156
2702 3 6.257800 24.558542 34.652191
2703 3 3.883559 24.282649 34.479265
2704 2 33.276675 4.509931 12.011084
2705 3 32.234290 5.237678 10.829864
2706 3 32.484075 4.618212 12.903087
2707 2 10.272394 18.802774 25.307170
2708 3 10.313966 18.655772 25.863452
2709 3 9.582279 18.147737 26.080489
2710 2 18.191220 16.989755 10.575409
2711 3 18.924048 16.838017 11.881672
2712 3 18.780605 17.579845 11.082641
2713 2 10.039429 12.148513 23.820849
2714 3 9.789004 12.276634 23.836582
2715 3 10.168190 11.499455 23.192684
2716 2 23.451336 19.573065 11.802806
2717 3 22.226651 19.862026 13.725866
2718 3 21.484425 19.706789 10.803167
2719 2 46.618962 30.777208 14.025975
2720 3 47.675127 30.093360 12.667348
2721 3 47.671060 30.446925 12.815606
2722 2 3.515851 25.399951 11.781747
2723 3 3.497112 25.059277 12.327107
2724 3 2.777563 25.911046 10.311174
2725 2 12.396596 14.132595 18.379910
2726 3 15.817753 15.946914 18.031375
2727 3 13.584421 14.088910 18.389235
2728 2 10.037986 11.895932 7.927410
2729 3 10.660104 11.194122 6.652997
2730 3 10.311572 12.878390 6.943015
2731 2 14.856202 27.658945 0.821470
2732 3 14.898408 28.384981 1.300665
2733 3 14.629043 27.215052 0.787629
2734 2 23.511418 32.374009 13.764860
2735 3 23.464858 31.932094 15.302874
2736 3 23.206895 31.761392 15.106050
2737 2 17.185066 14.196825 24.891000
2738 3 18.472256 12.230971 25.283821
2739 3 17.407617 14.946457 24.683400
2740 2 39.795182 21.234549 23.252752
2741 3 40.072697 22.630590 23.512457
2742 3 40.878223 22.200719 23.863554
2743 2 40.395855 27.132697 27.243114
2744 3 41.016379 26.284615 28.304085
2745 3 40.406188 28.168750 26.903939
2746 2 17.671267 19.273287 18.618284
2747 3 16.588849 20.844887 16.191581
2748 3 17.453332 20.889035 17.780895
2749 2 14.791904 14.105968 32.317381
2750 3 13.269647 13.292962 30.356551
2751 3 14.157109 14.812271 31.064879
2752 2 0.337373 28.158745 5.077837
2753 3 -1.277121 28.119576 3.930230
2754 3 -0.465281 28.821954 4.271232
2755 2 19.639560 25.686331 23.992732
2756 3 19.883316 26.673287 23.899747
2757 3 18.890444 26.529269 21.938191
2758 2 17.046888 41.792652 14.117016
2759 3 16.130834 41.040076 13.766535
2760 3 16.559980 40.002794 14.173997
2761 2 14.095894 25.978430 26.484888
2762 3 14.457503 24.972787 25.798349
2763 3 13.926159 25.042048 26.870231
2764 2 6.242135 11.241678 21.408183
2765 3 4.713353 11.534372 20.555682
2766 3 5.642219 11.882169 19.790743
2767 2 28.610846 33.373680 30.399136
2768 3 28.843976 32.508409 30.377375
2769 3 28.543927 33.038686 29.924344
2770 2 22.497809 32.821292 14.941854
2771 3 22.733287 32.828376 15.199950
2772 3 22.769599 31.790254 12.904842
2773 2 14.158383 29.915057 18.468805
2774 3 14.811352 29.899379 19.120489
2775 3 15.015941 29.426375 19.397105
2776 2 17.344730 28.573404 2.638838
2777 3 17.268750 28.500799 -1.395074
2778 3 17.545905 29.267526 1.687713
2779 2 25.663427 26.831953 16.415563
2780 3 25.870255 24.579107 17.614402
2781 3 24.530157 26.423265 17.669633
2782 2 33.719081 29.508556 17.564008
2783 3 32.888774 29.014527 15.995431
2784 3 32.168085 29.740790 18.831411
2785 2 35.341892 24.238352 15.584713
2786 3 35.966645 24.865044 16.724450
2787 3 36.517679 24.752462 16.855458
2788 2 23.842389 15.602408 24.284236
2789 3 24.419159 16.331332 22.911781
2790 3 23.680010 14.895981 23.764594
2791 2 15.421340 10.359262 5.039291
2792 3 14.250663 10.038772 6.968018
2793 3 14.251590 10.195773 6.797712
2794 2 11.187760 22.680494 10.838272
2795 3 10.421326 21.007334 11.684259
2796 3 10.332021 22.328035 10.024393
2797 2 15.593724 19.491248 31.138989
2798 3 15.535249 19.922273 30.045261
2799 3 16.586337 19.957985 28.697093
2800 2 19.025045 24.624820 9.414989
2801 3 18.057878 27.083732 9.473491
2802 3 19.945433 26.582726 8.742090
2803 2 22.297993 23.999772 11.141946
2804 3 21.989859 24.923546 11.278066
2805 3 22.684986 26.353117 11.153209
2806 2 12.747749 29.490829 21.803624
2807 3 12.377622 30.286417 22.892745
2808 3 13.356431 30.351127 23.029193
2809 2 11.593587 22.404234 18.066811
2810 3 12.053721 22.613807 18.703892
2811 3 11.896200 20.556472 16.146600
2812 2 14.093001 31.370022 23.572244
2813 3 14.236956 31.585526 25.526655
2814 3 13.710382 30.498444 24.147547
2815 2 23.747922 14.787901 8.078427
2816 3 23.793051 15.000438 8.340387
2817 3 22.983365 13.088310 8.353646
2818 2 30.266884 36.685886 15.564723
2819 3 29.043037 35.106524 15.382844
2820 3 30.459794 35.117814 15.259563
2821 2 27.918622 18.139426 10.934288
2822 3 28.622293 17.277900 10.939587
2823 3 26.328802 18.483333 10.211376
2824 2 38.413291 29.811002 19.020263
2825 3 37.559128 29.722239 17.753060
2826 3 39.120007 29.315771 18.470838
2827 2 8.281576 7.257087 30.879123
2828 3 8.364165 7.336011 31.665683
2829 3 9.865820 7.495092 31.234787
2830 2 12.900392 27.842431 32.345359
2831 3 12.972416 27.023434 31.485665
2832 3 12.201313 28.097479 32.280680
2833 2 12.394153 37.951926 20.189784
2834 3 12.547069 38.595864 20.455297
2835 3 12.586079 39.376077 20.427830
2836 2 18.001840 7.685117 11.637731
2837 3 19.153188 9.372815 11.480305
2838 3 18.279089 8.713036 11.676321
2839 2 10.667074 32.041798 -5.083377
2840 3 9.359264 32.885364 -5.651527
2841 3 10.336021 34.366688 -5.957436
2842 2 16.553300 21.768774 23.021084
2843 3 15.985147 22.016114 21.811479
2844 3 15.358694 20.394263 22.642425
2845 2 18.344874 17.696121 9.379117
2846 3 17.990258 18.924559 7.754912
2847 3 18.865591 18.079227 8.260113
2848 2 36.480386 20.793994 8.571445
2849 3 35.417749 19.214506 9.077742
2850 3 35.325808 21.094752 9.019917
2851 2 24.583246 30.621825 18.969701
2852 3 25.586706 30.672735 18.238165
2853 3 25.850252 30.432654 19.818113
2854 2 23.375443 20.957159 12.854973
2855 3 22.690731 21.210188 13.051050
2856 3 23.337546 22.044499 12.110501
2857 2 19.602592 34.339916 28.110774
2858 3 19.088062 32.683697 28.120660
2859 3 19.546271 32.644494 28.661418
2860 2 33.207597 19.826109 13.537655
2861 3 31.525263 19.752774 13.624465
2862 3 32.575677 20.207227 12.650391
2863 2 19.453935 37.698326 4.952553
2864 3 19.513812 37.427369 3.843273
2865 3 18.467133 38.335789 4.947134
2866 2 4.970293 -3.960420 15.017097
2867 3 4.171196 -4.869273 15.766245
2868 3 5.259814 -7.478881 16.003120
2869 2 3.242185 19.167531 26.508697
2870 3 2.316112 18.569506 25.908122
2871 3 2.355968 19.099375 26.920911
2872 2 8.870426 11.552158 20.060144
2873 3 9.239845 12.852575 21.601977
2874 3 8.301702 12.601816 19.165321
2875 2 19.482626 8.528030 23.705074
2876 3 18.481590 7.839013 23.644067
2877 3 19.026712 8.577723 25.637426
2878 2 17.722273 6.206731 25.899739
2879 3 17.329994 7.116365 26.082362
2880 3 17.737326 6.469734 26.009571
2881 2 13.847844 6.013008 16.036202
2882 3 13.433064 6.832294 17.596766
2883 3 13.365292 5.573278 16.139406
2884 2 21.778013 12.131018 16.735793
2885 3 21.751517 12.345588 17.749854
2886 3 21.260880 13.459012 17.258330
2887 2 16.108815 2.888937 34.131676
2888 3 15.069720 3.902925 35.050817
2889 3 16.080157 2.105299 36.695852
2890 2 26.162275 1.837084 16.130928
2891 3 24.031381 1.991303 17.219417
2892 3 25.100090 0.564464 16.492435
2893 2 29.484225 13.420969 23.138359
2894 3 29.874308 12.396706 22.313506
2895 3 30.724809 12.667772 21.046560
2896 2 24.204057 30.947697 23.545337
2897 3 23.477271 32.738008 23.091262
2898 3 23.363200 30.790764 22.907413
2899 2 41.066508 15.168964 20.311445
2900 3 40.540082 14.487774 19.229648
2901 3 41.993333 13.586278 20.489485
2902 2 16.632124 3.546960 29.317089
2903 3 17.469213 2.403136 29.000272
2904 3 17.269569 1.377316 26.996877
2905 2 20.261046 19.491582 25.964278
2906 3 20.381245 20.032145 25.908732
2907 3 20.095970 19.845880 27.254242
2908 2 13.060113 22.073177 15.390210
2909 3 13.608152 21.786518 16.959832
2910 3 13.846870 22.284103 16.222503
2911 2 14.720142 11.922607 12.124151
2912 3 14.376182 11.205872 13.849731
2913 3 14.736220 11.929124 12.867280
2914 2 24.898709 7.871336 34.462413
2915 3 24.952619 8.232323 34.322232
2916 3 24.192803 10.047914 35.050828
2917 2 14.121899 13.159846 15.087086
2918 3 13.096537 12.742967 16.072536
2919 3 13.686689 13.285016 16.291780
2920 2 13.268229 9.922501 24.112468
2921 3 13.589020 10.368614 22.767589
2922 3 14.289338 9.709841 25.066296
2923 2 16.432397 12.147408 8.530951
2924 3 16.466908 11.622037 7.636636
2925 3 16.195555 12.115005 8.353114
2926 2 16.299632 22.023716 20.751830
2927 3 14.737304 21.628207 21.685430
2928 3 15.225678 21.641876 21.791281
2929 2 19.724293 5.299611 31.886669
2930 3 19.215343 6.424383 31.811324
2931 3 19.753737 5.550000 33.243153
2932 2 27.486205 15.574388 13.500035
2933 3 26.326434 15.273469 13.589456
2934 3 26.365616 15.967765 14.382406
2935 2 26.602897 18.435221 25.124900
2936 3 26.761312 19.144341 25.822961
2937 3 25.802875 18.123548 25.840629
2938 2 9.304509 4.041921 12.981360
2939 3 6.862988 3.355000 12.160628
2940 3 7.846425 3.879660 12.587318
2941 2 37.712315 3.451633 30.497522
2942 3 36.489508 4.496174 30.782363
2943 3 35.582665 4.240216 31.011898
2944 2 10.382256 4.843811 19.726553
2945 3 11.297666 6.298198 20.896848
2946 3 9.602226 6.426700 22.607361
2947 2 2.128847 13.203136 28.354828
2948 3 3.014428 12.413218 28.347362
2949 3 4.207463 14.743424 28.097389
2950 2 6.170376 -5.144520 35.516616
2951 3 7.440482 -4.194231 35.346346
2952 3 6.528242 -4.801813 37.291090
2953 2 21.811841 31.298523 24.241847
2954 3 20.193123 30.600879 23.792250
2955 3 20.685405 30.161474 24.375680
2956 2 6.381100 14.710933 29.273381
2957 3 7.075522 16.830247 30.961769
2958 3 5.684912 16.650858 30.172368
2959 2 13.001343 21.389130 15.412907
2960 3 12.398679 22.119377 17.743551
2961 3 13.860427 20.527422 16.790463
2962 2 30.402348 9.029322 33.640062
2963 3 29.970285 9.298432 34.930437
2964 3 29.120017 9.535919 34.428676
2965 2 24.725016 29.464134 31.260602
2966 3 24.821450 29.742565 28.992535
2967 3 24.500146 30.174652 29.122246
2968 2 11.667340 4.365746 15.624699
2969 3 11.886811 4.945809 15.141717
2970 3 11.309231 4.234289 16.908914
2971 2 22.519603 23.733463 20.569984
2972 3 21.375257 23.473197 19.358361
2973 3 22.818514 24.037622 19.220899
2974 2 15.597703 13.860903 13.376619
2975 3 16.549910 14.234084 13.478630
2976 3 17.874032 13.441819 13.973298
2977 2 17.713999 21.293110 25.328160
2978 3 18.204068 20.559162 24.987464
2979 3 18.434417 21.328981 26.841694
2980 2 34.937451 9.954918 29.954121
2981 3 35.974610 8.448007 31.594763
2982 3 34.825269 8.702616 33.858866
2983 2 21.561304 27.317899 16.005071
2984 3 21.935444 26.396557 14.457321
2985 3 22.001701 25.811215 14.994691
2986 2 8.043690 13.451703 2.047391
2987 3 8.736733 14.309932 3.451557
2988 3 8.739154 15.034392 2.872941
2989 2 14.776949 16.797984 10.518788
2990 3 14.503858 15.800103 9.819115
2991 3 15.581038 15.064729 12.225461
2992 2 7.702968 15.706970 16.549980
2993 3 7.916551 15.864204 15.869323
2994 3 9.182870 16.788214 15.611010
2995 2 19.921346 24.846573 19.668875
2996 3 19.684791 25.333491 19.507594
2997 3 19.629303 23.782172 20.714972
2998 2 37.956827 12.960663 15.934676
2999 3 38.678191 12.838543 17.144751
3000 3 39.564520 11.820293 17.210146
3001 2 32.646941 14.289016 11.045417
3002 3 33.047389 14.810757 10.029719
3003 3 33.699746 15.808659 9.805264
3004 2 24.083800 12.011528 27.863796
3005 3 24.305627 11.234232 26.857433
3006 3 25.204619 11.811165 29.074030
3007 2 27.465748 29.146054 29.450378
3008 3 27.149400 30.299792 29.207511
3009 3 27.837418 29.408284 27.704769
3010 2 8.345631 23.674574 21.728329
3011 3 6.987426 22.458814 22.637284
3012 3 8.464143 21.111695 22.926538
3013 2 36.651656 21.599127 1.165851
3014 3 38.139019 19.422480 -0.547379
3015 3 37.346585 20.972013 0.640352
3016 2 3.583074 16.717264 21.124429
3017 3 1.962088 19.144192 23.062445
3018 3 3.592929 18.155365 20.702605
3019 2 39.653213 40.126249 21.781984
3020 3 39.926489 39.410321 23.086056
3021 3 39.107108 38.673576 23.776127
3022 2 13.029435 12.475204 28.822305
3023 3 13.341774 13.676846 27.451085
3024 3 13.217839 11.874291 28.748540
3025 2 17.985436 12.665335 21.522928
3026 3 16.814012 13.010067 21.251216
3027 3 17.325271 11.159198 19.840163
3028 2 8.398018 18.604713 11.842107
3029 3 10.077183 19.435772 11.675130
3030 3 8.556344 18.275469 13.461016
3031 2 27.917613 21.088959 19.470211
3032 3 28.921659 19.620625 20.828099
3033 3 28.192442 19.971189 21.410984
3034 2 16.985205 26.464497 30.185554
3035 3 17.682422 29.322902 29.444818
3036 3 18.340793 27.496283 28.529677
3037 2 12.913485 17.751410 12.811302
3038 3 12.432228 18.279604 14.321523
3039 3 12.805421 17.955909 13.282597
3040 2 16.748583 21.980005 8.385948
3041 3 17.085179 21.734538 9.957080
3042 3 16.461084 21.085841 8.405720
3043 2 17.024368 12.681678 18.535258
3044 3 16.115472 12.065564 18.475034
3045 3 15.937867 12.479869 19.604651
3046 2 29.531960 21.649868 13.030892
3047 3 30.284255 19.767598 13.653184
3048 3 29.264338 19.347487 14.586016
3049 2 26.451056 13.690171 12.892249
3050 3 26.222775 13.848362 13.261118
3051 3 27.066765 13.319275 13.140255
3052 2 6.266835 29.058517 2.657664
3053 3 5.272399 30.012859 4.874538
3054 3 6.247647 29.162917 4.162136
3055 2 14.644603 15.533569 14.760842
3056 3 13.651949 15.327636 14.687135
3057 3 14.931876 14.372380 14.677746
3058 2 14.122635 9.132672 29.341785
3059 3 12.827148 9.081907 29.352160
3060 3 13.081978 8.979159 28.578277
3061 2 3.573694 18.883991 30.653951
3062 3 4.255131 18.817322 31.202536
3063 3 5.013095 18.996910 32.544203
3064 2 26.705529 24.699540 18.440676
3065 3 25.895997 24.961323 18.307640
3066 3 25.037647 24.810589 19.687883
3067 2 24.210546 21.024591 11.433018
3068 3 24.144529 19.358438 11.996876
3069 3 24.248381 20.164375 11.588539
3070 2 19.956483 25.309953 13.395182
3071 3 19.423141 25.918547 14.693292
3072 3 19.436376 25.706632 14.930771
3073 2 16.707246 33.574133 13.564836
3074 3 18.249116 33.776392 13.818463
3075 3 17.823092 34.122319 13.405090
3076 2 10.897383 18.839036 27.230173
3077 3 10.452344 18.306334 29.393839
3078 3 12.169390 19.340572 27.190727
3079 2 17.302202 27.139537 21.480448
3080 3 18.547623 28.308208 19.960377
3081 3 17.427976 27.774199 20.064084
3082 2 19.247795 32.551280 21.156844
3083 3 18.224423 32.021783 19.737636
3084 3 17.668883 32.390211 18.696427
3085 2 23.178432 14.633512 20.544486
3086 3 24.091899 14.807873 21.443947
3087 3 24.028907 11.414490 21.209295
3088 2 19.703380 12.783241 14.924040
3089 3 18.705347 13.302624 14.079314
3090 3 19.611984 11.167959 15.837133
3091 2 3.233895 33.630684 30.103180
3092 3 3.097209 32.459319 30.233792
3093 3 3.047470 33.916094 32.095510
3094 2 21.719777 28.430703 24.152512
3095 3 21.695884 28.539113 22.975076
3096 3 21.239124 28.943298 24.498901
3097 2 8.289002 24.076905 10.992166
3098 3 8.361347 24.060518 12.125331
3099 3 8.525658 24.057542 12.014744
3100 2 13.155904 43.284964 14.310337
3101 3 12.915246 42.726476 15.684472
3102 3 12.719647 42.279124 16.103143
3103 2 26.487502 33.356672 20.506798
3104 3 26.510025 33.176075 20.925525
3105 3 26.014047 34.347762 20.266892
3106 2 17.987713 27.743131 37.744590
3107 3 17.821672 26.625891 36.326527
3108 3 18.080389 28.290924 36.048620
3109 2 14.235032 25.782164 24.319121
3110 3 13.161023 24.168211 27.101791
3111 3 14.437341 24.966567 23.875376
3112 2 36.171628 26.991653 10.853922
3113 3 36.171585 26.938994 11.599610
3114 3 35.345174 27.958469 12.809676
3115 2 14.901243 35.646653 19.177787
3116 3 15.156322 35.638863 20.419904
3117 3 14.398799 33.471037 17.145179
3118 2 7.048613 30.902752 21.752258
3119 3 7.445956 30.778919 22.033733
3120 3 6.341215 30.022863 22.143098
3121 2 16.975359 7.762534 16.716858
3122 3 16.867578 9.684641 16.663146
3123 3 16.705981 8.010267 17.451798
3124 2 37.763041 23.060450 21.160302
3125 3 36.917116 22.721806 19.292245
3126 3 37.103434 23.286553 20.184051
3127 2 28.544745 34.042974 12.257990
3128 3 28.773827 32.594535 13.059245
3129 3 28.388429 33.127641 11.688389
3130 2 9.136631 25.364187 19.614008
3131 3 10.130604 24.847644 17.886274
3132 3 9.798432 24.655450 17.877192
3133 2 10.215417 34.062271 28.535540
3134 3 9.751299 33.635154 29.414910
3135 3 10.110858 34.809627 28.573748
3136 2 27.368965 24.772054 25.276288
3137 3 26.872108 24.569776 23.009969
3138 3 25.613873 24.770294 24.679581
3139 2 27.123946 32.053733 17.705157
3140 3 27.378259 31.263279 17.031518
3141 3 26.825806 30.636234 15.782292
3142 2 23.235202 32.962215 18.253995
3143 3 22.770670 34.273467 18.257775
3144 3 24.001834 32.314048 18.313030
3145 2 27.132086 13.190702 20.247376
3146 3 26.908636 14.547177 20.475474
3147 3 27.802753 14.212420 18.527041
3148 2 23.237646 24.039445 18.487070
3149 3 23.720160 24.010806 19.158518
3150 3 23.477749 24.324829 20.129775
3151 2 6.653942 26.438417 21.229303
3152 3 5.318064 27.242486 21.253877
3153 3 5.551244 26.551956 22.891391
3154 2 24.495849 32.348045 23.824505
3155 3 23.387911 32.621070 23.996755
3156 3 23.697263 33.189609 23.964927
3157 2 33.309731 17.800798 19.603903
3158 3 31.811009 17.912845 21.625312
3159 3 32.990282 17.461849 20.031030
3160 2 32.260826 43.037217 7.187813
3161 3 32.661899 43.918942 7.449229
3162 3 32.081369 43.047283 6.539393
3163 2 32.427005 39.216860 19.731072
3164 3 31.680542 41.001324 19.387466
3165 3 32.354988 39.541732 20.487324
3166 2 20.296404 28.288809 11.880536
3167 3 19.568863 25.691029 10.874122
3168 3 19.595315 26.680729 10.444540
3169 2 1.187848 7.277308 17.815208
3170 3 2.692364 6.858454 16.362074
3171 3 0.254186 5.662619 16.029094
3172 2 -7.432569 17.264067 21.286339
3173 3 -6.379929 19.036285 22.325053
3174 3 -6.947378 19.640686 22.459456
3175 2 12.006840 8.317996 29.353473
3176 3 11.751123 9.204353 30.407789
3177 3 11.897439 7.930300 29.061779
3178 2 19.830322 11.907959 16.220736
3179 3 20.505993 12.612918 15.318671
3180 3 18.911917 12.116846 15.634500
3181 2 5.526234 0.795281 18.671995
3182 3 6.316484 2.991878 16.679440
3183 3 6.709773 3.197195 18.487886
3184 2 27.984919 22.998223 24.394161
3185 3 28.403770 21.967162 23.983109
3186 3 27.479968 22.767764 24.992481
3187 2 22.639574 10.922019 8.441187
3188 3 22.658334 12.334316 9.234399
3189 3 22.230645 11.274407 8.891971
3190 2 36.085957 7.211795 17.860747
3191 3 36.333936 7.795862 19.901177
3192 3 35.303766 8.264387 19.458283
3193 2 21.247657 17.255908 21.967284
3194 3 22.524003 17.600339 21.528362
3195 3 20.947870 17.597861 21.506233
3196 2 13.317200 9.917499 10.423680
3197 3 13.969217 11.140818 11.940355
3198 3 13.040754 10.529055 12.330293
3199 2 13.053411 9.459295 15.341710
3200 3 15.241155 8.477674 15.662053
3201 3 15.012884 8.799461 15.869418
3202 2 33.783948 7.903119 13.003114
3203 3 33.334828 5.795677 14.791406
3204 3 33.695877 8.223783 14.731013
3205 2 33.238409 17.362195 13.720370
3206 3 32.375822 17.173973 14.851673
3207 3 33.561007 18.764748 15.292290
3208 2 19.928792 0.890057 26.460528
3209 3 19.715704 1.804311 26.129881
3210 3 19.886245 1.938244 27.657426
3211 2 9.864648 3.867525 34.741931
3212 3 10.089340 4.298352 37.007681
3213 3 9.352793 3.789122 34.852155
3214 2 14.929475 18.012213 19.130666
3215 3 15.370914 19.466497 20.111375
3216 3 15.440076 19.852319 18.420924
3217 2 26.340476 18.175716 11.983395
3218 3 26.104722 18.858707 10.591849
3219 3 26.378906 19.588687 12.633231
3220 2 18.905381 11.371961 23.817216
3221 3 19.587921 10.115496 23.763011
3222 3 19.017370 11.142785 23.328076
3223 2 7.529904 5.487881 17.736874
3224 3 7.099181 4.215998 18.344934
3225 3 7.886497 5.239223 18.095489
3226 2 24.100651 11.839800 21.012914
3227 3 22.711711 11.497069 20.344374
3228 3 24.207731 12.711935 19.717835
3229 2 29.432131 -1.669581 22.792953
3230 3 28.737756 -1.704423 21.901539
3231 3 28.346808 -0.948206 22.483745
3232 2 18.201651 14.312532 17.735538
3233 3 19.510803 13.832794 17.263200
3234 3 19.566855 13.929701 18.218164
3235 2 27.940636 19.719355 17.323975
3236 3 27.915025 19.490405 16.079592
3237 3 27.626886 19.441764 17.969971
3238 2 33.045878 26.313903 11.855755
3239 3 32.781901 25.406022 12.496748
3240 3 32.905869 25.273229 14.009588
3241 2 16.200783 12.104070 27.169172
3242 3 15.734519 14.914474 26.122892
3243 3 15.053539 13.521272 24.757053
3244 2 38.662612 8.116780 14.954674
3245 3 38.359688 8.566171 14.044553
3246 3 37.986109 9.255437 13.714677
3247 2 17.229594 13.319150 17.917640
3248 3 18.090454 12.489826 18.533885
3249 3 18.383195 14.831496 18.817100
3250 2 13.078810 15.497704 25.873860
3251 3 12.081947 15.062766 24.870611
3252 3 13.605765 14.891851 24.330747
3253 2 17.447202 23.793940 18.113027
3254 3 19.351027 23.400856 20.083319
3255 3 19.362328 23.883012 18.745417
3256 2 14.069078 5.471662 13.734627
3257 3 14.691419 7.122869 14.685039
3258 3 13.785326 6.085711 13.632573
3259 2 7.293685 10.253818 27.241724
3260 3 6.448075 9.842347 25.290154
3261 3 6.078621 9.761198 25.141185
3262 2 17.814161 2.700965 12.763973
3263 3 17.375720 3.452431 12.941938
3264 3 17.071178 1.509166 13.526131
3265 2 26.143064 4.229643 18.860504
3266 3 26.487660 1.753198 18.756720
3267 3 27.090794 1.532569 19.309633
3268 2 1.502430 15.983671 23.537151
3269 3 2.108643 16.304002 24.005939
3270 3 2.546892 14.690978 23.106394
3271 2 21.888835 9.281206 30.280361
3272 3 19.925996 9.489710 27.493012
3273 3 20.644426 9.348566 27.340114
3274 2 30.294559 21.585791 19.652639
3275 3 29.614713 23.364348 17.559163
3276 3 29.208538 23.441050 19.067543
3277 2 10.285847 21.049909 13.789446
3278 3 8.102833 20.284987 12.114845
3279 3 9.132846 19.969433 12.901367
3280 2 21.295655 10.854476 14.668876
3281 3 22.110302 11.924884 14.578479
3282 3 22.120657 11.230165 16.017915
3283 2 32.306740 22.131394 26.687744
3284 3 33.278113 20.185186 25.649195
3285 3 32.743732 21.072117 26.464771
3286 2 -4.740518 9.267373 42.783261
3287 3 -5.453660 10.293979 40.905614
3288 3 -3.829213 9.027372 42.853313
3289 2 10.467137 13.442167 21.470842
3290 3 10.001335 13.551752 20.401236
3291 3 10.193522 12.785834 20.511314
3292 2 5.494267 12.817713 27.643690
3293 3 5.196310 12.375271 28.336768
3294 3 6.070272 11.892364 28.056376
3295 2 23.731328 1.561320 8.796691
3296 3 24.895561 -0.617669 11.088557
3297 3 25.331649 0.773436 9.642373
3298 2 17.781858 17.663179 29.606583
3299 3 16.974433 17.626229 29.493924
3300 3 17.950578 17.744198 28.212162
3301 2 12.423401 17.983286 28.304758
3302 3 12.126319 18.259985 28.685535
3303 3 12.293340 17.716691 26.683502
3304 2 32.254438 23.343985 16.118139
3305 3 32.103933 23.328592 16.552161
3306 3 32.404335 23.003585 15.124114
3307 2 20.443405 16.070103 31.563576
3308 3 21.364410 15.657785 29.481446
3309 3 20.798685 16.119581 30.149911
3310 2 33.647908 20.125708 25.516458
3311 3 34.022345 20.185897 26.361141
3312 3 33.175926 18.081915 26.333123
3313 2 14.350912 8.517073 22.100268
3314 3 13.862773 9.452494 21.204625
3315 3 12.825318 9.077748 23.301290
3316 2 17.717350 21.195641 21.855323
3317 3 17.820260 21.349419 21.477486
3318 3 17.796865 20.813782 22.634189
3319 2 5.504655 20.879296 28.467298
3320 3 5.086824 18.763004 28.141921
3321 3 5.455601 20.097441 29.285389
3322 2 28.383519 31.110083 15.510617
3323 3 28.442882 29.364159 15.513301
3324 3 29.370122 30.305988 14.971531
3325 2 9.663280 23.447033 15.310692
3326 3 8.824155 21.887922 15.088633
3327 3 8.660640 23.306666 16.298565
3328 2 30.337355 4.672140 22.036223
3329 3 29.705305 4.291022 24.506094
3330 3 29.567698 4.809701 24.237486
3331 2 10.791902 40.547571 24.072306
3332 3 9.889328 38.825811 22.817569
3333 3 10.829238 39.049639 23.778289
3334 2 27.684482 29.480071 11.874488
3335 3 27.037568 30.652063 12.110418
3336 3 27.446826 30.505354 13.066947
3337 2 24.902581 19.753145 24.687358
3338 3 25.038042 16.357972 25.604757
3339 3 24.635971 17.584152 23.524254
3340 2 3.097014 17.237670 18.451871
3341 3 2.377507 16.606501 19.761898
3342 3 3.373864 17.521063 17.794655
3343 2 29.932713 25.508084 8.761888
3344 3 31.364054 26.477129 9.846661
3345 3 30.467039 25.068226 8.726052
3346 2 -1.920757 30.638127 31.291120
3347 3 -2.132263 30.900010 29.288684
3348 3 -2.172819 30.750174 30.557018
3349 2 26.725161 4.422705 24.037883
3350 3 26.595168 4.705959 24.209899
3351 3 25.592131 3.817583 23.577058
3352 2 8.741586 11.408978 4.584638
3353 3 7.772218 12.012825 3.351032
3354 3 8.715084 11.911310 3.641832
3355 2 22.226942 13.830059 22.211155
3356 3 22.362212 15.312343 19.919397
3357 3 22.849886 12.674630 21.213967
3358 2 27.587354 27.335620 21.008239
3359 3 27.739960 27.771116 22.151554
3360 3 27.236625 28.537660 20.980222
3361 2 28.818115 26.191602 24.330611
3362 3 28.051873 25.732592 22.792591
3363 3 28.043154 25.397935 23.261010
3364 2 23.821474 36.028217 12.816936
3365 3 23.097980 36.140651 11.867522
3366 3 23.649763 36.492514 11.194336
3367 2 25.333559 17.535130 16.203863
3368 3 24.630090 18.847862 15.293469
3369 3 24.847020 18.397643 16.668251
3370 2 25.217062 25.800066 25.882889
3371 3 24.412922 25.360690 28.285550
3372 3 24.715527 26.146182 27.771269
3373 2 10.450063 22.713979 25.953670
3374 3 10.909474 22.552582 28.696959
3375 3 9.749415 22.597151 27.534462
3376 2 -4.374737 30.971965 20.360065
3377 3 -5.227705 33.275370 18.781342
3378 3 -5.052594 31.867211 20.420483
3379 2 22.603496 12.665177 6.915517
3380 3 23.311433 12.230188 7.159270
3381 3 23.011211 11.884011 3.825796
3382 2 18.174291 25.440221 25.413485
3383 3 17.557792 28.251169 24.421274
3384 3 17.306875 27.766629 23.833459
3385 2 36.059386 31.962472 18.523394
3386 3 38.632850 31.689332 17.344238
3387 3 35.910407 33.656955 19.013541
3388 2 19.052251 30.332068 22.994316
3389 3 18.159982 31.163525 22.797839
3390 3 18.623033 30.718855 22.493265
3391 2 27.387837 30.627733 10.302938
3392 3 27.123550 30.540574 9.741889
3393 3 26.800850 30.360612 10.652598
3394 2 20.128390 25.454592 12.900646
3395 3 20.281776 26.114834 12.781744
3396 3 20.982071 27.050029 14.021852
3397 2 33.918596 24.001148 15.253203
3398 3 34.059792 23.769123 14.592540
3399 3 33.236988 22.893578 14.431233
3400 2 18.826577 19.458108 10.466843
3401 3 19.296014 18.129216 9.997720
3402 3 18.491178 19.835517 10.957230
3403 2 10.696288 10.947943 21.862156
3404 3 11.470123 9.486613 20.765397
3405 3 10.981156 10.233807 21.952722
3406 2 20.045757 23.006155 26.582066
3407 3 21.182505 21.922572 25.241340
3408 3 21.458713 22.489438 26.802706
3409 2 26.069033 30.921009 29.243515
3410 3 26.535047 30.124354 30.034656
3411 3 25.108657 30.063398 29.827333
3412 2 23.531249 20.950694 23.613067
3413 3 24.418391 22.429947 23.287403
3414 3 24.484377 22.379320 26.030101
3415 2 10.589843 28.820025 27.746604
3416 3 11.046034 28.547077 29.081458
3417 3 11.513983 28.358336 27.573749
3418 2 7.480421 19.207891 28.851578
3419 3 7.875831 18.698503 28.555477
3420 3 7.271738 19.539186 28.369513
3421 2 27.075183 15.986015 13.737245
3422 3 27.850024 16.403965 12.583072
3423 3 27.456505 16.443376 13.026556
3424 2 11.794397 28.870405 26.673886
3425 3 11.718214 30.020279 24.889911
3426 3 11.056420 28.572601 27.189923
3427 2 17.773024 33.156153 7.221715
3428 3 18.210700 32.226468 6.574585
3429 3 17.233638 32.318422 6.995614
3430 2 15.610536 8.149378 38.972893
3431 3 18.100955 8.226110 39.936400
3432 3 16.873127 8.075888 39.368558
3433 2 15.027026 30.945399 27.712979
3434 3 15.423839 32.971636 27.336339
3435 3 14.663816 31.326722 27.388815
3436 2 22.901295 41.358870 27.567858
3437 3 22.998177 39.061730 27.344642
3438 3 22.909497 39.791027 27.999841
3439 2 22.033746 21.887613 16.741549
3440 3 22.624741 22.779050 17.536051
3441 3 22.598236 22.547819 16.560509
3442 2 13.303671 27.686302 23.701292
3443 3 13.465006 27.521288 24.236844
3444 3 14.077226 26.496094 23.145989
3445 2 20.598153 27.168687 15.332023
3446 3 20.354727 28.321820 15.505100
3447 3 20.906300 26.451142 16.560075
3448 2 39.567299 22.740719 23.185051
3449 3 39.362140 25.180777 22.851992
3450 3 39.129568 23.171292 23.297120
3451 2 0.076018 20.821754 23.695338
3452 3 -1.479515 19.832689 22.357573
3453 3 -0.700864 21.140959 23.218504
3454 2 13.127968 38.476571 25.879042
3455 3 13.394918 37.406784 26.198409
3456 3 13.229513 37.397650 26.560807
3457 2 15.668235 30.576627 14.704644
3458 3 15.201611 30.094242 15.564226
3459 3 15.018429 30.560870 16.028749
3460 2 17.453761 25.726164 18.812148
3461 3 17.031791 25.689770 18.320804
3462 3 16.922147 25.159042 18.040232
3463 2 15.848128 22.309078 22.502666
3464 3 15.901560 22.380983 22.963595
3465 3 14.833255 21.604101 21.849475
3466 2 16.541856 27.310175 28.348681
3467 3 17.321303 28.918430 26.294557
3468 3 16.677641 28.319973 29.557242
3469 2 5.589682 15.930031 23.654970
3470 3 6.785182 15.580425 23.176613
3471 3 5.475805 17.093222 24.713098
3472 2 24.298505 28.918249 14.517790
3473 3 24.452572 27.804325 13.758843
3474 3 24.037400 29.445826 14.901391
3475 2 31.506488 25.640492 18.231347
3476 3 33.130155 25.917084 17.265896
3477 3 32.849837 26.337611 15.786175
3478 2 21.999754 25.258339 20.760029
3479 3 22.555989 25.168261 19.374116
3480 3 21.837541 25.621744 19.670737
3481 2 40.454753 15.786082 34.312298
3482 3 41.796049 15.639802 33.375843
3483 3 41.505364 15.940925 33.458550
3484 2 36.445330 24.744153 35.306768
3485 3 37.615802 25.264340 36.770745
3486 3 37.728914 25.234426 36.348430
3487 2 28.311941 26.867934 26.356641
3488 3 28.384841 27.445129 24.766704
3489 3 28.952798 28.134754 26.033707
3490 2 1.607491 14.178014 28.421149
3491 3 3.372420 14.826454 28.140248
3492 3 2.120831 13.608378 28.903938
3493 2 13.414702 7.619621 19.524135
3494 3 13.354602 6.821485 20.187569
3495 3 12.717227 7.070786 20.260068
3496 2 -0.926007 5.442677 10.903543
3497 3 -0.802984 6.655976 11.612961
3498 3 -1.367555 5.585160 11.143240
3499 2 6.552250 3.576406 10.255602
3500 3 5.582656 4.178622 12.002099
3501 3 5.484273 3.679685 12.245397
3502 2 24.457147 6.303979 23.116839
3503 3 25.422054 7.927092 23.784580
3504 3 24.188219 7.609932 23.515102
3505 2 22.284058 2.995390 28.824550
3506 3 22.215997 3.400312 30.553341
3507 3 22.915540 2.854009 28.936699
3508 2 19.748510 11.770342 12.777809
3509 3 19.847035 12.993308 11.596722
3510 3 19.597200 11.905081 12.220445
3511 2 27.243204 -6.637541 23.870428
3512 3 27.291894 -6.792214 24.070165
3513 3 27.957139 -6.404244 23.213114
3514 2 11.835550 5.596427 21.180986
3515 3 12.384218 6.767560 21.011654
3516 3 12.629049 6.860820 20.091863
3517 2 19.242087 29.440819 25.943228
3518 3 18.922436 28.504299 24.822083
3519 3 19.064256 27.969592 27.015857
3520 2 14.834740 17.055287 29.164756
3521 3 15.221879 16.391510 28.224347
3522 3 14.653528 16.995897 28.071778
3523 2 29.868931 23.192134 31.173578
3524 3 30.476714 21.846401 28.362120
3525 3 30.184503 21.666285 27.546986
3526 2 25.976013 3.227375 18.651788
3527 3 26.507125 1.652935 19.026512
3528 3 26.793774 1.682236 17.999857
3529 2 8.193013 9.632522 18.582757
3530 3 9.761103 10.703009 18.693054
3531 3 9.361284 9.563630 18.380772
3532 2 11.931449 9.871456 26.684988
3533 3 12.577497 10.023675 25.733850
3534 3 12.108305 10.148826 25.284996
3535 2 3.663571 5.696677 13.682250
3536 3 3.934768 5.477448 10.551015
3537 3 2.997924 6.799137 13.136091
3538 2 13.587274 9.390558 23.449154
3539 3 13.292369 10.314388 23.856293
3540 3 13.683449 10.011959 21.760630
3541 2 7.778894 29.923289 26.611252
3542 3 8.177128 28.430161 28.528495
3543 3 8.210958 29.852764 28.281761
3544 2 21.305587 16.579339 22.360846
3545 3 21.672402 16.246628 21.637763
3546 3 22.917012 15.619505 20.707414
3547 2 19.091484 22.778274 25.542464
3548 3 19.730849 22.324390 25.047308
3549 3 19.888614 21.905487 25.591530
3550 2 10.817315 -5.935186 13.275329
3551 3 11.026600 -5.237658 13.326864
3552 3 11.684286 -5.839434 14.035114
3553 2 13.316657 30.222854 18.230083
3554 3 13.819342 31.293632 16.806961
3555 3 14.586930 31.744651 15.874366
3556 2 41.997547 11.545544 20.372219
3557 3 41.679298 9.469629 21.166519
3558 3 42.399426 9.184609 18.692918
3559 2 23.974264 12.106773 28.290214
3560 3 22.915153 13.037842 29.212345
3561 3 21.560533 12.921476 28.613720
3562 2 31.982127 5.986442 15.856918
3563 3 31.412690 7.421059 16.776611
3564 3 32.150271 6.015016 14.502922
3565 2 27.345618 1.928144 15.777624
3566 3 27.977382 0.843355 14.759823
3567 3 27.482137 -0.028077 15.426399
3568 2 7.950216 8.260897 33.935727
3569 3 7.626067 8.511786 36.003333
3570 3 7.025308 8.826151 33.170064
3571 2 13.796601 4.270547 26.096867
3572 3 14.672510 6.115564 24.950482
3573 3 13.922055 5.079282 25.518626
3574 2 17.270213 7.384027 31.281520
3575 3 16.965462 6.637994 32.980288
3576 3 17.468330 6.738958 30.768563
3577 2 17.692437 8.735304 7.906843
3578 3 18.094960 7.911461 7.820850
3579 3 16.661572 7.948670 7.922397
3580 2 8.990672 10.147315 20.865822
3581 3 10.060746 9.683040 20.613398
3582 3 9.607481 9.331084 20.244441
3583 2 22.476547 5.152427 20.685745
3584 3 23.175098 5.299484 19.893119
3585 3 22.478351 3.364339 20.370195
3586 2 20.130173 16.571111 24.660842
3587 3 20.614997 16.180444 23.729376
3588 3 20.150403 16.695669 24.452059
3589 2 23.556520 13.344933 16.730958
3590 3 22.889095 14.391440 17.333647
3591 3 23.992483 14.233816 17.939456
3592 2 16.411179 11.136268 20.744727
3593 3 16.642258 12.246949 22.130850
3594 3 17.717892 11.118003 21.221369
3595 2 32.127936 12.565006 35.476981
3596 3 32.212599 11.445947 35.051768
3597 3 33.132226 12.389228 34.195584
3598 2 34.013205 16.045628 28.496111
3599 3 35.412739 16.565278 28.543602
3600 3 35.473783 15.526329 30.617949
3601 2 33.557426 16.817925 21.109146
3602 3 34.158672 14.692712 20.666940
3603 3 34.471573 14.525190 21.249953
3604 2 40.937878 27.067969 28.519504
3605 3 40.754069 27.557944 27.773528
3606 3 41.442109 26.548191 28.347364
3607 2 25.544591 9.947920 16.542788
3608 3 26.941237 9.629088 15.760203
3609 3 26.997963 11.214393 16.278809
3610 2 2.032426 7.377152 10.150906
3611 3 2.117120 7.102700 8.791407
3612 3 2.573923 8.264035 9.613850
3613 2 0.853757 9.701413 23.506972
3614 3 1.421805 10.101297 23.880945
3615 3 1.371209 9.314889 22.886297
3616 2 9.325109 24.462257 16.410865
3617 3 8.860674 24.234363 17.672747
3618 3 8.856232 24.276821 16.781792
3619 2 17.192077 22.367401 17.295975
3620 3 17.053007 23.817683 16.814809
3621 3 16.505047 22.625779 17.887481
3622 2 10.393699 13.405215 40.092283
3623 3 11.851707 11.619957 39.673373
3624 3 11.102882 13.253091 38.555713
3625 2 8.344450 6.816062 14.654530
3626 3 7.297248 6.487200 14.777730
3627 3 7.492101 7.281962 14.086345
3628 2 25.155811 12.790632 25.287421
3629 3 24.960368 13.427843 25.737768
3630 3 24.695593 11.857083 25.108934
3631 2 28.152443 16.532538 23.179951
3632 3 27.024392 17.438679 23.242957
3633 3 27.524427 16.851332 24.368390
3634 2 17.383955 15.017623 28.693653
3635 3 17.183058 15.029925 28.774504
3636 3 16.770755 15.319961 29.836190
3637 2 27.975494 26.855913 35.358630
3638 3 27.422522 27.884206 34.461708
3639 3 27.368144 26.833716 37.164421
3640 2 28.298632 15.254837 25.837258
3641 3 27.053397 14.057816 27.276893
3642 3 27.745144 14.656893 26.608854
3643 2 5.054130 8.757228 17.440085
3644 3 4.840551 7.967388 18.717017
3645 3 5.459319 8.763458 18.026272
3646 2 5.133888 19.957786 19.990212
3647 3 6.310284 19.444576 18.760730
3648 3 5.237556 19.639132 20.164886
3649 2 25.379639 25.156392 18.814275
3650 3 26.179696 23.983904 20.094951
3651 3 25.806903 24.534108 19.757336
3652 2 18.757401 27.921057 24.335964
3653 3 18.349167 28.457659 23.580255
3654 3 18.602228 27.432895 24.574985
3655 2 6.823596 26.963189 18.360553
3656 3 7.570747 26.759358 18.196310
3657 3 8.102018 27.083715 18.881030
3658 2 1.561347 10.340310 30.170693
3659 3 0.956324 10.565587 31.426075
3660 3 0.586564 12.040552 30.265838
3661 2 25.764942 25.207215 38.473469
3662 3 26.077506 25.971024 36.709558
3663 3 26.332358 25.983649 37.511725
3664 2 -0.338611 27.990988 23.150963
3665 3 -0.737855 28.242307 19.632618
3666 3 -0.422199 27.893868 20.092167
3667 2 32.563552 34.069673 26.789169
3668 3 34.161153 34.156922 26.104047
3669 3 32.917525 34.479163 27.881123
3670 2 10.416301 24.445099 17.849863
3671 3 9.975348 22.778986 15.389455
3672 3 9.786647 24.335059 17.519145
3673 2 28.614890 6.540435 13.795432
3674 3 28.378512 5.904111 14.414227
3675 3 28.223476 6.650920 14.292808
3676 2 11.643028 18.826194 28.767785
3677 3 11.710100 18.156178 28.409032
3678 3 12.446697 19.495048 28.698883
3679 2 8.197914 11.566221 22.138251
3680 3 9.709697 12.456768 20.807353
3681 3 9.398664 12.741693 23.848935
3682 2 44.463747 22.855570 34.414406
3683 3 44.480450 20.490393 32.443216
3684 3 44.949529 20.717849 32.959814
3685 2 28.303874 35.242083 13.985162
3686 3 27.380268 35.789499 12.831691
3687 3 29.418358 34.007181 14.058235
3688 2 11.125722 31.750177 23.832040
3689 3 10.569015 31.537573 23.185982
3690 3 11.159204 33.292865 22.815500
3691 2 8.659262 17.298870 24.198483
3692 3 8.967967 17.659390 24.288382
3693 3 10.984740 18.877028 22.792906
3694 2 7.036883 32.088023 5.685611
3695 3 6.302065 32.136043 6.007085
3696 3 6.899657 31.146710 4.088882
3697 2 27.921739 33.287085 14.168653
3698 3 27.921618 32.967711 13.913597
3699 3 28.081332 32.717542 14.206488
3700 2 25.535636 19.852521 -0.987812
3701 3 25.923367 20.368644 0.392582
3702 3 25.772348 19.944177 -0.433499
3703 2 28.911558 14.998330 10.773506
3704 3 29.383264 16.632128 10.212271
3705 3 30.043049 16.953801 12.115106
3706 2 14.547842 17.888965 8.560192
3707 3 14.104743 19.214146 9.377992
3708 3 13.576295 17.175311 8.465859
3709 2 19.220956 26.849077 36.690636
3710 3 19.469577 27.695799 38.353680
3711 3 18.864103 27.666703 35.442051
3712 2 20.543568 26.660738 21.012164
3713 3 20.573948 27.427486 20.910794
3714 3 20.393199 26.107393 22.387644
3715 2 9.530022 20.911888 30.090345
3716 3 9.342626 20.097809 30.266031
3717 3 9.752497 21.402078 30.247484
3718 2 13.014198 19.750169 41.638092
3719 3 13.318064 21.092289 42.374922
3720 3 12.924402 19.347241 42.469137
3721 2 25.098247 27.087481 25.296407
3722 3 24.816339 27.045709 23.782764
3723 3 24.861217 27.475615 24.553801
3724 2 10.387443 36.090631 40.777437
3725 3 9.930547 37.157327 39.511517
3726 3 10.987330 37.491470 39.665564
3727 2 20.441367 26.067002 22.544686
3728 3 20.035808 25.466341 22.503950
3729 3 19.242261 26.388611 20.618226
3730 2 10.350249 17.282141 30.996882
3731 3 9.588873 15.137350 32.398786
3732 3 9.315118 15.657734 31.152830
3733 2 21.760871 21.675378 38.032133
3734 3 21.395394 21.179552 36.888523
3735 3 22.948360 22.432099 36.831604
3736 2 16.952262 25.533711 41.537210
3737 3 17.757077 24.857469 41.867604
3738 3 16.200135 23.954131 40.348494
3739 2 35.890773 15.129354 31.688374
3740 3 35.847386 16.090016 30.552216
3741 3 36.075592 16.678912 31.533750
3742 2 32.218430 20.813704 23.453328
3743 3 34.679548 19.798556 26.832045
3744 3 34.835658 20.289364 26.358796
3745 2 22.800668 26.576580 25.785627
3746 3 23.069771 26.550472 24.971683
3747 3 23.504411 27.608074 26.248980
3748 2 27.818323 18.078717 19.719445
3749 3 29.244283 17.720246 18.298523
3750 3 28.604483 16.795916 19.572787
3751 2 35.725077 20.286375 24.608903
3752 3 36.377901 19.630647 24.993910
3753 3 36.330811 20.779750 24.403001
3754 2 40.258391 40.914707 18.343204
3755 3 40.230362 40.701919 18.808344
3756 3 40.939334 40.561015 20.050208
3757 2 28.847899 30.317355 6.545567
3758 3 28.709180 32.719949 6.327019
3759 3 26.829120 32.230538 7.264456
3760 2 28.486848 18.813645 25.603875
3761 3 28.362404 19.098295 24.570648
3762 3 29.330657 19.035617 23.558510
3763 2 3.238418 15.127763 27.512142
3764 3 3.721083 14.556441 26.963066
3765 3 2.938648 16.109940 27.325116
3766 2 -5.406817 22.974965 27.667451
3767 3 -5.059931 21.814632 26.519386
3768 3 -5.261659 23.290203 29.305252
3769 2 19.177797 35.176939 19.618003
3770 3 19.455938 36.583877 20.761499
3771 3 18.514981 37.182625 20.263776
3772 2 14.824057 32.167947 21.130088
3773 3 14.995135 30.710581 21.424668
3774 3 16.604217 31.447478 20.380132
3775 2 8.043234 21.841835 14.744985
3776 3 8.243769 22.528539 15.287087
3777 3 8.159949 21.111762 15.789307
3778 2 32.419208 26.201551 24.917654
3779 3 32.555054 27.239044 23.015715
3780 3 32.032165 27.079771 21.936238
3781 2 28.511052 24.484051 21.671919
3782 3 29.671667 24.625820 21.818154
3783 3 29.383638 25.161493 22.757267
3784 2 28.400942 18.607964 26.904401
3785 3 28.221398 20.205141 27.477835
3786 3 28.217049 21.077452 27.906356
3787 2 33.525331 25.246562 29.376852
3788 3 34.652626 24.784876 29.415293
3789 3 33.591226 25.791676 30.993812
3790 2 18.710320 24.879346 36.691390
3791 3 18.370944 25.069916 35.901267
3792 3 19.379323 24.948899 36.907730
3793 2 15.678140 34.535777 14.677859
3794 3 15.454589 32.061862 15.977957
3795 3 15.713113 32.281929 15.733567
3796 2 27.815473 23.443737 18.259234
3797 3 28.022503 23.287288 18.966473
3798 3 27.612597 23.635692 17.935267
3799 2 22.760748 26.935846 31.112872
3800 3 21.834423 26.466988 33.754566
3801 3 23.121323 26.498953 31.644882
3802 2 6.107947 32.545061 22.406153
3803 3 6.183931 33.470870 21.785330
3804 3 5.458341 32.980507 21.999675
3805 2 9.726719 26.336260 28.288593
3806 3 9.376366 26.805021 27.382003
3807 3 10.763112 26.773296 27.460776
3808 2 11.321294 28.695519 7.516609
3809 3 11.912521 27.717731 9.089552
3810 3 12.518892 27.306224 11.576524
3811 2 12.590561 41.341022 15.614093
3812 3 12.155109 40.939319 15.776128
3813 3 12.841695 42.525036 14.234912
3814 2 16.949156 21.736018 17.262270
3815 3 16.903856 21.933680 15.977127
3816 3 17.420041 22.329201 15.381675
3817 2 19.423697 25.365026 28.807421
3818 3 20.440529 24.455092 27.955631
3819 3 19.444760 24.548435 26.945939
3820 2 15.648875 27.854218 26.066328
3821 3 16.342700 27.415135 25.090914
3822 3 15.432257 28.070466 26.761571
3823 2 26.583137 15.867257 30.564362
3824 3 27.313638 16.422205 29.810822
3825 3 27.425275 18.358501 28.888432
3826 2 37.858226 18.028411 17.246699
3827 3 36.949023 16.456033 16.502961
3828 3 37.384168 15.964651 15.650882
3829 2 26.250518 26.367921 23.943680
3830 3 24.762133 27.180323 24.619541
3831 3 25.339636 27.087921 24.571294
3832 2 34.674402 27.557226 37.180519
3833 3 34.421627 28.159793 36.787256
3834 3 34.182273 28.312344 38.249490
3835 2 15.687889 37.859765 16.356511
3836 3 14.094145 36.520950 16.915350
3837 3 15.307440 36.941645 16.925228
3838 2 28.637206 30.756258 25.654116
3839 3 27.394838 31.626078 24.403555
3840 3 27.783897 31.913638 24.359541
3841 2 3.431388 5.991865 29.527898
3842 3 4.669967 5.623705 29.871855
3843 3 4.010466 6.072387 28.991530
3844 2 6.509200 11.492559 25.684969
3845 3 7.686940 12.373201 25.790499
3846 3 6.938991 11.054723 26.982681
3847 2 18.660302 -0.383612 23.270820
3848 3 17.493400 -0.730673 23.797038
3849 3 18.208804 -2.292966 24.673151
3850 2 15.665205 7.687114 26.219643
3851 3 15.651321 7.468964 25.282158
3852 3 15.909249 8.760217 25.663882
3853 2 27.590449 -7.481213 34.901332
3854 3 28.019776 -9.295588 33.939404
3855 3 27.537226 -8.505815 33.811252
3856 2 20.071884 16.853177 22.259905
3857 3 19.892643 17.808589 22.025540
3858 3 19.522072 17.688459 22.292222
3859 2 13.989279 7.815370 28.885932
3860 3 15.622618 8.353827 28.498000
3861 3 14.458978 8.136252 30.772434
3862 2 36.322039 7.857586 21.750766
3863 3 35.776771 8.918861 22.484107
3864 3 35.391496 6.869423 23.458073
3865 2 21.131480 9.938012 21.325977
3866 3 21.740192 10.758322 23.343789
3867 3 20.541784 9.109090 23.281333
3868 2 22.579461 10.653500 30.608971
3869 3 23.613726 8.821998 30.720292
3870 3 22.587364 9.666249 30.380116
3871 2 32.855025 7.570259 20.903286
3872 3 32.116232 6.298429 19.233589
3873 3 31.809578 7.016922 18.924783
3874 2 23.173279 4.287494 27.772384
3875 3 24.205750 4.139368 26.880020
3876 3 24.964045 3.994526 28.219027
3877 2 25.218419 4.318506 20.414865
3878 3 24.126850 3.912646 20.593222
3879 3 23.411908 4.328664 18.585381
3880 2 11.296956 10.412161 28.850572
3881 3 11.869264 9.678764 26.785513
3882 3 13.237613 11.124722 28.789614
3883 2 34.235008 10.480365 13.020304
3884 3 31.955558 10.750524 12.154701
3885 3 32.050792 10.562138 12.885108
3886 2 -0.542910 12.817442 28.861689
3887 3 -0.130679 12.790025 27.281630
3888 3 -0.689397 13.225068 27.588324
3889 2 23.069196 13.305887 36.819777
3890 3 22.467158 11.855101 37.987278
3891 3 22.481741 11.548603 38.336677
3892 2 21.219786 -4.348475 20.753235
3893 3 20.731610 -4.741612 20.861115
3894 3 20.394071 -5.785610 21.635397
3895 2 8.157193 6.130519 17.270473
3896 3 9.653333 6.701166 16.607245
3897 3 8.841028 6.565725 17.508164
3898 2 19.640557 7.123536 19.715774
3899 3 19.795514 6.284283 18.700550
3900 3 21.153124 7.189116 19.812961
3901 2 12.423040 9.431630 22.728976
3902 3 12.696443 10.668154 24.185298
3903 3 12.018953 12.372882 25.218030
3904 2 12.220822 -0.208318 33.660005
3905 3 12.222188 0.320814 31.855973
3906 3 12.292892 0.237646 32.773307
3907 2 32.711431 7.033931 32.278932
3908 3 32.971771 6.636141 31.888493
3909 3 32.319983 7.561238 30.419172
3910 2 21.661433 2.357473 31.021920
3911 3 21.878691 3.373969 31.077190
3912 3 21.414889 3.016665 30.915367
3913 2 27.578042 16.740502 29.632655
3914 3 26.992796 18.450955 30.501606
3915 3 27.139840 18.153409 30.006280
3916 2 37.541621 -0.420285 15.898034
3917 3 39.440768 1.117465 15.989236
3918 3 38.173850 1.096599 14.553208
3919 2 8.319338 27.112620 21.098350
3920 3 8.718512 27.396692 20.632184
3921 3 7.885845 27.921075 18.677793
3922 2 16.791956 7.168432 8.203008
3923 3 16.272010 8.668950 9.946366
3924 3 17.313228 7.164943 9.910919
3925 2 9.953490 13.281501 15.818954
3926 3 9.553493 14.389043 18.243890
3927 3 9.136780 15.352589 17.100276
3928 2 7.664556 14.797752 24.846444
3929 3 8.495183 14.666556 25.831488
3930 3 7.019739 13.425256 23.667487
3931 2 9.328470 7.457529 35.655508
3932 3 10.050265 5.231818 36.689889
3933 3 10.009281 5.685477 35.820058
3934 2 8.544268 10.986801 21.091008
3935 3 9.243326 11.244498 20.940510
3936 3 8.789169 12.410751 21.145475
3937 2 6.593389 17.996928 34.185303
3938 3 7.761068 17.528757 35.199739
3939 3 7.311947 17.358572 33.814754
3940 2 28.462947 14.988819 19.337615
3941 3 28.273674 15.427674 19.520772
3942 3 27.210194 14.589170 19.960980
3943 2 19.847804 17.312495 29.679059
3944 3 22.321317 18.267026 30.063245
3945 3 21.710585 18.214356 28.620493
3946 2 18.284333 10.814253 18.209518
3947 3 18.446208 11.485305 19.205357
3948 3 18.428868 10.609783 18.205467
3949 2 24.376329 8.821775 25.191931
3950 3 24.836098 9.525036 27.177530
3951 3 25.991283 10.181174 26.494599
3952 2 22.463358 7.570507 30.518184
3953 3 22.165657 8.814480 28.814870
3954 3 22.669979 7.981570 29.689632
3955 2 22.135869 10.410897 11.428368
3956 3 23.025697 12.022629 9.363713
3957 3 21.199677 11.724077 10.382691
3958 2 14.626272 30.145619 13.060882
3959 3 16.166372 29.326681 14.473943
3960 3 16.140908 29.174551 11.834585
3961 2 12.245644 5.793167 11.194725
3962 3 10.594629 6.287144 11.794367
3963 3 10.421095 4.798701 11.241519
3964 2 12.729697 25.396327 22.080641
3965 3 12.796516 24.404871 21.368632
3966 3 11.846049 27.333870 23.428380
3967 2 22.409599 17.474725 18.550038
3968 3 22.237158 18.601560 20.306046
3969 3 22.337664 17.955831 20.881025
3970 2 10.246210 29.427178 23.401369
3971 3 9.377897 28.602247 22.393995
3972 3 9.436749 28.008347 22.158992
3973 2 22.263745 22.967656 9.939422
3974 3 22.955141 23.712582 10.876528
3975 3 22.361462 22.717205 10.323739
3976 2 19.125960 22.157460 21.520357
3977 3 17.723026 21.618295 21.154834
3978 3 19.806561 22.040218 21.678589
3979 2 43.652117 16.128970 25.076444
3980 3 43.562920 15.730908 23.993974
3981 3 42.474534 15.396969 24.303101
3982 2 25.621236 5.150159 29.541481
3983 3 25.860002 6.265871 28.870106
3984 3 25.631895 8.104109 28.752785
3985 2 45.657361 22.388415 41.830820
3986 3 44.888390 21.798704 42.458165
3987 3 45.329146 22.523364 42.733227
3988 2 11.823151 15.276504 28.627869
3989 3 11.081868 14.744338 27.886922
3990 3 9.632146 14.305789 27.106322
3991 2 11.348072 19.790150 24.702288
3992 3 10.250268 18.687746 25.874176
3993 3 11.975032 19.270404 24.412826
3994 2 26.937628 14.880932 20.276605
3995 3 26.629888 13.674689 21.067782
3996 3 27.154029 14.340587 20.653235
3997 2 -3.422177 8.140687 26.888963
3998 3 -4.398243 7.730006 27.437570
3999 3 -2.382571 7.722839 28.176951
4000 2 15.842753 29.790340 19.362354
4001 3 16.013905 30.347039 21.694281
4002 3 16.175999 30.340573 20.243567
4003 2 23.655174 12.704454 15.227356
4004 3 25.260417 12.224579 15.626486
4005 3 24.673061 11.652744 13.847481
4006 2 31.438069 26.902084 8.671255
4007 3 30.858875 29.118110 9.291456
4008 3 31.781951 28.996919 9.121987
4009 2 20.319427 22.930088 22.054498
4010 3 20.373875 23.955558 21.163249
4011 3 20.626583 23.946177 20.063027
4012 2 12.942029 20.797894 47.458351
4013 3 12.278840 21.607221 45.960558
4014 3 11.784674 23.162117 46.333924
4015 2 13.370876 25.643443 29.335433
4016 3 13.127333 25.696015 29.025458
4017 3 13.890621 26.107847 30.072925
4018 2 3.877564 9.523949 26.554717
4019 3 3.455231 11.033306 24.938328
4020 3 4.058958 10.068545 25.107713
4021 2 21.635395 2.849638 27.508373
4022 3 22.268735 4.349914 26.563639
4023 3 20.661531 3.471465 25.695659
4024 2 34.213326 23.080503 14.473265
4025 3 34.457515 23.827328 15.718260
4026 3 33.591148 23.107394 14.837168
4027 2 37.532200 28.102905 29.454234
4028 3 37.936525 29.699611 28.099441
4029 3 38.412262 26.272794 29.898498
4030 2 21.849872 20.270961 26.859093
4031 3 20.546767 22.503327 24.674205
4032 3 21.779142 21.789551 24.360947
4033 2 14.516582 31.217573 12.461860
4034 3 14.291701 30.633689 14.602179
4035 3 15.473001 29.987481 11.925435
4036 2 7.568888 9.515375 22.828173
4037 3 7.660388 9.871480 22.552214
4038 3 6.762638 9.310671 24.049452
4039 2 25.743367 12.375988 29.587808
4040 3 25.087806 11.784097 29.277144
4041 3 25.393660 11.846646 29.930769
4042 2 31.682774 22.406793 35.865354
4043 3 31.304388 22.778057 34.543687
4044 3 31.559600 23.234515 36.708546
4045 2 5.895622 36.001313 27.049177
4046 3 5.763290 37.832249 26.243836
4047 3 4.556172 34.737423 26.177009
4048 2 4.156083 20.779424 20.258816
4049 3 4.978012 22.222555 18.382297
4050 3 3.487161 21.800777 18.142039
4051 2 9.855421 13.203111 27.644320
4052 3 9.523650 12.181764 26.976456
4053 3 10.062423 12.569777 27.716862
4054 2 24.290850 21.660792 18.968702
4055 3 22.748378 22.481164 19.703945
4056 3 22.613059 22.142457 18.954452
4057 2 11.118816 23.657662 27.684806
4058 3 11.778120 22.471810 26.362687
4059 3 11.206188 23.229229 27.665005
4060 2 19.367299 13.855195 35.095070
4061 3 20.025079 14.344264 34.093448
4062 3 21.660716 13.450773 35.506136
4063 2 2.255707 17.055666 34.266765
4064 3 2.662752 19.023690 31.420509
4065 3 1.680262 20.041434 32.878893
4066 2 -5.075491 24.598732 23.185836
4067 3 -5.904521 24.578298 23.378469
4068 3 -4.302063 25.502638 23.789287
4069 2 11.246080 3.633386 32.258435
4070 3 11.775496 4.875230 33.432670
4071 3 11.599895 2.547487 35.308472
4072 2 4.671139 22.602963 16.008311
4073 3 4.141270 22.463887 18.229581
4074 3 4.665480 22.178078 18.205532
4075 2 27.737384 24.941717 24.447927
4076 3 26.488288 24.380793 25.840627
4077 3 26.772194 24.765360 26.168693
4078 2 42.671916 33.939108 38.978707
4079 3 44.074387 32.841023 39.059977
4080 3 44.075411 34.638140 38.570089
4081 2 41.086259 15.156223 12.355371
4082 3 41.848844 14.032792 11.557048
4083 3 41.452604 15.152783 11.241334
4084 2 33.513100 22.725804 23.346925
4085 3 33.476704 21.751686 24.088681
4086 3 33.116043 22.168274 22.873401
4087 2 10.652009 12.680835 20.564260
4088 3 11.551965 13.802076 20.871739
4089 3 10.586647 12.269154 21.098521
4090 2 12.350672 30.456435 12.700925
4091 3 9.898442 31.667350 12.762051
4092 3 10.445334 30.527555 13.507438
4093 2 11.708576 19.265264 25.370747
4094 3 11.491335 18.429936 26.247494
4095 3 10.738546 19.782820 25.017206
4096 2 11.433561 23.191545 16.074947
4097 3 10.473134 22.862415 15.365978
4098 3 12.347523 23.739104 14.556290
4099 2 20.882328 20.170250 19.893428
4100 3 19.900637 20.662930 19.600124
4101 3 20.731635 20.791507 20.059731
4102 2 25.480538 35.741250 19.938348
4103 3 24.552525 35.761365 20.166009
4104 3 25.909385 35.479965 21.246519
4105 2 17.120727 33.364115 27.411961
4106 3 17.769651 33.322592 27.149086
4107 3 17.755301 32.815401 28.193997
4108 2 24.855890 25.493297 14.238747
4109 3 24.111679 25.659399 15.131598
4110 3 24.304424 26.550489 14.551736
4111 2 37.770283 16.618340 21.915433
4112 3 37.051032 16.413703 23.383226
4113 3 38.766764 15.292324 23.077111
4114 2 33.570908 26.554287 27.611436
4115 3 33.913094 24.475626 30.234456
4116 3 33.059274 26.852720 28.736818
4117 2 0.587835 22.657635 19.512250
4118 3 0.529739 23.116611 21.015627
4119 3 1.530829 21.462723 20.455294
4120 2 4.905884 17.443272 21.161760
4121 3 5.002131 17.949829 22.177824
4122 3 3.791869 18.102003 19.888981
4123 2 10.970853 31.549623 24.716226
4124 3 9.286926 32.007243 23.915716
4125 3 10.375023 32.310793 24.519264
4126 2 11.186214 11.979337 21.178147
4127 3 10.866983 12.119131 19.763596
4128 3 11.171193 12.878434 21.420049
4129 2 6.352043 33.315663 15.062210
4130 3 5.589728 33.228871 14.684100
4131 3 5.438539 34.764487 16.179606
4132 2 21.665261 24.080037 27.115588
4133 3 20.942096 25.482802 28.011286
4134 3 22.207189 24.555104 28.118246
4135 2 29.154574 25.003061 26.767643
4136 3 28.284378 24.050011 27.864705
4137 3 28.929922 25.915333 28.088709
4138 2 27.407781 17.691728 37.048641
4139 3 26.579034 17.460459 38.862008
4140 3 25.931402 16.954548 38.530799
4141 2 33.839981 18.819365 15.672498
4142 3 34.799147 17.726135 12.257763
4143 3 34.674200 17.373643 16.459492
4144 2 23.973012 36.340088 10.225956
4145 3 22.623217 33.817249 10.850878
4146 3 23.218074 35.280369 9.953009
4147 2 21.082723 25.085452 17.996803
4148 3 20.630112 25.253418 18.137156
4149 3 20.054019 25.087207 18.513315
4150 2 9.374895 35.698129 27.248693
4151 3 10.215387 36.002619 25.838921
4152 3 9.778930 35.452093 27.804851
4153 2 29.739063 28.121040 21.700998
4154 3 29.290328 28.109536 20.248223
4155 3 30.180811 28.468494 20.233939
4156 2 14.132908 24.506537 24.662924
4157 3 14.692226 25.710690 25.524448
4158 3 15.531167 25.596694 27.568549
4159 2 10.551198 21.118397 22.859185
4160 3 11.184636 21.961401 24.883639
4161 3 9.614190 23.716632 24.838159
4162 2 21.911046 26.333650 19.675821
4163 3 20.955116 26.403257 19.189487
4164 3 20.847080 25.059479 18.406388
4165 2 5.200929 15.514107 16.676172
4166 3 5.769918 13.832022 17.941373
4167 3 6.234724 13.689551 16.891494
4168 2 15.416155 28.254246 29.218069
4169 3 15.275673 26.129147 30.679246
4170 3 15.564632 25.521519 30.207006
4171 2 11.916875 19.238031 17.841056
4172 3 11.943613 17.781612 18.351033
4173 3 11.388806 19.603519 18.055834
4174 2 10.406006 35.224296 18.081111
4175 3 10.930096 34.446068 18.004455
4176 3 10.267350 35.390190 19.832283
4177 2 19.751086 25.083450 20.288395
4178 3 20.160712 25.433502 19.280854
4179 3 20.329324 24.898388 19.754487
4180 2 23.382361 23.733233 23.852921
4181 3 22.514359 24.813014 22.744719
4182 3 22.644717 24.451245 23.727536
4183 2 18.682059 43.297148 19.547268
4184 3 17.872464 41.630584 19.195925
4185 3 19.271797 41.057422 19.900073
4186 2 26.745357 24.224772 23.932176
4187 3 26.863257 23.880216 23.820086
4188 3 26.837729 23.243265 23.677125
4189 2 18.284476 38.938790 35.394348
4190 3 17.650959 37.499960 35.286776
4191 3 16.916290 36.701305 34.805780
4192 2 22.875558 26.091359 30.885082
4193 3 23.405556 24.936933 29.688516
4194 3 23.144488 25.937264 30.190855
4195 2 5.333519 20.574071 31.035018
4196 3 4.544146 20.953926 32.370874
4197 3 5.767133 20.871852 31.576965
4198 2 6.353996 27.009537 9.807345
4199 3 6.920842 26.554738 8.630657
4200 3 7.059688 26.157128 9.117329
4201 2 23.832474 38.933841 27.838356
4202 3 24.313906 38.516674 27.471373
4203 3 23.486848 40.662536 28.193441
4204 2 14.917515 12.806282 19.337140
4205 3 15.357065 14.480052 19.717649
4206 3 15.063473 14.129080 18.859664
4207 2 16.779703 22.199908 30.322520
4208 3 15.384695 22.218989 30.822412
4209 3 15.688370 22.512258 29.582807
4210 2 10.703622 18.777317 30.095221
4211 3 10.431232 19.691772 28.675225
4212 3 9.895793 18.670254 29.093555
4213 2 16.314294 33.073272 14.885465
4214 3 15.664063 34.571971 15.268267
4215 3 16.842493 34.250992 14.880039
4216 2 24.584504 30.888815 26.728367
4217 3 23.568678 30.317795 24.556794
4218 3 24.077308 30.434780 24.857172
4219 2 13.454839 14.824052 20.100358
4220 3 12.216381 14.152590 21.432933
4221 3 12.967439 14.811913 22.250249
4222 2 14.068203 28.586049 42.556974
4223 3 14.566061 30.100574 42.369260
4224 3 14.053445 29.770679 42.984410
4225 2 28.991438 19.630225 33.149164
4226 3 29.317119 21.323360 33.356480
4227 3 28.607663 19.557355 33.245894
4228 2 29.502227 40.263804 25.070409
4229 3 28.895457 40.413465 25.786544
4230 3 29.786932 40.114342 24.900891
4231 2 30.992165 34.232306 16.618557
4232 3 31.710143 35.041275 18.654207
4233 3 30.982110 33.577373 17.933341
4234 2 2.080568 19.084091 36.869264
4235 3 2.979712 19.999565 37.669638
4236 3 2.931455 19.504908 36.895078
4237 2 6.085928 2.433058 31.920423
4238 3 6.550858 2.970523 31.212847
4239 3 5.863610 1.457334 29.712778
4240 2 16.038674 12.738862 13.482261
4241 3 15.203460 12.438480 14.443958
4242 3 16.273248 13.359995 14.174437
4243 2 12.764675 5.637604 34.319381
4244 3 11.742726 6.253960 33.180192
4245 3 10.861354 6.095160 32.817374
4246 2 20.800911 17.056785 31.059875
4247 3 20.739751 17.050950 31.522713
4248 3 19.832719 17.036488 30.504561
4249 2 26.456391 11.426421 13.188125
4250 3 25.833582 13.034893 11.860129
4251 3 24.894417 12.422343 10.383473
4252 2 12.470898 9.463677 39.449330
4253 3 12.399219 11.082248 39.291431
4254 3 13.473704 10.675006 38.059411
4255 2 13.206514 8.799069 21.505498
4256 3 12.074230 7.633609 21.831068
4257 3 12.709935 8.192849 23.540622
4258 2 20.284208 6.332981 23.489610
4259 3 21.300530 9.487903 21.699068
4260 3 20.243092 8.508113 24.563773
4261 2 26.459967 10.029219 26.116778
4262 3 25.720567 9.634306 28.422789
4263 3 27.111987 8.615345 26.126699
4264 2 19.859781 23.598369 26.491243
4265 3 19.818076 24.373119 25.731743
4266 3 19.004796 23.000560 25.746368
4267 2 27.266646 10.202786 25.688401
4268 3 27.581016 10.168331 23.864788
4269 3 26.186488 11.255298 25.218485
4270 2 21.779305 16.174411 27.689989
4271 3 22.366597 15.678924 26.772781
4272 3 23.087036 16.171216 25.777791
4273 2 -2.895959 0.227874 11.803789
4274 3 -1.515456 1.275310 10.669761
4275 3 -2.201074 -0.289534 10.514754
4276 2 1.330365 9.580598 23.067033
4277 3 0.078664 10.287549 25.761065
4278 3 0.389237 9.369922 23.502778
4279 2 13.785836 16.129366 18.437282
4280 3 14.438338 17.282476 20.167871
4281 3 13.413217 16.285750 17.085560
4282 2 17.445678 11.402242 21.599613
4283 3 17.107502 11.516785 21.204232
4284 3 18.790535 11.694046 22.944396
4285 2 16.053354 -5.239463 26.444158
4286 3 15.512523 -4.392469 28.510517
4287 3 14.218576 -5.323681 29.396016
4288 2 8.792769 4.308473 26.382877
4289 3 7.806673 4.081059 25.386208
4290 3 8.941661 3.865227 25.514739
4291 2 11.837757 16.034442 30.345174
4292 3 10.375534 15.414032 30.533285
4293 3 9.417949 14.358874 31.157337
4294 2 24.860980 16.845153 35.596085
4295 3 25.979397 17.675198 35.306294
4296 3 24.632261 18.535531 35.207229
4297 2 13.419640 5.759726 15.237490
4298 3 13.377488 6.365286 15.937982
4299 3 12.123464 5.236948 16.430399
4300 2 30.901724 20.109304 24.155375
4301 3 30.507357 19.323765 24.168503
4302 3 30.738750 20.090039 23.309617
4303 2 35.965997 10.465270 24.377860
4304 3 35.305596 9.725801 24.450718
4305 3 35.763307 9.997010 23.677220
4306 2 28.278173 1.414013 30.366776
4307 3 26.828079 0.339928 29.744694
4308 3 27.672114 1.347943 30.362950
4309 2 25.875887 19.371196 27.443146
4310 3 26.157787 19.470615 26.875122
4311 3 25.717271 18.655794 27.367937
4312 2 4.770735 10.818489 28.842199
4313 3 5.366780 9.680049 27.791923
4314 3 4.512875 10.075400 27.508050
4315 2 14.223242 7.148883 31.385028
4316 3 12.765922 5.024137 30.990251
4317 3 14.393696 6.830270 30.711932
4318 2 25.430102 20.637520 18.009911
4319 3 25.685717 20.629832 17.833321
4320 3 24.677354 22.757214 15.347873
4321 2 18.960179 23.213810 36.553194
4322 3 18.921220 22.940205 35.594725
4323 3 18.765114 23.412618 35.467934
4324 2 13.188230 28.362444 28.665396
4325 3 12.963050 28.376983 29.115032
4326 3 11.410093 27.911422 27.892611
4327 2 22.080136 21.089790 13.262561
4328 3 22.186427 21.212778 14.270622
4329 3 22.227378 21.219720 12.995936
4330 2 28.332369 20.184665 30.684798
4331 3 28.521685 21.779973 31.096158
4332 3 28.771651 21.556023 30.383895
4333 2 21.720816 2.306725 24.236964
4334 3 21.453707 2.053703 24.976726
4335 3 21.871488 2.625036 23.625323
4336 2 21.366789 9.590195 13.949855
4337 3 22.181967 10.146290 13.410977
4338 3 22.086128 9.516255 12.962800
4339 2 12.954650 22.932955 28.847931
4340 3 14.460158 24.332858 29.895251
4341 3 14.638453 23.799179 27.110666
4342 2 17.686640 5.922532 26.555554
4343 3 17.099214 3.962504 26.079360
4344 3 18.415534 4.750974 26.369334
4345 2 25.538722 12.484367 33.929575
4346 3 24.698758 11.741550 33.967484
4347 3 25.616804 11.174731 31.317517
4348 2 24.664854 28.486633 26.569024
4349 3 26.007169 29.194904 26.594831
4350 3 25.754591 27.812683 25.283685
4351 2 22.106689 13.722278 31.613314
4352 3 23.771793 14.388032 33.062834
4353 3 23.086330 13.535939 32.844253
4354 2 9.378421 22.448870 18.396953
4355 3 11.235307 22.823106 16.254038
4356 3 10.018598 21.061328 18.593739
4357 2 28.507868 20.696537 23.012757
4358 3 27.049085 19.846515 22.813150
4359 3 27.451494 20.562341 23.819199
4360 2 11.801812 10.368832 20.051424
4361 3 11.471685 10.690352 19.334514
4362 3 11.631082 10.132262 20.165326
4363 2 23.385713 13.684030 29.063759
4364 3 23.482424 13.485436 31.422902
4365 3 24.279725 14.479507 29.174359
4366 2 18.677894 24.197789 12.593969
4367 3 20.031406 23.999601 12.132490
4368 3 21.277845 24.187025 12.936321
4369 2 7.249555 20.632459 40.742635
4370 3 7.723156 19.823886 37.351310
4371 3 7.961336 20.943749 40.571449
4372 2 37.073718 13.089351 20.524289
4373 3 36.978294 13.601935 20.644009
4374 3 37.581550 13.152748 20.111707
4375 2 30.249929 17.101613 31.290797
4376 3 31.059352 17.403007 31.768640
4377 3 29.893434 16.656247 29.664997
4378 2 33.389057 11.789291 19.366598
4379 3 33.868941 13.409344 18.137714
4380 3 32.368714 12.982755 17.704096
4381 2 43.680858 9.876175 14.174824
4382 3 43.295064 9.771911 18.127891
4383 3 42.824857 9.917746 14.728152
4384 2 3.689307 19.168239 17.491849
4385 3 5.184202 18.610907 18.304507
4386 3 4.542825 18.779482 20.596884
4387 2 7.719315 15.135647 25.730780
4388 3 8.941661 16.922673 25.391306
4389 3 8.742745 17.776853 25.646496
4390 2 13.817229 15.683232 31.545366
4391 3 15.507525 16.439860 32.853581
4392 3 15.205381 16.308255 32.339248
4393 2 14.699872 22.094746 23.509620
4394 3 14.207773 22.415350 23.380601
4395 3 15.549878 23.131197 23.872216
4396 2 32.552202 11.665320 28.598784
4397 3 31.699689 9.585920 28.137795
4398 3 32.343732 12.592856 29.790110
4399 2 7.163825 31.919961 26.490238
4400 3 7.654232 31.448420 27.545788
4401 3 8.068482 30.095493 25.816836
4402 2 14.236891 18.448146 24.766465
4403 3 13.163208 18.222001 27.442312
4404 3 13.496756 18.135402 27.175976
4405 2 30.148292 25.573457 28.280294
4406 3 30.440984 25.291974 27.527391
4407 3 29.886279 24.415714 27.086002
4408 2 11.088335 31.312821 33.092296
4409 3 10.345828 30.874978 33.993152
4410 3 10.042372 29.056632 33.185864
4411 2 1.110546 17.273062 18.139067
4412 3 0.658277 16.775721 17.966088
4413 3 1.445822 16.750202 17.149787
4414 2 20.706305 29.214049 17.945312
4415 3 20.725123 29.392024 18.406395
4416 3 19.757529 29.386751 18.089087
4417 2 22.398347 16.257972 11.354113
4418 3 22.284164 14.340253 12.657826
4419 3 21.723468 14.894949 9.181703
4420 2 35.540418 18.228415 27.480386
4421 3 35.365335 17.990480 26.717108
4422 3 35.044091 18.133945 26.465311
4423 2 16.243412 16.675238 26.255503
4424 3 17.395660 17.243411 25.949937
4425 3 16.292879 17.613399 25.013507
4426 2 5.178953 1.298179 16.161390
4427 3 5.426271 2.781110 16.460209
4428 3 5.902475 2.214796 17.023295
4429 2 14.321953 26.854135 39.951780
4430 3 13.667863 26.244841 37.953277
4431 3 14.340598 27.487956 39.941308
4432 2 11.374695 25.831274 28.918224
4433 3 11.875265 26.037245 28.312307
4434 3 10.345801 25.729356 28.541490
4435 2 16.208614 30.957434 25.992360
4436 3 17.753637 31.097698 26.024471
4437 3 17.379448 30.696015 26.618150
4438 2 23.241839 26.311254 29.734656
4439 3 23.991383 26.701248 29.197398
4440 3 23.366326 27.027626 28.828594
4441 2 35.244553 24.342421 36.999517
4442 3 36.766312 23.634752 36.081500
4443 3 35.158448 23.709770 36.777026
4444 2 15.424365 25.619532 33.355087
4445 3 15.415179 26.464153 33.661303
4446 3 15.635692 25.796162 32.163635
4447 2 11.634112 18.088255 30.154400
4448 3 10.804853 17.136169 30.870190
4449 3 12.159312 17.036904 29.069383
4450 2 -5.829765 16.533418 21.163364
4451 3 -6.119892 17.459235 20.649377
4452 3 -6.174406 16.869594 22.660555
4453 2 32.610171 13.378166 32.711636
4454 3 32.128136 14.748117 34.027391
4455 3 32.886044 12.500765 32.360284
4456 2 31.030847 33.750042 11.379562
4457 3 29.418117 33.346342 12.321293
4458 3 30.834660 32.886167 12.439949
4459 2 31.399049 24.288712 28.151073
4460 3 30.190177 23.846434 28.538100
4461 3 30.741936 23.749085 28.512845
4462 2 10.811324 22.729439 37.141916
4463 3 10.174215 24.483380 37.975448
4464 3 11.874565 21.445797 35.626401
4465 2 6.153808 27.656800 26.004480
4466 3 5.501388 27.448767 25.527446
4467 3 5.303429 27.958676 24.767062
4468 2 21.761730 21.238293 36.255125
4469 3 21.847640 22.982519 37.923491
4470 3 20.898932 21.864388 36.176125
4471 2 27.611248 14.018085 30.219382
4472 3 26.991549 14.458619 28.938460
4473 3 25.757397 14.567497 28.103003
4474 2 18.663451 20.235444 23.083762
4475 3 20.303767 22.322542 21.747471
4476 3 18.695965 20.529919 22.361415
4477 2 25.314297 23.873638 25.584138
4478 3 25.749957 23.072305 26.737358
4479 3 25.815033 23.580815 26.677350
4480 2 19.218699 21.049314 9.581279
4481 3 20.077917 20.678223 10.307608
4482 3 18.702428 20.147375 10.144495
4483 2 23.182553 33.497342 11.790534
4484 3 23.685820 32.947195 12.065578
4485 3 22.685624 32.797394 12.311930
4486 2 -0.156780 33.112441 32.860666
4487 3 -0.822818 32.143207 32.467078
4488 3 -0.164365 33.545706 33.111171
4489 2 8.451333 28.784098 38.164807
4490 3 6.817143 28.022577 36.541881
4491 3 8.123626 29.056153 37.217459
4492 2 9.815368 24.897761 33.443847
4493 3 9.122941 25.040000 31.609301
4494 3 8.856886 26.233095 31.932403
4495 2 17.927567 27.518319 14.182375
4496 3 17.616664 29.414799 13.066546
4497 3 17.074638 28.766022 14.826470
4498 2 17.162850 20.040614 12.085994
4499 3 16.384928 19.370145 11.851612
4500 3 16.053166 19.249134 13.908798
4501 2 24.392848 34.446146 21.146983
4502 3 25.039199 32.578672 20.668787
4503 3 25.042728 33.236455 21.378360
4504 2 27.618417 26.032805 37.711723
4505 3 26.418084 25.576747 38.785444
4506 3 27.034685 24.916209 39.153414
4507 2 8.993631 21.233176 15.541901
4508 3 8.735948 21.102519 15.720621
4509 3 9.637392 21.173806 17.505104
4510 2 38.342752 17.791916 37.317750
4511 3 38.684960 17.775892 35.548036
4512 3 38.947456 16.925994 36.626606
4513 2 4.271072 11.199637 25.075117
4514 3 4.994686 12.230941 24.910937
4515 3 4.716853 13.115016 21.618838
4516 2 5.991416 12.913491 35.192625
4517 3 5.487440 12.418821 34.699175
4518 3 6.998525 11.643668 36.580817
4519 2 7.284973 20.190416 37.336616
4520 3 5.959706 17.398297 36.238456
4521 3 7.770125 18.223736 36.397446
4522 2 9.331685 31.788491 39.295834
4523 3 10.729992 31.981145 38.706043
4524 3 9.050567 32.632424 39.617831
4525 2 22.810038 33.607934 31.603654
4526 3 22.272413 32.993952 30.585270
4527 3 22.258195 33.791909 30.979671
4528 2 16.109142 25.066100 13.777942
4529 3 15.678139 26.165811 13.376331
4530 3 17.741194 25.969327 14.488109
4531 2 6.399762 1.086367 26.026805
4532 3 7.648851 1.702135 26.671299
4533 3 7.887980 1.289323 25.998740
4534 2 28.042636 11.048122 29.987815
4535 3 26.601374 11.967982 27.700356
4536 3 26.803261 12.080120 30.506708
4537 2 16.340321 17.988307 22.734561
4538 3 15.111403 18.297657 21.188100
4539 3 17.066838 17.849410 23.914784
4540 2 15.635950 10.114059 8.464243
4541 3 16.080798 9.041203 6.054017
4542 3 16.395124 8.017922 7.174061
4543 2 31.316111 17.814104 25.087939
4544 3 29.911319 16.353347 25.303572
4545 3 30.801943 16.790188 26.226169
4546 2 24.045338 39.274598 9.477342
4547 3 23.559394 38.856381 9.939368
4548 3 25.071706 37.978247 10.213334
4549 2 35.548999 30.748744 18.532924
4550 3 35.561874 31.249846 18.740375
4551 3 35.852387 31.130766 20.224220
4552 2 29.592037 19.515598 23.710866
4553 3 29.604816 19.619082 21.624231
4554 3 30.669937 19.695569 23.786094
4555 2 13.928137 18.879286 29.549003
4556 3 13.587598 17.273624 27.652261
4557 3 13.648903 18.522661 27.163900
4558 2 -1.139965 12.361473 29.547909
4559 3 -2.166513 12.902532 29.760817
4560 3 -1.410556 12.528979 29.238321
4561 2 21.947423 26.753408 31.030432
4562 3 21.595644 26.664232 31.180614
4563 3 22.596818 26.329748 31.177314
4564 2 -7.671652 21.600311 35.473491
4565 3 -7.487733 20.404817 33.439506
4566 3 -7.763933 20.281623 34.909488
4567 2 9.451713 29.266125 24.639761
4568 3 10.287084 29.623781 25.895321
4569 3 10.392013 29.016174 25.063955
4570 2 8.773795 25.833087 22.614551
4571 3 7.670024 26.861064 21.522238
4572 3 9.163592 26.497374 22.758112
4573 2 15.621994 8.984183 23.263364
4574 3 15.039506 11.688047 21.564635
4575 3 14.520932 9.818918 22.967284
4576 2 32.305911 6.830554 18.596640
4577 3 31.066961 5.083244 18.003192
4578 3 31.776255 6.536164 19.392471
4579 2 35.311904 25.000360 33.690100
4580 3 34.520188 23.516205 34.911714
4581 3 34.802807 24.361285 33.518478
4582 2 35.238161 34.134160 29.883844
4583 3 35.721226 35.352423 29.670403
4584 3 36.079103 33.906336 27.779242
4585 2 31.440971 16.319814 27.466691
4586 3 31.357746 16.309251 27.668448
4587 3 31.737524 18.133690 26.069425
4588 2 12.614309 34.543405 26.651805
4589 3 11.783522 35.116176 26.483543
4590 3 11.813569 33.667037 27.738807
4591 2 34.539617 26.174572 24.361185
4592 3 34.264035 26.743583 25.278742
4593 3 33.802350 26.987052 26.843751
4594 2 8.064270 38.448029 25.249638
4595 3 7.526483 39.216558 26.866624
4596 3 6.837163 40.229883 27.143569
4597 2 16.129380 32.574665 26.273468
4598 3 14.922092 32.794476 26.138732
4599 3 15.398662 32.819504 27.270189
4600 2 16.185176 19.595995 14.080834
4601 3 16.618391 19.784748 12.507441
4602 3 16.175660 18.920851 13.529142
4603 2 10.041179 43.230030 25.957202
4604 3 10.053243 42.875946 27.069332
4605 3 9.375371 43.093059 28.545619
4606 2 12.737218 22.389272 38.787227
4607 3 13.481234 24.436399 39.107009
4608 3 12.028548 22.536345 38.370425
4609 2 7.765973 31.654219 22.936384
4610 3 8.047859 32.048927 23.699803
4611 3 8.375846 33.689535 24.139853
4612 2 30.619648 24.678472 20.634982
4613 3 30.724255 24.830843 22.459148
4614 3 31.182922 25.342870 21.011806
4615 2 14.643349 24.611273 27.113343
4616 3 14.597456 24.470836 27.206915
4617 3 14.446767 23.524799 28.265532
4618 2 26.691937 27.841929 36.267000
4619 3 27.197744 28.059669 34.643684
4620 3 28.153439 27.729295 36.553331
4621 2 31.082958 30.390000 10.837975
4622 3 28.943544 30.015678 9.427959
4623 3 29.443069 29.803639 11.176725
4624 2 24.222862 17.878024 24.382466
4625 3 24.739320 18.575238 24.606390
4626 3 25.108019 18.967766 25.185681
4627 2 23.846064 25.375036 28.156958
4628 3 25.013904 25.874138 29.281904
4629 3 25.038057 24.680852 29.936223
4630 2 27.451738 21.409675 21.696134
4631 3 24.812628 19.685409 20.499460
4632 3 25.278517 20.378119 22.250399
4633 2 10.566900 5.916771 42.285777
4634 3 9.644116 7.081623 39.962581
4635 3 9.558259 5.381063 42.001946
4636 2 23.157885 9.444057 22.451748
4637 3 23.024688 10.610169 22.460574
4638 3 23.323842 9.595567 22.622969
4639 2 10.807243 0.573368 37.674390
4640 3 11.075672 0.978317 36.851682
4641 3 10.069713 1.232136 35.711653
4642 2 21.499462 8.620713 9.167821
4643 3 21.232557 8.018930 9.170997
4644 3 21.257232 8.063106 9.227461
4645 2 20.650798 6.969043 38.285190
4646 3 20.935527 8.851445 37.918983
4647 3 19.203821 8.380210 41.018903
4648 2 14.598031 23.554542 32.116057
4649 3 15.180653 25.315529 30.399978
4650 3 15.179211 23.362035 31.596469
4651 2 40.442653 9.317630 30.554565
4652 3 39.734969 8.868605 31.951375
4653 3 39.312402 7.287067 31.049986
4654 2 11.497783 -4.082972 36.510121
4655 3 12.111828 -5.099304 37.145769
4656 3 9.900102 -4.880349 37.172460
4657 2 17.337477 19.875723 33.603330
4658 3 16.260006 19.369022 34.675904
4659 3 16.639500 18.996347 33.222155
4660 2 19.594723 15.623480 11.296681
4661 3 19.285098 16.271432 9.239231
4662 3 19.527644 14.932958 10.672559
4663 2 18.881028 13.688241 22.556687
4664 3 18.300108 14.754345 22.338582
4665 3 18.032549 15.113280 23.536243
4666 2 22.552280 19.421052 24.786519
4667 3 21.968584 19.779547 26.364348
4668 3 22.551277 21.122607 26.056537
4669 2 36.174724 11.686777 27.994161
4670 3 35.458288 9.544893 27.219067
4671 3 35.446787 10.968386 27.160422
4672 2 0.642098 14.661475 26.019756
4673 3 2.059360 14.253107 25.144506
4674 3 0.639726 15.117501 25.461120
4675 2 9.037251 24.029836 28.117930
4676 3 9.662142 23.567595 30.109653
4677 3 10.069287 23.169890 29.789200
4678 2 12.107147 17.202207 28.960309
4679 3 13.291787 17.496083 28.977648
4680 3 13.643174 17.511225 30.573172
4681 2 13.082392 5.319012 22.481116
4682 3 12.394385 4.902311 22.614676
4683 3 12.015532 5.478863 24.078151
4684 2 4.906112 4.745740 16.300264
4685 3 3.931180 5.279022 15.022943
4686 3 3.528179 5.389712 16.553354
4687 2 11.555489 -0.041660 22.801067
4688 3 11.984369 -1.779852 22.260797
4689 3 11.714833 -1.721830 22.424583
4690 2 25.625630 22.690337 18.815192
4691 3 24.500596 21.033619 18.022424
4692 3 25.413142 20.334849 16.912126
4693 2 29.920197 13.564820 27.817852
4694 3 31.526382 14.514286 28.218629
4695 3 30.834494 13.881050 26.205416
4696 2 21.173722 11.456629 21.434359
4697 3 20.511119 11.785605 21.502511
4698 3 21.676077 11.742464 21.994936
4699 2 30.934512 11.306541 24.882783
4700 3 30.165132 10.748318 24.659662
4701 3 29.860947 10.848854 25.187547
4702 2 16.209468 9.160851 20.916627
4703 3 15.906741 9.981772 19.820475
4704 3 15.894538 10.186662 18.555655
4705 2 20.252639 12.160914 26.079472
4706 3 19.693647 10.885340 26.330428
4707 3 21.037212 10.574198 27.340984
4708 2 27.204689 12.332912 33.701085
4709 3 27.290094 12.234691 33.296227
4710 3 27.999192 12.326439 33.242997
4711 2 -0.882168 7.319630 32.716627
4712 3 -1.188568 7.750060 31.761181
4713 3 0.812659 7.667741 32.655358
4714 2 17.893383 33.761562 12.415492
4715 3 18.180152 33.118727 13.930232
4716 3 18.071002 33.694432 14.592166
4717 2 11.044595 8.132205 30.546735
4718 3 10.822566 7.785504 31.022124
4719 3 10.099926 7.146056 32.236017
4720 2 9.988171 26.555677 29.235868
4721 3 10.014426 26.861672 29.456716
4722 3 10.706068 24.821266 29.527350
4723 2 20.101902 8.306764 33.463354
4724 3 20.749672 7.714716 32.217809
4725 3 20.561718 9.085493 33.262845
4726 2 0.592098 9.659444 25.998936
4727 3 1.226538 8.883630 28.082296
4728 3 0.084367 8.045082 29.236829
4729 2 23.426244 0.025484 26.013490
4730 3 22.470206 -0.508093 25.210878
4731 3 23.984412 0.228647 23.802531
4732 2 10.714413 22.543235 28.399830
4733 3 9.893259 21.815003 28.483984
4734 3 12.059235 22.840902 28.937034
4735 2 26.673344 19.550379 24.206901
4736 3 26.537723 19.907227 23.707080
4737 3 26.920784 19.192738 23.518484
4738 2 33.617416 15.360090 34.337570
4739 3 33.755306 14.998732 34.925705
4740 3 34.058324 15.322844 34.281746
4741 2 24.686480 18.009089 23.534657
4742 3 24.728555 18.052761 22.056434
4743 3 25.398759 19.927780 21.501655
4744 2 28.756844 14.066773 16.106463
4745 3 28.525845 13.146690 16.762706
4746 3 28.668702 15.114249 17.581027
4747 2 47.351654 32.778752 6.293128
4748 3 47.261844 34.400759 5.728603
4749 3 47.139098 32.883638 7.720645
4750 2 33.795699 11.102367 18.065399
4751 3 32.140514 10.922035 17.413522
4752 3 32.763629 13.009402 19.224550
4753 2 21.798177 19.132902 29.347112
4754 3 22.491662 18.616960 30.195377
4755 3 23.183151 18.199824 31.274903
4756 2 25.110361 29.130334 34.661931
4757 3 24.844508 27.792560 34.152723
4758 3 25.879285 28.450434 34.199858
4759 2 11.185002 22.709228 34.683378
4760 3 11.671256 22.978913 34.340810
4761 3 10.757811 23.076921 34.147226
4762 2 2.947963 20.447493 22.270878
4763 3 1.802422 21.010299 22.206791
4764 3 2.822585 21.303790 21.607897
4765 2 21.831691 16.592711 25.952667
4766 3 20.139795 15.856814 27.229786
4767 3 21.444827 16.407856 26.968593
4768 2 15.262883 10.156878 15.102467
4769 3 15.503274 11.295396 14.971392
4770 3 13.949959 10.307327 16.411373
4771 2 21.004259 2.858669 25.685004
4772 3 21.096635 1.663329 26.154543
4773 3 20.341455 2.074512 26.831446
4774 2 20.653453 9.953086 18.428572
4775 3 21.429025 9.874031 18.272176
4776 3 21.849857 9.516129 18.900220
4777 2 25.827165 15.861677 14.136789
4778 3 26.444899 15.286228 17.434282
4779 3 27.088842 16.112972 15.131705
4780 2 23.618291 10.712820 39.258730
4781 3 23.525917 10.854164 39.755322
4782 3 24.783481 9.128421 40.311967
4783 2 29.818850 17.979435 30.174724
4784 3 29.307089 18.767833 33.560172
4785 3 29.462199 18.673359 31.398248
4786 2 44.582518 11.450894 22.700498
4787 3 46.228918 11.762436 21.707601
4788 3 45.270858 10.756275 22.500060
4789 2 -9.712216 20.160651 18.120254
4790 3 -8.120271 18.361948 18.604670
4791 3 -8.597038 20.182807 19.380944
4792 2 12.905133 9.661991 27.504795
4793 3 11.860081 8.092244 26.682381
4794 3 12.445553 10.053770 26.516396
4795 2 22.059147 10.280737 23.307633
4796 3 20.565933 9.717638 25.417223
4797 3 22.320984 11.279814 25.173714
4798 2 -1.633542 8.925360 32.418443
4799 3 -1.202298 10.259910 32.830194
4800 3 -1.723696 9.417025 33.134607
4801 2 34.908579 28.147750 17.873273
4802 3 32.966750 27.072711 18.886797
4803 3 33.504169 27.145662 17.430351
4804 2 35.415556 19.767025 30.381660
4805 3 33.969580 19.351421 32.284541
4806 3 34.478911 19.896262 31.663139
4807 2 30.902946 -0.150775 27.293539
4808 3 29.929052 -0.401979 27.979924
4809 3 30.456753 0.096931 27.089667
4810 2 30.903670 10.272205 41.278094
4811 3 29.260008 9.938421 39.180870
4812 3 30.362086 9.683905 38.825175
4813 2 30.447114 13.404853 40.546200
4814 3 29.853127 13.762638 38.649983
4815 3 29.636830 13.404258 38.167981
4816 2 4.025284 21.498553 9.921075
4817 3 4.078804 19.662101 8.024495
4818 3 5.088254 21.368538 10.125519
4819 2 8.368572 2.838294 34.856315
4820 3 8.052747 3.596771 33.732938
4821 3 9.140758 3.734280 33.748206
4822 2 12.616843 26.736513 20.323334
4823 3 12.032168 25.646793 22.189659
4824 3 12.326175 25.919327 21.195337
4825 2 12.595647 8.543329 21.545567
4826 3 12.816558 8.102715 20.618457
4827 3 12.343157 8.710146 21.069551
4828 2 27.070426 36.884458 18.483004
4829 3 27.396647 36.177746 20.128013
4830 3 27.622007 37.781228 20.490383
4831 2 46.058058 23.847650 26.978640
4832 3 45.629846 23.261164 26.125244
4833 3 44.792199 23.057324 25.966691
4834 2 36.492674 10.866702 42.610791
4835 3 37.516285 10.962102 39.553829
4836 3 37.422608 9.961255 40.252820
4837 2 20.234062 6.768227 36.118523
4838 3 21.251276 6.912501 35.790231
4839 3 19.531908 7.343004 34.783208
4840 2 -6.277235 13.673482 46.462071
4841 3 -5.899982 15.707599 46.448786
4842 3 -5.676625 14.111628 49.028884
4843 2 21.394160 4.597058 33.948064
4844 3 22.404459 5.451328 35.480598
4845 3 21.481546 4.836521 33.025945
4846 2 18.397848 12.881130 24.728316
4847 3 19.169951 15.397954 24.135166
4848 3 19.693870 14.724359 22.837972
4849 2 12.498415 16.870662 13.762558
4850 3 11.643291 15.889284 15.544696
4851 3 11.536745 16.457821 17.017033
4852 2 33.680902 31.780986 26.968477
4853 3 32.121721 31.681087 26.183911
4854 3 31.272783 31.919218 28.510551
4855 2 19.763197 21.112862 32.931542
4856 3 19.237175 20.827079 33.755885
4857 3 19.372711 20.957726 31.658393
4858 2 30.765562 23.931263 22.778732
4859 3 32.373570 22.371990 21.586821
4860 3 30.970507 22.279349 21.751679
4861 2 18.624305 15.025723 23.576773
4862 3 19.278610 14.690970 23.363895
4863 3 19.336510 16.266309 22.600163
4864 2 17.359574 18.576017 28.709063
4865 3 18.849916 19.151032 27.801523
4866 3 17.832368 18.000397 28.492827
4867 2 10.927489 8.175459 31.060833
4868 3 9.627017 9.508226 28.728761
4869 3 9.147950 7.137191 31.751848
4870 2 14.707699 9.105118 30.623853
4871 3 13.996750 8.795635 30.732325
4872 3 13.986535 9.435429 33.778556
4873 2 26.278092 34.942408 29.111650
4874 3 26.340044 33.246599 29.867538
4875 3 26.495404 34.206219 28.972394
4876 2 38.744626 18.925628 44.601157
4877 3 37.448003 20.537096 43.148465
4878 3 38.042779 18.949811 42.345360
4879 2 11.514555 9.097788 31.409974
4880 3 10.522469 9.373443 33.206645
4881 3 10.974035 10.356529 31.930642
4882 2 34.233871 35.600763 26.109520
4883 3 33.149756 34.985577 27.088831
4884 3 33.586843 35.685332 25.734381
4885 2 16.034073 11.252539 27.940846
4886 3 15.375675 11.608012 27.485785
4887 3 16.179189 10.711060 27.257794
4888 2 16.897775 25.886642 25.959184
4889 3 18.128548 26.324733 25.979512
4890 3 16.985499 27.242771 26.635103
4891 2 8.216908 13.313548 38.719211
4892 3 9.888302 14.027609 39.386378
4893 3 9.579635 13.819530 37.075592
4894 2 19.127664 32.490435 43.493362
4895 3 19.578471 32.565253 42.105384
4896 3 17.757858 32.165086 42.744942
4897 2 21.635027 12.164885 19.110274
4898 3 20.811771 13.233066 19.188696
4899 3 22.198184 13.211839 18.260290
4900 2 29.154264 28.176586 12.715695
4901 3 28.672428 29.660207 9.988763
4902 3 28.438074 28.967763 12.201126
4903 2 24.343406 11.274914 24.021463
4904 3 24.647790 11.752756 23.847628
4905 3 25.499282 11.290071 22.668484
4906 2 21.427858 30.764877 15.496882
4907 3 21.945742 28.272225 14.252351
4908 3 21.841468 28.081729 15.420105
4909 2 29.751496 12.429680 11.557773
4910 3 29.613656 11.395531 13.703666
4911 3 30.248547 11.890967 13.925152
4912 2 6.672982 21.393345 32.017067
4913 3 6.571987 22.446284 32.799840
4914 3 5.376229 20.232705 32.737743
4915 2 9.109169 26.382290 21.634270
4916 3 9.640635 24.875713 21.540215
4917 3 10.116175 24.968678 23.783128
4918 2 32.808858 26.460768 26.738447
4919 3 31.414960 26.405354 26.652557
4920 3 31.948689 26.621770 25.739820
4921 2 14.581752 25.051122 45.695407
4922 3 13.206778 24.268523 46.956243
4923 3 12.818653 24.132001 48.143508
4924 2 17.400477 28.706370 41.665968
4925 3 15.609136 28.906472 42.125896
4926 3 16.345200 28.773050 42.177367
4927 2 0.708085 28.811944 25.314128
4928 3 1.992625 27.928614 24.300878
4929 3 0.414392 27.488805 24.878523
4930 2 27.049340 2.951560 21.792398
4931 3 28.275289 3.714285 23.440206
4932 3 28.428839 1.974523 22.212822
4933 2 27.519605 31.445792 30.874989
4934 3 27.705521 31.051785 30.666181
4935 3 28.447711 29.476831 31.364599
4936 2 25.811705 22.889763 29.617699
4937 3 25.530286 22.727256 29.713431
4938 3 24.862216 23.902967 29.729044
4939 2 26.021683 17.941147 26.639103
4940 3 26.455667 16.021522 27.430803
4941 3 26.560931 17.900781 28.639644
4942 2 13.132109 29.110033 37.973395
4943 3 13.387719 28.338258 39.248857
4944 3 13.056483 31.126219 39.321165
4945 2 26.957104 34.081873 31.922398
4946 3 26.239414 33.373030 30.437961
4947 3 26.076284 32.848665 29.480695
4948 2 34.961496 21.297485 28.685162
4949 3 34.622829 23.289619 30.961719
4950 3 34.646097 20.296700 30.557777
4951 2 11.959844 15.927442 13.012962
4952 3 11.774485 16.505444 15.150148
4953 3 11.318284 17.311280 13.359416
4954 2 15.749534 31.285879 26.728788
4955 3 15.373639 31.545445 26.029780
4956 3 15.275120 30.907843 27.160961
4957 2 20.657591 29.149156 12.814847
4958 3 20.659729 29.215168 13.328507
4959 3 22.905299 27.796866 12.059314
4960 2 9.154514 18.106674 16.738238
4961 3 10.259684 18.784586 16.948214
4962 3 8.916654 18.476867 15.127546
4963 2 18.309673 15.315414 17.445745
4964 3 18.011662 14.510721 16.216305
4965 3 17.099735 15.091410 15.605319
4966 2 21.380257 21.483436 33.416621
4967 3 21.437472 23.759882 32.586053
4968 3 22.502845 22.542486 33.049224
4969 2 19.508275 17.040580 40.345074
4970 3 18.282677 17.141958 38.711674
4971 3 18.942254 16.733780 39.343420
4972 2 25.230701 23.142372 45.120523
4973 3 25.644625 22.551706 46.151863
4974 3 24.342450 22.849524 46.222171
4975 2 20.968839 24.895633 23.192347
4976 3 21.061660 23.560415 23.110030
4977 3 21.008898 24.851043 24.258454
4978 2 22.602435 45.951208 28.162956
4979 3 22.094128 45.411908 24.740498
4980 3 21.766888 43.502221 27.152230
4981 2 33.372366 27.811894 24.439375
4982 3 33.837519 27.280921 22.731552
4983 3 33.412501 28.201206 25.069785
4984 2 32.739393 21.421594 8.763153
4985 3 33.458206 21.402902 9.615249
4986 3 32.727027 20.999339 9.067467
4987 2 38.569845 24.224504 32.604301
4988 3 37.484684 22.051397 34.934281
4989 3 37.779598 22.730309 33.904070
4990 2 18.450611 32.775447 42.048585
4991 3 19.179462 31.507451 41.158479
4992 3 18.529205 32.389370 41.373271
4993 2 3.811964 16.238561 11.217785
4994 3 4.084494 16.934057 13.766846
4995 3 2.807798 16.686316 13.456660
4996 2 7.683091 18.693976 17.126913
4997 3 8.924235 19.134957 17.598152
4998 3 7.486918 18.693281 19.032128
4999 2 36.087589 17.552348 13.460110
5000 3 36.810296 18.100718 11.978369
5001 3 37.895899 18.062226 13.587745
5002 2 16.567310 28.961895 25.526359
5003 3 17.955841 29.887377 24.115887
5004 3 17.281109 27.899500 24.780308
5005 2 9.535180 10.771023 19.306448
5006 3 10.078088 11.111529 19.368501
5007 3 9.526862 12.545601 19.154540
5008 2 18.562177 26.326772 7.719604
5009 3 18.653612 26.536446 9.098089
5010 3 18.292011 25.248232 8.682527
5011 2 16.056089 15.125631 19.274366
5012 3 17.217701 13.433960 20.862692
5013 3 17.050275 12.631149 18.620977
5014 2 29.505430 33.131734 21.566529
5015 3 30.997330 32.859765 20.145846
5016 3 29.908428 32.593428 21.058872
5017 2 13.495612 33.609838 29.416746
5018 3 15.089365 34.813940 28.580344
5019 3 15.256098 33.978146 27.772369
5020 2 22.211515 29.341751 29.677242
5021 3 20.789326 28.431471 30.579976
5022 3 20.754620 28.564868 29.859576
5023 2 26.908424 25.464638 37.638856
5024 3 27.606861 24.831242 38.447981
5025 3 26.669373 24.677658 37.445982
5026 2 35.252420 22.249938 36.000983
5027 3 37.012653 21.873803 36.181859
5028 3 35.855901 24.004884 34.066620
5029 2 6.324829 28.604660 34.447185
5030 3 6.419672 28.323063 34.340318
5031 3 6.994435 29.067945 34.138465
5032 2 12.594550 17.101995 22.630936
5033 3 13.202824 14.473357 21.878445
5034 3 13.191466 15.993399 21.862802
5035 2 -0.199949 18.310278 20.408218
5036 3 -0.101860 17.092919 20.034174
5037 3 -1.164381 18.150289 21.687608
5038 2 10.828989 33.359806 34.885328
5039 3 9.846134 32.978315 34.744654
5040 3 12.376886 32.901986 36.643983
5041 2 9.158971 32.805833 20.440666
5042 3 9.674076 34.372264 21.483013
5043 3 8.714990 33.190158 20.155566
5044 2 17.600909 35.696721 38.539588
5045 3 19.438910 36.029753 36.955061
5046 3 18.797282 34.963920 37.862454
5047 2 29.983747 41.126953 37.933026
5048 3 27.924423 42.127794 38.845989
5049 3 29.734129 41.951027 40.118560
5050 2 12.312294 30.098729 16.261719
5051 3 11.988805 28.068550 14.619211
5052 3 12.503297 28.625077 13.389845
5053 2 24.058337 45.022315 26.664648
5054 3 23.170472 44.832838 27.462233
5055 3 22.806708 46.078152 25.774067
5056 2 21.584752 32.713866 24.909572
5057 3 21.741898 32.177657 24.577858
5058 3 21.951287 33.035666 23.403168
5059 2 24.484440 15.282988 38.109418
5060 3 24.076647 15.734402 37.698708
5061 3 24.472792 15.803667 37.273278
5062 2 12.649729 25.542029 37.536243
5063 3 10.811442 25.419821 36.999027
5064 3 10.710294 25.389166 39.202972
5065 2 24.770999 26.563601 26.931515
5066 3 25.120656 26.280853 26.477087
5067 3 23.598830 26.022482 27.429476
5068 2 16.265713 17.463536 24.903844
5069 3 16.560816 18.186121 26.169606
5070 3 16.357112 17.920689 24.891821
5071 2 17.878657 9.582959 16.669560
5072 3 17.067805 8.954207 16.812931
5073 3 17.440729 8.674662 17.806356
5074 2 29.113096 3.009034 37.095784
5075 3 30.275545 3.068070 36.908975
5076 3 29.007987 4.137664 37.082266
5077 2 5.959622 21.010660 23.550787
5078 3 5.260824 22.071018 22.950565
5079 3 5.125884 21.681447 24.290296
5080 2 21.759556 23.141789 24.010762
5081 3 21.691091 23.333867 24.607196
5082 3 21.063364 23.809235 24.600875
5083 2 16.285119 11.771766 31.088168
5084 3 15.990245 11.804878 29.855683
5085 3 15.160724 11.251154 29.899095
5086 2 33.137555 10.929683 29.087179
5087 3 32.358727 10.527466 30.702038
5088 3 31.459943 9.250933 28.346142
5089 2 17.187233 13.318685 30.787087
5090 3 15.982784 12.777363 31.536851
5091 3 16.780110 13.566197 29.174340
5092 2 26.292450 15.212455 25.885541
5093 3 26.735118 14.842841 25.535201
5094 3 27.062700 15.460141 26.811558
5095 2 11.466608 17.827706 27.237485
5096 3 12.760755 17.283330 30.269223
5097 3 12.498384 17.306908 29.577600
5098 2 28.098550 2.541844 40.231942
5099 3 29.064130 2.258288 37.575969
5100 3 28.392459 2.593911 39.460404
5101 2 25.367791 10.176744 33.480104
5102 3 26.059957 12.210419 34.659257
5103 3 26.329138 11.332399 34.555756
5104 2 25.744248 8.719190 14.895645
5105 3 24.915582 8.227147 15.595586
5106 3 25.021823 9.188763 16.205913
5107 2 17.104890 9.648884 34.769844
5108 3 17.417348 9.477431 35.289408
5109 3 16.916146 7.730137 34.018998
5110 2 18.859208 -5.817135 24.140623
5111 3 19.219481 -4.155932 26.299049
5112 3 20.317167 -5.009071 24.799998
5113 2 29.401978 -0.619622 32.390707
5114 3 28.729328 -0.300004 32.972196
5115 3 29.099160 -0.072572 33.507812
5116 2 26.887212 8.869260 11.016413
5117 3 26.391161 9.743181 11.974545
5118 3 26.920377 9.242476 12.466466
5119 2 0.541122 8.737103 22.449675
5120 3 0.558233 9.460590 20.789915
5121 3 1.125620 8.169876 21.742135
5122 2 14.608444 15.038938 25.543430
5123 3 13.487452 15.728178 26.964951
5124 3 14.557712 14.702373 25.523866
5125 2 20.052046 16.024511 28.874954
5126 3 20.915186 15.509579 29.236314
5127 3 19.823246 16.052635 29.415619
5128 2 17.530262 5.663275 21.371118
5129 3 16.577347 4.754155 21.330242
5130 3 17.667193 6.116295 21.768578
5131 2 27.730594 13.201804 37.793964
5132 3 28.012434 13.785444 36.801567
5133 3 26.525145 13.242969 37.506917
5134 2 33.519043 18.373754 49.936337
5135 3 33.454377 17.793903 51.674335
5136 3 33.911596 18.345522 50.779608
5137 2 30.746650 7.072568 26.301151
5138 3 31.771752 7.601433 26.829806
5139 3 32.217930 8.311125 28.686588
5140 2 20.926091 29.039963 36.996217
5141 3 20.612814 28.970767 38.017990
5142 3 21.068279 29.228719 38.230806
5143 2 24.768142 8.106300 26.441427
5144 3 25.800515 9.032914 26.690959
5145 3 24.774058 8.345350 27.798631
5146 2 6.618421 10.828048 28.304077
5147 3 5.851021 11.388144 30.522104
5148 3 5.566531 9.760080 28.955489
5149 2 12.830328 25.392707 34.613032
5150 3 13.531596 26.126693 34.302644
5151 3 14.337068 24.416586 33.033369
5152 2 16.745328 17.040478 28.615377
5153 3 14.943875 16.352066 29.089999
5154 3 15.430311 16.838442 28.442286
5155 2 5.919694 17.129039 32.469204
5156 3 5.188553 16.648237 32.693657
5157 3 4.788368 16.805975 33.005963
5158 2 12.295179 6.293491 43.424470
5159 3 11.687050 6.700125 44.806117
5160 3 12.382867 6.206483 45.712726
5161 2 11.326523 17.691323 30.835865
5162 3 11.968783 18.226921 30.110930
5163 3 11.956284 18.032108 28.190556
5164 2 16.195117 34.343840 28.878854
5165 3 15.179621 33.035865 27.422407
5166 3 15.660950 33.532083 29.490729
5167 2 23.956380 15.627545 26.409963
5168 3 23.819970 15.983630 25.880040
5169 3 24.128238 15.405940 24.467549
5170 2 13.159032 22.159638 35.634898
5171 3 13.760102 21.462252 36.105723
5172 3 13.679910 23.261601 34.772383
5173 2 23.182655 17.760268 25.917485
5174 3 24.180334 16.262294 27.610735
5175 3 23.951300 15.525226 26.877158
5176 2 21.522942 21.458728 23.355797
5177 3 21.626715 21.838710 22.488571
5178 3 21.926402 23.378494 21.571888
5179 2 28.656827 9.912666 27.641228
5180 3 30.022483 10.583237 26.420194
5181 3 28.146107 8.568983 28.341403
5182 2 31.051482 18.741604 25.710496
5183 3 31.856745 19.238534 26.308708
5184 3 31.757298 19.618637 26.191445
5185 2 5.011140 8.144108 20.485632
5186 3 3.840612 9.434271 20.476920
5187 3 4.488570 11.068297 19.223820
5188 2 10.788950 30.832592 27.529592
5189 3 11.410448 29.844315 28.966101
5190 3 10.543794 30.381738 28.067768
5191 2 6.471660 23.031456 29.671174
5192 3 6.234050 23.481456 28.611470
5193 3 6.853323 24.329208 29.395886
5194 2 5.068831 30.664250 31.712615
5195 3 6.161084 31.102599 33.256149
5196 3 6.079039 30.957005 32.100236
5197 2 17.805431 17.858156 33.535419
5198 3 17.123386 18.692000 33.582524
5199 3 17.593228 18.414871 32.756928
5200 2 7.505455 -5.351137 25.107377
5201 3 6.179338 -7.542893 24.247921
5202 3 7.426153 -6.811689 23.406138
5203 2 21.128307 17.246765 40.461776
5204 3 20.691192 17.625443 41.428107
5205 3 19.882572 16.833012 41.719185
5206 2 13.427801 24.615970 29.757711
5207 3 12.865271 25.487727 30.367632
5208 3 12.588882 24.420637 29.624105
5209 2 29.993163 12.541931 27.435221
5210 3 31.959561 11.699561 27.212744
5211 3 31.101381 11.725140 26.183725
5212 2 25.170385 14.140001 27.937575
5213 3 25.677264 14.630760 29.012194
5214 3 25.537274 14.037466 28.543135
5215 2 25.422301 20.427864 28.479437
5216 3 24.754831 20.934586 28.430021
5217 3 25.021167 21.040972 27.894864
5218 2 19.621728 12.737690 29.145377
5219 3 19.658686 12.182575 28.343450
5220 3 20.252833 12.666196 27.443372
5221 2 24.068621 7.457393 38.710196
5222 3 23.572404 5.565975 37.802019
5223 3 22.929696 5.411797 35.904964
5224 2 12.005117 10.161232 27.439094
5225 3 10.683784 10.543227 28.260034
5226 3 11.168093 9.450748 27.313694
5227 2 20.657714 25.258364 11.499403
5228 3 22.501872 25.204125 9.272621
5229 3 21.424903 23.206421 11.520814
5230 2 4.226025 8.727820 34.915533
5231 3 2.697709 8.938555 34.817159
5232 3 4.008260 8.408399 35.608802
5233 2 13.770431 13.940871 16.938906
5234 3 14.977645 14.175233 17.787404
5235 3 14.767438 14.416981 16.508109
5236 2 14.621906 15.755284 39.723255
5237 3 15.906973 15.452342 36.223302
5238 3 15.193762 15.563595 38.190662
5239 2 22.918375 14.657574 22.589688
5240 3 23.572678 14.084945 22.448043
5241 3 23.241923 14.884857 22.628096
5242 2 25.992555 13.915269 25.026864
5243 3 26.283279 14.750663 25.113163
5244 3 25.437670 14.227883 25.550714
5245 2 18.126576 9.207851 48.165940
5246 3 17.292106 9.344906 46.543600
5247 3 17.380192 9.207495 48.472536
5248 2 32.736959 19.885336 29.724803
5249 3 33.083457 18.897695 30.108256
5250 3 31.898869 19.027438 31.363799
5251 2 13.886957 18.604962 36.285674
5252 3 13.655883 17.414748 34.394981
5253 3 12.881182 19.236480 37.523414
5254 2 24.446320 19.472010 20.797868
5255 3 24.158474 19.699271 21.327708
5256 3 24.444662 20.125920 21.655887
5257 2 35.967681 21.202336 25.419608
5258 3 35.567752 21.708900 25.924358
5259 3 36.353787 21.486073 26.502920
5260 2 24.550585 11.961186 29.712219
5261 3 23.130154 12.878408 29.925912
5262 3 24.279198 11.632311 30.075345
5263 2 9.185129 13.354796 22.004615
5264 3 10.403678 13.329356 23.403662
5265 3 9.829398 13.415060 20.065231
5266 2 15.365800 26.289083 18.674451
5267 3 14.803865 26.345725 20.185075
5268 3 16.048311 27.063632 19.892978
5269 2 16.267943 22.332813 18.446910
5270 3 17.221402 21.665125 17.492086
5271 3 17.364794 21.390146 18.124551
5272 2 12.800970 16.785452 22.994926
5273 3 12.020410 17.205511 22.150017
5274 3 12.872264 16.984612 22.203089
5275 2 16.217665 23.159595 8.002960
5276 3 16.006389 22.749296 7.969475
5277 3 15.001917 23.467116 8.487270
5278 2 19.281511 10.021543 38.499002
5279 3 20.479453 8.343645 38.595772
5280 3 19.029833 9.480242 38.041494
5281 2 30.683698 20.187476 36.224910
5282 3 29.821836 19.967579 36.556168
5283 3 29.809683 19.633573 35.842422
5284 2 28.631288 18.856210 29.158519
5285 3 28.477324 18.855918 28.261856
5286 3 28.466494 18.705783 28.703694
5287 2 31.028827 31.053148 26.212159
5288 3 32.271418 32.750012 24.430807
5289 3 31.418424 31.619978 26.665115
5290 2 27.337880 12.130648 12.463541
5291 3 27.472581 10.066141 12.896694
5292 3 27.075758 11.910689 12.783444
5293 2 -3.491310 34.470382 38.863309
5294 3 -2.669053 36.123696 39.555176
5295 3 -2.223236 36.183177 38.453705
5296 2 -5.986396 20.898596 25.371765
5297 3 -7.918866 20.175145 25.684185
5298 3 -7.117804 20.303717 25.150628
5299 2 21.938859 27.174629 36.282042
5300 3 20.496419 27.979782 35.395396
5301 3 21.903527 27.749467 36.219982
5302 2 11.164609 22.431981 35.803866
5303 3 10.549509 20.459652 35.565500
5304 3 11.014844 22.194126 33.818733
5305 2 18.315663 15.202586 26.135921
5306 3 19.252728 15.848791 25.473459
5307 3 19.476580 14.451269 25.630820
5308 2 9.453808 16.883073 27.790350
5309 3 8.588837 18.536839 28.666627
5310 3 10.682321 17.724600 28.400093
5311 2 29.807408 13.925938 30.468977
5312 3 29.887642 13.702160 30.998750
5313 3 29.842131 13.503423 30.857124
5314 2 30.701734 20.134792 23.491582
5315 3 29.114175 19.750966 24.226389
5316 3 29.222776 21.372954 25.988176
5317 2 14.004750 20.475719 37.464745
5318 3 13.207960 20.006640 37.305393
5319 3 15.422184 20.014211 36.361702
5320 2 15.131967 19.581577 38.077688
5321 3 15.366251 20.613556 38.316888
5322 3 14.853112 20.157392 38.279720
5323 2 16.820740 11.302595 30.953859
5324 3 16.070166 12.174653 31.611775
5325 3 16.411294 12.003760 31.226932
5326 2 12.656413 15.805755 21.919650
5327 3 12.425442 16.092503 22.915254
5328 3 12.273946 16.881450 21.904891
5329 2 29.717739 29.385722 38.165533
5330 3 30.220481 29.279613 38.453744
5331 3 29.919374 28.981867 38.464286
5332 2 14.994444 23.183956 33.523366
5333 3 15.854674 23.207385 36.083599
5334 3 14.206482 22.801027 35.245649
5335 2 26.221082 17.888322 34.851267
5336 3 25.099717 17.028696 35.438237
5337 3 25.789174 17.526998 34.662116
5338 2 24.909198 21.523763 37.862678
5339 3 23.966954 21.153634 36.436294
5340 3 24.557237 22.470333 38.522341
5341 2 41.257224 29.431862 41.076954
5342 3 41.853652 30.687366 41.999003
5343 3 41.746863 29.522414 38.032703
5344 2 36.080542 27.730598 23.509296
5345 3 35.715664 26.798420 21.843489
5346 3 34.390227 28.195538 23.414231
5347 2 9.977430 28.276643 35.315964
5348 3 11.510724 26.869894 34.461218
5349 3 9.702044 27.382659 35.323533
5350 2 22.876967 20.313943 30.894723
5351 3 23.520865 20.156598 31.799376
5352 3 24.064236 21.819379 33.738456
5353 2 10.752839 13.888081 25.559627
5354 3 10.589786 13.772666 24.401359
5355 3 11.970850 14.921024 25.064046
5356 2 21.312305 26.980569 29.571196
5357 3 21.781719 29.151757 28.212056
5358 3 21.548476 28.270833 29.302020
5359 2 22.108213 10.939962 31.173247
5360 3 22.172369 12.400712 30.511805
5361 3 22.780188 12.838453 30.513262
5362 2 6.185369 22.026657 32.428887
5363 3 5.401890 21.897968 33.054015
5364 3 5.669259 21.633160 32.139861
5365 2 14.921191 36.102600 19.609932
5366 3 16.262433 35.621347 20.007915
5367 3 16.340956 34.626479 21.399764
5368 2 8.833635 28.969332 21.805201
5369 3 9.610728 28.531576 22.559395
5370 3 8.782510 27.385822 21.024315
5371 2 17.717738 16.257549 26.186685
5372 3 18.188749 15.173247 27.184515
5373 3 17.333785 15.141518 25.585554
5374 2 28.853728 18.270374 31.667210
5375 3 27.839314 17.249217 32.498597
5376 3 28.651998 17.077770 31.569329
5377 2 33.134452 33.107904 10.646158
5378 3 32.809349 33.875201 11.737612
5379 3 33.668585 33.451121 10.383691
5380 2 35.663724 20.953113 28.789330
5381 3 35.698289 19.924446 27.684911
5382 3 36.785089 19.164296 27.670318
5383 2 34.023854 28.051203 16.161119
5384 3 33.721477 28.383345 16.261546
5385 3 33.282801 27.720009 17.048726
5386 2 22.742982 14.621971 31.041248
5387 3 23.362551 15.080463 30.645705
5388 3 23.466359 15.017490 29.464546
5389 2 11.334002 12.332514 21.588090
5390 3 10.738255 15.109790 23.231266
5391 3 11.050712 13.979863 21.304972
5392 2 16.582549 11.268274 37.622390
5393 3 16.439019 10.363025 38.080399
5394 3 16.386017 9.958103 39.870588
5395 2 18.255679 12.999172 28.356797
5396 3 18.747027 14.701990 30.378399
5397 3 18.957954 14.519170 28.849558
5398 2 29.309305 24.760121 24.813649
5399 3 29.746023 26.117045 25.327415
5400 3 29.568698 25.086888 25.518820
5401 2 8.424780 13.822842 29.639534
5402 3 8.998082 14.019909 29.905263
5403 3 8.887467 13.518171 29.245865
5404 2 31.016993 40.915881 27.293208
5405 3 30.827656 39.762513 26.724011
5406 3 31.687499 38.807496 25.644736
5407 2 20.055519 30.119119 21.968749
5408 3 20.227826 29.855648 20.230665
5409 3 18.422026 31.905163 20.226944
5410 2 36.500082 30.949092 38.617359
5411 3 36.009235 31.771437 38.613242
5412 3 35.970466 31.086573 37.665713
5413 2 12.995923 12.644424 19.284648
5414 3 11.985035 13.334503 18.306771
5415 3 11.919740 12.493516 18.004706
5416 2 17.210160 16.600981 25.364468
5417 3 17.557101 15.753013 24.783672
5418 3 17.232712 15.164576 25.159857
5419 2 3.638239 11.610362 29.311481
5420 3 4.544780 11.617626 29.063881
5421 3 4.606556 11.850360 28.950884
5422 2 31.518046 25.836698 27.498786
5423 3 32.243057 23.869802 30.745880
5424 3 31.513478 25.361430 30.273971
5425 2 4.768095 12.777749 25.535558
5426 3 4.361520 13.719549 25.091858
5427 3 3.691743 15.332728 24.718265
5428 2 2.159298 15.431813 26.473465
5429 3 2.650044 14.714436 26.654229
5430 3 1.331387 14.526885 26.639746
5431 2 28.675811 17.250423 43.407003
5432 3 29.301002 15.946595 41.480733
5433 3 29.200800 15.738242 41.393487
5434 2 24.375622 29.138052 45.566323
5435 3 23.802489 28.010974 44.533601
5436 3 23.816776 26.937099 45.379882
5437 2 7.917322 9.676039 32.238760
5438 3 8.125275 10.750651 33.162370
5439 3 6.477543 10.963094 33.246928
5440 2 9.723968 19.876023 35.029019
5441 3 9.592234 20.562169 34.621009
5442 3 10.439165 19.674970 34.908211
5443 2 18.603157 13.517733 26.444977
5444 3 18.461695 13.475869 29.803471
5445 3 18.863077 14.385460 27.570126
5446 2 6.968115 31.942150 31.086399
5447 3 7.964068 30.651826 29.659101
5448 3 6.808722 30.006783 29.318618
5449 2 36.298580 21.382583 21.422892
5450 3 37.690926 21.735757 22.009855
5451 3 36.566807 21.142332 21.902945
5452 2 32.238913 25.717343 19.720553
5453 3 33.033348 23.251568 18.772582
5454 3 32.046715 23.328991 19.717901
5455 2 27.409891 30.189402 31.196929
5456 3 27.026790 30.926309 32.335682
5457 3 26.848952 29.586004 29.524979
5458 2 24.500308 24.289359 16.447782
5459 3 23.748744 24.830839 17.526246
5460 3 24.238408 25.428724 16.859706
5461 2 34.859527 39.412567 10.914285
5462 3 34.325194 41.323605 12.304193
5463 3 34.960963 39.826420 12.863185
5464 2 7.132219 16.692599 39.147723
5465 3 5.332781 18.794924 41.226503
5466 3 6.875391 17.880977 37.886534
5467 2 17.715737 36.566673 25.839056
5468 3 18.345036 36.872304 25.989675
5469 3 18.227733 37.402449 25.195825
5470 2 13.973219 30.735890 34.391300
5471 3 14.991922 29.933881 34.231983
5472 3 15.025274 29.680270 34.082483
5473 2 26.924673 31.519243 18.214539
5474 3 26.542961 31.837090 18.466118
5475 3 27.230343 31.354405 18.656865
5476 2 9.063882 21.775020 29.730023
5477 3 9.244433 21.595433 28.663749
5478 3 8.879085 20.649662 28.197193
5479 2 13.060735 31.834154 39.088258
5480 3 15.734395 28.854619 38.429966
5481 3 15.399634 29.735158 40.701358
5482 2 12.449509 29.336204 27.234252
5483 3 11.387607 29.423860 28.178881
5484 3 12.378121 28.371633 27.305303
5485 2 14.293700 14.327458 21.367450
5486 3 14.779679 15.128625 22.517407
5487 3 15.609527 15.000778 21.875070
5488 2 19.373173 21.740988 29.402960
5489 3 20.222370 23.455323 29.903367
5490 3 18.933433 23.755613 29.903087
5491 2 14.042966 29.674235 32.653126
5492 3 16.271568 28.829332 32.762035
5493 3 15.807288 27.954667 33.035449
5494 2 17.553739 9.596797 20.891771
5495 3 16.815109 10.007421 22.287136
5496 3 18.107461 9.948750 23.856271
5497 2 25.782962 24.557274 34.660282
5498 3 24.514927 25.011399 33.331521
5499 3 25.358023 26.009870 35.290962
5500 2 20.403623 24.179267 15.026683
5501 3 18.584800 23.387016 15.606472
5502 3 18.703036 23.223363 16.217559
5503 2 11.451454 24.557714 27.033916
5504 3 9.301275 24.112250 28.369147
5505 3 9.542747 23.436122 27.154413
5506 2 21.590491 15.741742 48.681567
5507 3 20.825377 14.792040 47.118418
5508 3 20.943413 14.771155 47.934408
5509 2 24.108772 24.675809 35.764533
5510 3 24.699020 25.873207 38.789258
5511 3 24.162063 24.061021 37.504415
5512 2 9.055642 42.936746 27.904920
5513 3 11.025356 42.473885 26.084217
5514 3 9.095634 43.279823 28.176797
5515 2 10.621229 39.427272 23.102105
5516 3 10.316364 39.024001 23.366522
5517 3 11.087769 37.744642 23.287346
5518 2 22.012460 27.782802 11.452378
5519 3 21.800930 27.040067 12.705757
5520 3 21.344231 28.434881 14.659671
5521 2 14.404010 28.452483 38.909512
5522 3 13.016358 26.791662 39.760126
5523 3 14.647126 26.482478 38.917842
5524 2 23.024646 43.377252 31.928527
5525 3 23.016096 42.123048 30.544124
5526 3 23.410037 42.560656 30.872131
5527 2 17.895891 34.464808 33.285892
5528 3 17.731199 34.626343 32.961165
5529 3 17.431848 33.049128 33.028227
5530 2 18.201348 30.698980 33.884913
5531 3 18.863186 32.176162 32.884334
5532 3 18.903799 31.058057 34.015029
5533 2 25.606890 31.719234 33.082356
5534 3 25.580100 31.020422 30.836581
5535 3 24.831634 32.887925 30.501728
5536 2 27.450412 27.401141 26.912037
5537 3 28.330541 27.590744 25.978465
5538 3 26.806783 27.562418 26.376072
5539 2 42.426853 16.781128 25.705883
5540 3 41.974610 17.307149 25.859888
5541 3 41.826896 17.802546 25.939100
