ITEM: TIMESTEP
601000
ITEM: NUMBER OF ATOMS
5541
ITEM: BOX BOUNDS pp pp pp
-19.1 19.1
-19.1 19.1
-19.1 19.1
ITEM: ATOMS id type xu yu zu
1 1 29.582522 -140.489310 -176.288340
2 1 33.517889 -139.143229 -173.158319
3 1 31.755206 -137.112317 -171.311430
4 1 30.503578 -135.683296 -174.376631
5 1 30.782618 -138.804112 -171.642713
6 1 33.566209 -137.186909 -174.194401
7 1 31.635167 -134.592891 -177.287501
8 1 30.435149 -135.123657 -175.567745
9 1 32.685047 -135.240806 -169.583113
10 1 33.516157 -136.123536 -179.105807
11 1 29.663319 -138.920805 -173.748811
12 1 32.041706 -140.360119 -171.826270
13 1 32.136266 -136.079520 -173.225243
14 1 31.416806 -138.420843 -174.084466
15 1 33.498245 -134.960530 -168.654622
16 1 34.605267 -135.788191 -176.063229
17 1 30.908132 -132.591992 -173.931501
18 1 31.748641 -139.521527 -175.720617
19 1 31.984894 -135.731494 -171.932460
20 1 31.902610 -137.161290 -178.310206
21 1 30.116853 -135.279942 -172.664624
22 1 29.801127 -131.986101 -181.372989
23 1 30.794785 -135.356298 -169.892640
24 1 34.005859 -136.794471 -171.419576
25 1 31.958932 -140.116029 -176.140911
26 1 33.356106 -136.359020 -176.657190
27 1 29.005604 -137.245719 -175.473936
28 1 29.844674 -138.179201 -174.139046
29 1 30.110708 -132.995103 -179.140496
30 1 32.482304 -136.645515 -173.513533
31 1 34.104053 -134.574722 -177.919712
32 1 30.397623 -132.892352 -176.187538
33 1 28.301297 -136.266791 -172.343657
34 1 30.557397 -138.399891 -175.522390
35 1 32.393946 -133.419774 -175.941927
36 1 33.792753 -134.946573 -174.261676
37 1 27.199813 -137.661617 -178.464997
38 1 30.836849 -133.539751 -175.213877
39 1 35.114964 -138.293097 -173.585919
40 1 32.471719 -137.410914 -172.033649
41 1 32.775985 -135.683266 -180.055001
42 1 29.844683 -137.603917 -172.032561
43 1 31.522396 -138.019997 -177.160756
44 1 31.108527 -132.485744 -168.188698
45 1 31.041255 -136.982138 -174.601059
46 1 32.874673 -136.952580 -172.451452
47 1 30.328398 -132.662220 -176.069742
48 1 31.689419 -138.918570 -171.951391
49 1 32.018396 -141.989927 -173.018824
50 1 31.379436 -129.481849 -175.022238
51 1 30.329533 -137.701194 -171.081134
52 1 33.674338 -140.243441 -171.402490
53 1 30.075653 -138.108030 -170.178384
54 1 34.673396 -137.680333 -170.350299
55 1 34.023655 -139.263297 -170.078099
56 1 33.255399 -135.021743 -174.142921
57 1 31.389086 -137.720564 -175.181366
58 1 35.621357 -135.553801 -174.095334
59 1 31.847532 -139.522393 -171.168725
60 1 33.737133 -137.949525 -171.227069
61 1 34.292307 -134.579754 -174.479019
62 1 33.338666 -133.514314 -169.117336
63 1 32.543792 -134.212829 -173.009303
64 1 32.033296 -135.083062 -176.187483
65 1 34.149173 -131.735945 -175.507684
66 1 34.002259 -136.916744 -174.538600
67 1 33.892799 -135.357073 -172.346554
68 1 33.409827 -132.240058 -172.867501
69 1 33.091046 -138.241949 -177.085159
70 1 35.015207 -137.793012 -172.699959
71 1 34.181569 -138.981303 -174.650546
72 1 34.548091 -135.198614 -175.859854
73 1 35.899461 -133.932386 -170.152754
74 1 31.922663 -137.616856 -170.072139
75 1 34.757230 -134.389792 -170.208423
76 1 34.084601 -135.609647 -169.301872
77 1 33.172198 -138.135899 -170.158068
78 1 31.593074 -134.979536 -173.837176
79 1 31.086179 -135.929408 -176.063801
80 1 32.731662 -135.949463 -169.599516
81 1 34.481028 -138.157292 -171.151915
82 1 32.460838 -137.715957 -178.896030
83 1 32.949141 -133.914825 -174.969724
84 1 32.100519 -135.504403 -173.899543
85 1 32.046683 -140.472767 -170.873626
86 1 33.582856 -137.791097 -173.327835
87 1 32.468056 -139.459645 -175.711059
88 1 30.976596 -135.924360 -173.458879
89 1 33.400561 -134.651123 -169.054139
90 1 31.105827 -133.146750 -170.206227
91 1 31.422627 -135.180065 -176.050276
92 1 31.838037 -135.009959 -171.508735
93 1 31.890357 -132.200086 -178.199329
94 1 30.468944 -135.892690 -168.383806
95 1 31.589363 -133.687050 -167.869335
96 1 33.013883 -137.613009 -174.160616
97 1 30.553372 -136.412737 -173.920504
98 1 34.668179 -136.136962 -170.983193
99 1 31.622733 -138.046392 -176.135043
100 1 31.314427 -138.580473 -172.038484
101 1 36.174912 -137.082121 -170.464127
102 1 34.758678 -135.346704 -175.247792
103 1 31.367131 -133.942117 -171.726963
104 1 34.580742 -134.578173 -170.607700
105 1 32.776705 -137.386237 -174.575688
106 1 31.254489 -133.227698 -172.448278
107 1 30.637367 -132.019672 -174.197557
108 1 33.934822 -132.060237 -172.626669
109 1 32.191595 -139.547070 -171.400884
110 1 35.273157 -136.157716 -172.787273
111 1 33.597491 -136.766632 -171.430481
112 1 32.647684 -137.380809 -173.250799
113 1 33.222824 -133.109150 -173.839925
114 1 34.083138 -136.196623 -174.886009
115 1 34.203824 -139.800875 -174.129765
116 1 33.595448 -133.991941 -175.248216
117 1 33.013398 -134.035304 -170.849621
118 1 34.219848 -134.251798 -169.546191
119 1 31.794088 -132.353649 -174.309282
120 1 36.139826 -135.967358 -172.578086
121 1 34.172815 -130.594544 -178.985262
122 1 36.577046 -132.425110 -178.587960
123 1 31.570001 -129.778181 -176.410232
124 1 33.033382 -132.822185 -174.245254
125 1 33.066595 -132.553601 -174.793381
126 1 34.908524 -131.852531 -180.011547
127 1 34.142520 -132.201926 -180.680828
128 1 33.289989 -132.258379 -177.581566
129 1 33.096757 -131.238567 -178.147794
130 1 32.146704 -132.957913 -178.501439
131 1 31.804172 -132.735824 -174.759448
132 1 32.805456 -129.876872 -177.037092
133 1 34.867843 -132.777058 -173.069935
134 1 33.156602 -133.961807 -174.513284
135 1 31.422608 -130.172732 -178.113160
136 1 31.118140 -128.315483 -176.479167
137 1 34.631546 -131.234949 -174.968820
138 1 34.637602 -130.315424 -176.636874
139 1 34.896758 -130.070361 -172.397720
140 1 32.542261 -131.414511 -173.631919
141 1 30.969954 -131.976203 -177.906999
142 1 34.958729 -132.893994 -178.470422
143 1 33.612766 -134.023840 -175.617324
144 1 32.793835 -135.010431 -181.464214
145 1 33.827069 -131.131027 -178.153569
146 1 33.830727 -133.264842 -175.499805
147 1 32.083228 -131.719053 -178.805561
148 1 34.658895 -129.549022 -176.208591
149 1 33.628499 -127.582408 -174.475716
150 1 33.927413 -130.592583 -177.105087
151 1 33.127322 -133.120994 -177.913125
152 1 33.361543 -134.754512 -177.168690
153 1 32.280498 -131.950067 -178.201876
154 1 34.724724 -131.206106 -174.865952
155 1 32.716629 -133.068981 -176.230844
156 1 32.036256 -131.342823 -177.371474
157 1 34.443452 -133.273585 -176.710497
158 1 33.012256 -133.063765 -176.596594
159 1 33.605508 -131.240787 -171.362449
160 1 33.129325 -131.606450 -178.115780
161 1 33.061070 -133.701844 -180.835841
162 1 32.529669 -132.171183 -175.113482
163 1 32.723072 -133.756868 -172.499445
164 1 35.423577 -132.681499 -173.561323
165 1 32.349491 -127.498952 -177.133890
166 1 34.458036 -135.276916 -177.350070
167 1 33.163208 -132.070348 -177.670927
168 1 33.125184 -133.369113 -180.188886
169 1 34.492501 -132.056862 -173.312021
170 1 31.710291 -129.233867 -175.336950
171 1 32.724029 -131.094583 -181.371347
172 1 34.984406 -132.037583 -174.792791
173 1 34.593731 -134.393669 -175.123482
174 1 30.255162 -131.957532 -176.567127
175 1 32.191409 -134.831796 -175.545695
176 1 32.185145 -131.230737 -175.977779
177 1 34.470247 -134.127001 -172.407075
178 1 34.534801 -132.378387 -173.427843
179 1 31.478244 -134.033464 -172.083321
180 1 33.149296 -131.357678 -179.788816
181 2 14.442886 25.787746 33.897646
182 3 13.712420 29.399822 34.598297
183 3 14.051250 26.508235 32.492412
184 2 16.773532 9.069989 30.182713
185 3 16.881820 10.230890 33.188044
186 3 18.271649 10.035492 28.965216
187 2 18.338297 38.154038 18.133251
188 3 18.622590 37.697623 11.935058
189 3 16.936067 37.779021 13.925461
190 2 17.116332 28.562507 13.874070
191 3 14.486910 30.034965 12.904449
192 3 16.437487 29.178599 12.584715
193 2 2.600003 31.236026 33.760420
194 3 2.135281 30.262694 36.430115
195 3 4.020503 30.669237 35.444377
196 2 20.404279 -5.529941 19.967351
197 3 21.129337 -4.672782 15.741298
198 3 19.284214 -3.561805 18.500477
199 2 17.747974 42.979956 27.975894
200 3 17.882946 44.227823 26.254578
201 3 16.477986 42.214975 26.813948
202 2 28.614062 36.215985 19.774617
203 3 27.277867 37.499762 18.813974
204 3 29.583724 37.791312 21.101351
205 2 27.872477 21.059186 10.118776
206 3 27.565678 23.202831 8.260555
207 3 29.446721 23.847944 11.206212
208 2 21.275417 27.349054 14.529270
209 3 21.846717 30.071401 16.330615
210 3 21.141920 27.947083 14.101666
211 2 28.882574 38.910446 20.120529
212 3 28.683720 36.397826 22.053580
213 3 28.179136 38.047715 21.691421
214 2 40.993790 23.595055 43.027846
215 3 40.233477 20.663180 42.933604
216 3 37.932299 23.361299 44.478479
217 2 43.475009 23.476893 30.631742
218 3 42.681658 23.235231 29.787276
219 3 43.105658 20.696595 30.734534
220 2 -5.547980 6.876898 22.556704
221 3 -2.860237 6.904701 21.633873
222 3 -4.024438 5.467553 22.736018
223 2 9.057561 16.553135 26.598507
224 3 9.252566 17.064341 25.109917
225 3 8.015688 16.280982 24.327839
226 2 24.464917 21.424502 25.879781
227 3 24.236493 22.339984 24.717312
228 3 24.223053 22.869442 24.205676
229 2 1.866102 19.694500 25.157542
230 3 3.352532 18.345457 26.629643
231 3 0.985839 23.422086 24.921827
232 2 26.400833 40.079311 21.312473
233 3 26.799525 37.035032 21.700654
234 3 27.969147 38.616334 19.399880
235 2 28.276894 15.395443 13.273588
236 3 28.785121 16.873400 15.366731
237 3 26.439330 17.255615 16.180552
238 2 13.844688 9.176851 30.301300
239 3 13.512469 9.329043 30.786553
240 3 13.735748 9.383745 32.520332
241 2 16.126138 23.490488 9.190122
242 3 15.863415 22.661314 8.601845
243 3 15.786434 26.799602 6.404044
244 2 20.991184 11.384522 15.676646
245 3 20.391959 12.056380 15.092445
246 3 21.622149 10.427750 17.097832
247 2 22.865133 14.479754 26.209217
248 3 23.356479 12.805175 22.709196
249 3 23.726073 13.217035 26.443961
250 2 28.481309 -0.085350 2.036565
251 3 27.276714 -0.722266 -0.053793
252 3 26.611167 0.457656 1.025744
253 2 12.788512 4.282633 6.334729
254 3 14.431281 7.412791 6.337200
255 3 12.066448 5.835522 9.171576
256 2 17.632862 23.333344 23.085482
257 3 18.143572 22.764173 23.557900
258 3 16.961706 25.545463 23.823677
259 2 5.514263 39.185195 23.295077
260 3 6.848708 42.218892 24.950526
261 3 6.921335 41.044014 25.294937
262 2 22.232216 31.012187 11.848444
263 3 24.726460 30.395997 13.253291
264 3 23.659802 32.981045 11.664552
265 2 17.523479 -2.284761 0.469652
266 3 15.608275 -2.054563 0.323526
267 3 15.578171 -1.503054 0.537472
268 2 -8.490306 19.692243 15.035641
269 3 -7.181069 23.528953 14.657679
270 3 -7.384939 25.361163 15.058010
271 2 15.740405 27.336663 31.529124
272 3 13.963663 27.165522 31.239536
273 3 15.097597 28.096160 33.998768
274 2 -2.214559 21.103788 28.259791
275 3 -4.480577 18.567159 31.790441
276 3 -3.413286 21.472220 26.831522
277 2 26.418590 44.537270 10.766005
278 3 26.752916 46.359631 8.825259
279 3 27.646736 43.024434 11.394110
280 2 6.795504 34.892340 23.957034
281 3 7.847909 34.959482 24.755680
282 3 6.364386 34.862175 24.132755
283 2 14.701858 30.784270 14.629924
284 3 14.641590 29.368192 15.039111
285 3 15.159272 31.415568 16.344963
286 2 21.083776 28.971267 51.003063
287 3 19.896581 29.265012 52.406395
288 3 19.220627 28.103017 51.751530
289 2 -2.603933 25.262295 47.765199
290 3 -5.515985 27.193030 48.053791
291 3 -2.524037 25.523729 47.159307
292 2 31.878972 4.994582 39.252660
293 3 31.693449 6.449807 37.752471
294 3 32.177167 8.208056 40.481328
295 2 38.121928 24.445483 9.422954
296 3 39.758430 21.544880 8.289474
297 3 40.395010 22.705745 9.822438
298 2 23.989075 14.620774 41.646587
299 3 26.767878 15.547410 43.060847
300 3 25.585150 12.692792 42.419543
301 2 12.821434 16.171870 16.160272
302 3 11.332534 17.066657 15.991414
303 3 9.907896 16.718885 14.233915
304 2 -18.493676 45.672312 30.044538
305 3 -15.721576 45.877001 28.203402
306 3 -18.573180 47.876526 30.370101
307 2 9.216040 28.044125 39.536697
308 3 8.730804 29.792140 40.170387
309 3 8.778152 32.761175 38.629693
310 2 15.544751 24.369107 30.428520
311 3 15.485521 25.859316 33.825012
312 3 15.033882 25.445930 30.754334
313 2 -4.798521 2.668734 24.704530
314 3 -6.136975 0.669148 24.525066
315 3 -4.194970 0.395106 25.086204
316 2 29.049674 16.341925 29.738629
317 3 28.788917 15.301797 29.397820
318 3 30.350541 19.311191 27.210130
319 2 17.304450 31.133063 39.756980
320 3 18.362630 31.611978 40.489823
321 3 19.188731 29.709935 41.879443
322 2 18.346689 26.519338 26.158291
323 3 21.100459 27.740788 23.423114
324 3 19.052043 26.502760 21.521528
325 2 -0.138106 21.138900 23.429963
326 3 0.339964 19.160770 23.908430
327 3 2.007022 21.114844 24.553275
328 2 7.250099 30.857363 24.596681
329 3 5.502272 29.049932 25.660219
330 3 7.972460 32.023914 24.500521
331 2 31.681115 22.047019 17.158638
332 3 30.923264 24.562294 16.589202
333 3 30.754760 21.878961 18.926353
334 2 21.567103 39.433821 9.383054
335 3 21.987897 37.494370 13.789500
336 3 22.800908 37.626279 9.187310
337 2 -9.420437 25.575579 53.168571
338 3 -8.770936 26.432929 51.750670
339 3 -8.584155 26.714645 51.550964
340 2 24.870611 26.654881 18.796622
341 3 24.599553 26.255726 18.379955
342 3 25.297987 28.800317 19.321274
343 2 3.500429 12.919694 41.403880
344 3 3.731159 13.396064 43.320940
345 3 4.523339 13.242166 40.922470
346 2 26.272309 24.258962 19.742919
347 3 27.090263 24.245155 17.523065
348 3 29.414810 24.476118 18.621506
349 2 4.407326 8.235773 34.098517
350 3 4.476709 8.877865 34.266380
351 3 5.872190 10.367138 33.512042
352 2 28.344651 32.490838 12.378420
353 3 28.067126 32.655165 11.184155
354 3 26.636606 33.514173 12.417550
355 2 0.567024 36.754106 40.042316
356 3 -1.084712 36.180502 39.947391
357 3 2.175435 38.848749 39.781886
358 2 9.085639 10.110232 15.886418
359 3 10.235976 7.313428 16.116903
360 3 8.384691 9.551197 14.245895
361 2 50.549547 42.127047 20.685020
362 3 49.671403 41.618962 19.668183
363 3 48.617740 40.744364 19.801093
364 2 16.734354 38.105715 54.956426
365 3 16.774453 35.837533 55.155836
366 3 19.137925 38.019994 54.268370
367 2 18.603680 12.720379 32.424185
368 3 20.281727 14.260407 30.147862
369 3 20.568192 15.481646 32.567543
370 2 38.217715 -4.677994 5.440905
371 3 39.206048 -2.074608 7.230839
372 3 39.203078 -2.305700 6.340185
373 2 43.526482 49.222197 21.847579
374 3 43.388929 49.617766 22.199934
375 3 45.262532 47.606000 21.389579
376 2 11.986331 34.430246 41.879127
377 3 10.154862 34.132893 39.764105
378 3 10.066871 34.556904 40.732419
379 2 26.854335 25.877983 30.327709
380 3 26.726890 27.197016 31.302555
381 3 27.156115 26.154126 32.336919
382 2 6.698265 43.444164 32.629500
383 3 7.492496 45.360451 28.791840
384 3 6.713662 43.009046 31.560980
385 2 21.447615 30.104712 34.299940
386 3 21.002786 32.237253 37.756982
387 3 20.153733 31.723171 32.990286
388 2 14.032040 27.990789 38.738738
389 3 13.989869 26.329776 36.725738
390 3 16.379630 27.139666 37.383871
391 2 22.698080 16.038611 26.049458
392 3 22.624526 16.361117 30.221116
393 3 21.876627 14.587245 28.217304
394 2 4.828017 18.890171 35.943747
395 3 2.942735 19.304509 35.540119
396 3 2.522857 15.443430 38.234578
397 2 27.572010 30.708375 23.982227
398 3 28.091001 29.737639 23.844546
399 3 27.926752 28.525315 24.232052
400 2 26.392354 25.686108 30.136183
401 3 24.622879 27.314774 30.881737
402 3 24.795595 24.447150 28.182157
403 2 19.741280 21.420218 32.192041
404 3 19.435953 23.106697 29.027029
405 3 19.738337 21.800008 31.980506
406 2 14.930935 24.956012 28.966330
407 3 14.888386 24.630676 29.341525
408 3 13.507392 24.009782 30.062786
409 2 52.401537 24.828097 27.902989
410 3 49.610560 26.629641 29.466222
411 3 51.092266 24.641618 28.368514
412 2 36.368283 28.426472 10.394442
413 3 36.528822 26.684172 11.861954
414 3 35.402914 26.800009 12.298629
415 2 -13.358430 40.682062 44.137747
416 3 -14.208324 40.273050 42.558296
417 3 -13.661061 41.427557 42.309073
418 2 -7.031540 61.595815 28.833858
419 3 -6.721975 60.477841 33.122908
420 3 -5.869164 60.527353 32.173955
421 2 11.061798 36.490737 38.363868
422 3 10.710223 36.306383 35.525336
423 3 13.939499 36.462682 38.569656
424 2 30.151884 28.221941 22.194806
425 3 29.969255 27.055412 21.994112
426 3 31.106760 28.865078 20.733036
427 2 8.381029 41.419497 47.743011
428 3 7.825355 39.990942 48.040203
429 3 6.471432 38.405339 51.370010
430 2 17.136650 33.146211 21.083881
431 3 17.563960 32.398304 21.136844
432 3 18.862835 34.057834 22.778023
433 2 -9.186894 23.689979 13.029571
434 3 -9.344831 24.623230 13.873796
435 3 -9.357428 24.314735 16.066739
436 2 9.965258 46.355214 30.806662
437 3 11.149204 46.975555 31.670486
438 3 12.939335 47.025666 31.165903
439 2 13.149059 36.422483 17.121160
440 3 13.452295 34.751868 14.977121
441 3 14.500009 35.277814 18.480727
442 2 14.125343 49.287514 19.533214
443 3 13.905480 50.463858 19.491869
444 3 12.622771 50.746225 21.231789
445 2 26.123708 25.819225 25.389547
446 3 24.873207 26.766070 25.893153
447 3 24.240648 27.526101 25.744337
448 2 40.448780 55.353104 20.227801
449 3 39.901677 57.643857 20.620824
450 3 38.951557 57.805980 19.330306
451 2 42.017467 33.567616 8.211327
452 3 42.246453 36.172791 8.272713
453 3 41.768415 34.747952 5.123411
454 2 2.585504 37.582629 15.662170
455 3 2.209245 36.561624 13.274561
456 3 1.846717 39.662106 13.865018
457 2 8.198555 37.237146 38.339007
458 3 9.681838 38.538733 37.129954
459 3 9.011407 38.370337 39.560181
460 2 11.563883 31.531298 9.725028
461 3 10.695303 31.121364 9.466498
462 3 9.737828 29.963672 9.049878
463 2 8.478792 34.433389 28.568338
464 3 9.009387 33.975352 24.971568
465 3 9.395500 32.521416 25.793091
466 2 10.709762 30.766320 21.174910
467 3 9.164690 29.314445 22.726494
468 3 8.473266 28.363524 19.986168
469 2 18.992884 28.871865 27.724513
470 3 16.298086 28.620540 28.408878
471 3 18.182865 28.956820 30.892327
472 2 24.869708 44.148356 32.846457
473 3 23.425277 43.233267 32.371247
474 3 23.654380 42.610547 33.001449
475 2 25.229679 41.784348 26.224340
476 3 24.744490 41.299852 21.792163
477 3 24.106795 41.579556 26.540795
478 2 -10.005049 48.552760 37.481756
479 3 -13.881293 50.300249 39.389145
480 3 -12.479589 49.956715 39.106423
481 2 22.366203 39.549674 20.317507
482 3 22.075246 39.800058 17.868439
483 3 21.508555 41.513100 19.833286
484 2 12.264651 35.887217 1.784339
485 3 10.821299 33.376989 2.783698
486 3 10.498545 34.658068 2.843921
487 2 22.009166 28.751275 18.859627
488 3 22.650825 27.569829 18.652643
489 3 21.555917 25.344703 19.097721
490 2 39.563982 40.224164 21.352618
491 3 39.462875 39.104405 20.945704
492 3 40.421217 39.127472 20.903499
493 2 10.110772 38.436135 22.513999
494 3 9.106715 38.417179 22.071910
495 3 11.376695 40.121579 23.486435
496 2 3.274178 28.094961 28.604094
497 3 2.745974 30.407381 31.025065
498 3 2.697023 28.284056 27.123349
499 2 10.802928 32.499003 27.127910
500 3 10.912339 32.474043 27.382152
501 3 9.921266 32.944077 26.574248
502 2 33.334421 22.194450 59.417393
503 3 32.751167 22.866495 58.219638
504 3 34.308315 21.004870 58.867891
505 2 28.146958 18.447973 21.574943
506 3 26.591375 18.988851 20.565597
507 3 26.292463 21.905858 20.853936
508 2 16.803663 36.041464 34.690310
509 3 13.157839 36.475917 33.503029
510 3 17.372120 36.521798 33.001045
511 2 13.038983 43.381281 43.375866
512 3 15.796275 43.359356 43.829317
513 3 14.527483 42.251564 41.987069
514 2 9.622217 16.788895 22.515754
515 3 13.052153 17.041483 20.812271
516 3 11.403581 18.239359 21.031853
517 2 49.053597 25.059423 26.504789
518 3 49.160949 25.767836 27.333991
519 3 49.908862 24.596200 25.947903
520 2 29.638241 38.797879 24.150133
521 3 28.759721 38.049946 26.589443
522 3 29.642530 38.923799 20.570620
523 2 13.355340 23.943641 17.847075
524 3 14.461365 22.166458 19.725182
525 3 13.867532 22.604479 18.997998
526 2 33.283157 20.386586 44.916022
527 3 31.769851 20.900402 43.493048
528 3 32.620641 20.673052 45.389842
529 2 16.477446 39.670004 47.311139
530 3 17.728132 39.642810 44.810192
531 3 16.159834 39.939637 42.915050
532 2 12.260234 54.771954 22.829548
533 3 11.898780 53.595507 20.788311
534 3 12.197274 55.788771 21.104410
535 2 23.435800 37.658113 8.106059
536 3 24.738072 36.046041 8.667050
537 3 24.937668 36.392073 9.447585
538 2 5.259898 34.766941 20.699756
539 3 3.571302 35.191084 19.989807
540 3 3.843855 34.415484 19.787224
541 2 -3.107831 31.311641 36.700217
542 3 -3.284478 33.350871 34.788238
543 3 -3.290730 33.156283 36.472093
544 2 13.857214 39.957576 19.378355
545 3 13.903128 36.587543 19.893785
546 3 12.321127 35.845521 18.401197
547 2 9.612865 17.592937 9.029327
548 3 9.563694 17.120202 5.634166
549 3 8.971907 17.205056 8.714193
550 2 20.147799 34.148753 23.987862
551 3 20.092832 35.765235 21.500742
552 3 20.317971 34.191708 25.039527
553 2 31.382426 11.686030 21.469708
554 3 30.911624 10.546861 20.653553
555 3 31.238084 9.182700 18.622331
556 2 17.288770 51.053444 36.921458
557 3 17.172358 50.841282 36.814680
558 3 17.773574 52.914002 37.424872
559 2 44.936576 63.733040 1.811970
560 3 42.525780 61.443332 1.609477
561 3 44.670303 64.044663 1.470156
562 2 8.925276 47.635852 11.531253
563 3 8.104044 49.445979 13.257179
564 3 7.834196 46.057356 13.067396
565 2 3.002380 40.513352 34.997707
566 3 2.701030 40.091446 34.118218
567 3 1.184702 40.027364 32.180983
568 2 39.050334 13.965247 28.849810
569 3 39.006109 14.618219 32.566005
570 3 39.109570 15.162536 34.973854
571 2 9.444513 56.697827 31.740448
572 3 10.463649 58.098959 33.676554
573 3 7.750266 57.033842 32.874435
574 2 -10.570729 33.251832 7.131670
575 3 -11.047958 33.506291 11.434889
576 3 -11.310483 30.999910 8.003095
577 2 -3.604037 44.814900 16.391607
578 3 -0.725376 47.922998 12.646431
579 3 -2.448322 46.689364 16.181784
580 2 7.157847 27.828232 2.426010
581 3 8.444058 30.356271 3.775763
582 3 7.389719 28.003629 2.268654
583 2 0.249855 10.609071 27.907046
584 3 3.054466 8.427808 23.617916
585 3 1.851422 10.973850 28.347431
586 2 3.172798 32.568052 28.409589
587 3 4.279097 29.410561 30.188209
588 3 3.392771 29.651409 28.905811
589 2 25.110171 31.489883 36.226232
590 3 25.973092 30.215321 35.071896
591 3 23.717726 30.583995 37.240955
592 2 32.877718 36.317260 29.946541
593 3 31.802630 35.391200 27.934074
594 3 32.329936 35.588497 25.429491
595 2 11.871691 35.756703 35.900273
596 3 11.138210 33.563735 37.922918
597 3 12.160654 35.654936 37.755002
598 2 22.013394 47.339057 15.534544
599 3 21.972415 46.170476 13.893714
600 3 23.262740 44.235954 18.107129
601 2 35.333391 42.014074 0.698928
602 3 36.028827 45.443577 1.188125
603 3 35.219575 43.448412 1.441619
604 2 14.103846 52.270979 41.471353
605 3 12.958852 54.124214 39.351711
606 3 14.404919 53.049601 42.557975
607 2 46.187040 58.213109 42.007023
608 3 46.215151 57.804699 40.891953
609 3 46.335743 58.230047 40.656959
610 2 -6.037023 33.258513 0.249969
611 3 -4.790262 36.370312 0.376836
612 3 -3.974787 36.156872 3.952948
613 2 26.292667 48.987368 23.540797
614 3 25.435314 51.980075 24.442937
615 3 26.195572 46.865903 23.812442
616 2 22.356509 48.232590 24.159080
617 3 22.085697 44.666117 25.046409
618 3 21.945986 48.372632 26.510723
619 2 4.091240 48.984930 18.248419
620 3 4.662598 47.042330 22.276835
621 3 5.930353 49.594424 21.556646
622 2 10.389522 37.370309 39.398420
623 3 9.940751 41.575316 38.921635
624 3 9.262568 39.096345 41.068965
625 2 26.852007 62.514120 28.339032
626 3 27.374750 60.406293 24.501060
627 3 25.908959 60.296769 25.537752
628 2 18.796343 40.469206 29.820580
629 3 20.141603 42.248947 30.552047
630 3 17.989602 41.131108 28.852380
631 2 29.661596 58.564598 20.991868
632 3 29.751348 59.277858 20.789999
633 3 29.062317 56.422600 20.413041
634 2 29.125097 43.121983 18.216079
635 3 28.938194 47.287364 20.318348
636 3 28.225169 42.784745 20.367290
637 2 20.554528 46.297542 18.864570
638 3 20.233307 47.533713 21.188921
639 3 20.580650 43.318818 16.476880
640 2 18.157009 56.313585 9.562108
641 3 17.297263 55.029427 10.455560
642 3 17.550985 54.299443 9.155039
643 2 12.698500 29.058280 26.333224
644 3 12.364982 31.158571 27.750827
645 3 13.577929 30.559224 26.616302
646 2 31.695728 30.295463 29.814302
647 3 34.208629 30.436450 25.445548
648 3 35.223271 31.783757 28.918836
649 2 -17.249473 50.791550 32.345340
650 3 -15.048898 52.634802 30.274216
651 3 -18.622455 54.217294 32.020265
652 2 24.139905 51.328693 11.402208
653 3 21.459191 49.913467 12.484787
654 3 21.670815 51.193462 13.915143
655 2 28.994901 33.785666 33.033901
656 3 29.785491 32.670380 33.687752
657 3 29.986803 32.243325 32.072798
658 2 17.271969 65.059659 27.306234
659 3 17.507770 65.097442 23.921051
660 3 18.749994 65.442111 30.743370
661 2 -3.642161 48.681184 29.623508
662 3 -6.745514 49.860026 31.392124
663 3 -3.725947 47.033133 28.921666
664 2 14.467016 58.516093 21.510517
665 3 13.825992 57.710414 21.652865
666 3 13.594588 59.064827 23.721572
667 2 40.458895 25.083284 31.590342
668 3 38.518278 26.059013 31.251111
669 3 38.693052 24.003573 33.539027
670 2 29.663638 46.312494 21.909567
671 3 26.747097 44.811740 23.154055
672 3 28.898565 46.295161 22.385404
673 2 5.291917 40.000390 9.636744
674 3 6.178739 37.933291 14.731993
675 3 7.107823 39.317449 13.489814
676 2 29.112412 50.741148 13.197629
677 3 29.471916 48.964176 9.420270
678 3 28.540157 48.358329 9.256455
679 2 10.237652 23.717040 46.140986
680 3 10.022235 24.221933 45.969694
681 3 8.812721 23.332527 46.636507
682 2 20.383955 61.903121 14.080117
683 3 18.528724 63.414031 14.224156
684 3 19.846035 60.061395 13.685862
685 2 44.269516 43.436883 33.422492
686 3 47.240783 45.481004 36.831848
687 3 45.165903 45.443826 37.943329
688 2 19.149538 -3.990262 -6.956377
689 3 18.120516 -4.523172 -5.010823
690 3 16.794902 -3.746416 -3.684864
691 2 -2.729429 11.580291 60.712819
692 3 -2.895774 9.671683 59.852018
693 3 -5.092258 9.690285 58.774687
694 2 31.507229 15.494081 20.462016
695 3 29.996810 15.642101 18.735772
696 3 30.180310 15.164792 20.523679
697 2 -7.145495 25.632602 43.728592
698 3 -6.803841 26.089134 45.628508
699 3 -5.490187 25.924622 43.892076
700 2 -7.224906 18.930563 32.800918
701 3 -5.575721 20.577110 33.110716
702 3 -5.664907 23.018795 31.727975
703 2 15.759387 23.593668 41.323091
704 3 16.475440 24.945367 40.906144
705 3 16.184370 26.362204 41.243403
706 2 30.658228 -4.665212 37.232270
707 3 31.166316 -5.138250 33.784612
708 3 32.230198 -4.864474 36.964734
709 2 9.443214 24.737795 22.741119
710 3 9.837997 24.438079 24.793466
711 3 6.900982 24.284905 25.191284
712 2 42.744767 21.833729 12.452663
713 3 42.325586 19.680597 12.938788
714 3 42.794447 24.129724 13.319173
715 2 6.768661 12.337171 21.150295
716 3 7.611944 13.734225 18.442092
717 3 8.463441 11.498794 19.864893
718 2 24.888217 6.856200 33.723867
719 3 26.789365 5.640360 36.014669
720 3 27.801952 5.011602 36.895370
721 2 31.621568 13.406107 49.935926
722 3 29.469430 12.714336 46.798716
723 3 29.619941 13.292182 50.750524
724 2 36.653007 8.241469 15.927314
725 3 36.981629 7.337755 15.494421
726 3 37.360437 8.707348 14.655155
727 2 -6.898731 21.283732 21.725148
728 3 -7.329044 18.889727 24.818460
729 3 -6.845184 19.273920 24.173805
730 2 12.075311 17.470551 27.960728
731 3 12.330634 16.455533 31.445666
732 3 14.522823 14.802719 30.746552
733 2 -5.327856 16.041466 45.147831
734 3 -7.383229 14.045586 43.945971
735 3 -8.123870 17.598100 44.368437
736 2 20.773741 18.101809 38.430131
737 3 20.568408 19.225171 34.820721
738 3 20.415829 17.968234 34.958353
739 2 9.634496 15.451263 36.155205
740 3 10.064121 16.306922 39.294904
741 3 10.302866 16.353694 40.589416
742 2 4.430171 7.892547 41.934835
743 3 5.648417 8.946916 44.051430
744 3 4.951394 10.169707 41.683310
745 2 40.511495 37.302901 28.362570
746 3 39.396516 36.392900 26.558913
747 3 40.180211 35.860543 26.843361
748 2 26.973986 10.237177 27.980865
749 3 28.718375 10.933817 20.517013
750 3 28.013769 10.504734 26.145938
751 2 41.684972 32.130835 38.983191
752 3 42.172225 33.305266 37.844622
753 3 45.058616 33.604858 36.391341
754 2 27.497753 24.149279 42.109155
755 3 26.806099 26.722837 42.468000
756 3 29.629125 26.924331 41.869933
757 2 3.577883 16.037724 31.540377
758 3 3.259530 14.775402 30.883847
759 3 3.522340 13.276790 28.385217
760 2 32.770200 23.944377 47.401739
761 3 33.164076 25.073770 45.972909
762 3 34.569141 24.955787 44.364549
763 2 48.505622 32.776499 29.896893
764 3 49.835645 31.697471 29.354599
765 3 47.309080 32.259193 27.179178
766 2 7.354935 10.980757 35.954949
767 3 7.315948 10.412298 37.346369
768 3 8.544118 12.792057 37.611715
769 2 -2.783219 15.353826 36.011944
770 3 -1.979260 14.261102 39.155383
771 3 -2.253391 14.405493 37.967152
772 2 -7.865687 35.262150 35.364587
773 3 -8.388512 37.230464 32.061404
774 3 -9.997389 37.051458 34.732227
775 2 29.554930 19.677661 29.248529
776 3 31.620612 18.079012 31.055549
777 3 28.979972 17.695559 30.685718
778 2 10.055010 35.321716 31.216245
779 3 10.544016 35.911587 30.928506
780 3 9.305060 32.966656 31.453946
781 2 22.286671 32.474892 12.626902
782 3 21.657005 36.206527 14.694549
783 3 21.890207 33.778269 14.243832
784 2 24.531103 9.148014 26.933991
785 3 23.259529 8.672877 27.056708
786 3 25.359752 8.497720 27.372892
787 2 3.999446 20.112026 32.130241
788 3 2.686807 17.056891 33.541703
789 3 2.908105 18.678902 32.437882
790 2 31.922022 40.584223 40.888186
791 3 30.877489 43.573030 37.269830
792 3 31.411902 42.648508 39.634828
793 2 21.003368 4.358083 27.994618
794 3 21.214313 3.831289 29.532516
795 3 21.161681 6.093378 29.352284
796 2 26.712688 31.745835 26.697900
797 3 25.793142 29.878259 24.853671
798 3 28.277332 30.880737 28.654243
799 2 34.377397 25.071369 24.284925
800 3 33.246554 25.384688 21.884643
801 3 34.718874 24.990521 23.762543
802 2 33.363124 13.680711 15.299792
803 3 34.987771 15.859136 17.897546
804 3 32.778322 13.859332 19.166920
805 2 -9.457760 5.850975 35.030723
806 3 -8.904895 2.906759 34.967705
807 3 -7.170743 4.108869 34.181119
808 2 14.458214 49.738661 21.556487
809 3 14.167412 50.982917 25.566374
810 3 14.076460 50.577362 24.150811
811 2 -5.414460 28.959851 24.442883
812 3 -3.484343 28.212300 24.016555
813 3 -5.268278 29.118000 26.051510
814 2 25.378320 24.591112 41.325467
815 3 22.973467 22.405283 40.490326
816 3 23.807298 21.828520 41.077812
817 2 -7.587169 44.316076 38.491656
818 3 -5.963106 42.593752 36.765773
819 3 -9.936151 43.200990 37.145456
820 2 -6.885654 47.792851 35.962585
821 3 -6.469179 49.600810 34.364628
822 3 -5.004209 49.461438 35.901322
823 2 17.594377 25.188852 38.121632
824 3 16.778232 24.314045 38.925948
825 3 19.514670 24.068558 35.778392
826 2 30.479382 21.894026 19.464833
827 3 29.482634 22.825572 17.054519
828 3 30.128490 22.541433 20.580840
829 2 12.904555 18.239714 60.053774
830 3 12.585502 15.894574 58.485774
831 3 10.428878 17.071174 58.113762
832 2 20.710133 29.208811 31.816986
833 3 22.229090 29.708552 35.765692
834 3 22.129960 30.822484 34.805830
835 2 19.926954 28.258973 30.973018
836 3 20.090636 29.100801 32.127526
837 3 22.777099 26.891686 31.614041
838 2 21.505168 58.876054 18.834963
839 3 20.796117 56.501795 17.905390
840 3 20.714142 56.918035 17.960405
841 2 50.719335 44.817582 5.491062
842 3 53.432940 43.662015 2.546147
843 3 50.460936 43.684194 2.330869
844 2 40.707684 22.471582 35.130828
845 3 40.566151 21.263459 34.717462
846 3 41.392266 22.349163 36.037886
847 2 6.837918 56.904534 28.159047
848 3 4.765446 60.920494 28.480441
849 3 5.000630 61.975436 29.420410
850 2 13.162656 17.668594 28.096662
851 3 11.876676 18.952064 31.154282
852 3 13.493371 19.022810 27.888103
853 2 23.527729 45.043191 25.112220
854 3 27.004106 42.145216 22.177683
855 3 25.267379 42.528134 25.142030
856 2 10.185236 33.851063 15.926966
857 3 12.472690 30.394828 15.220106
858 3 11.545774 34.517846 15.950693
859 2 16.367229 19.554717 17.782855
860 3 17.848078 20.770392 17.894084
861 3 15.789163 22.688037 16.962794
862 2 -10.755085 23.323758 34.228215
863 3 -11.087075 27.376084 34.845862
864 3 -9.505631 27.798004 34.139512
865 2 22.716022 18.038733 29.601711
866 3 23.204096 19.063317 28.941680
867 3 22.717041 18.241575 29.477940
868 2 11.984476 25.628015 24.654139
869 3 12.497625 25.352320 22.211019
870 3 14.373498 24.348834 21.537131
871 2 35.528616 35.945284 28.098353
872 3 38.965114 36.244067 26.377672
873 3 38.446545 36.384874 25.918453
874 2 14.304908 38.362843 30.930070
875 3 15.193277 37.637477 33.705287
876 3 14.411242 35.585044 31.032910
877 2 31.945005 44.281667 26.140201
878 3 31.211703 43.765567 22.083100
879 3 30.548636 44.898526 24.572239
880 2 17.931061 55.246750 24.056137
881 3 17.145432 53.773204 26.281753
882 3 17.398754 52.602804 25.317489
883 2 26.709601 22.016608 4.736801
884 3 26.999508 26.469313 3.730026
885 3 24.294042 23.647078 3.370041
886 2 3.952932 30.983871 24.888313
887 3 4.702194 30.991368 23.983611
888 3 3.611244 31.888193 24.400587
889 2 -0.936149 35.549974 34.436112
890 3 -1.484251 35.984495 31.856758
891 3 -3.230144 34.608506 33.559531
892 2 24.612462 24.974208 30.975576
893 3 24.333587 24.102193 30.723044
894 3 23.406212 25.714948 29.201240
895 2 -1.361673 27.036392 46.987708
896 3 -3.024253 27.345967 45.330785
897 3 -2.343778 27.324196 43.953147
898 2 31.095468 42.407131 16.620694
899 3 34.141787 44.374934 15.325208
900 3 31.967617 45.914636 15.954008
901 2 34.588653 43.431238 24.854125
902 3 33.299403 41.016015 27.099865
903 3 33.762921 43.882840 28.481593
904 2 27.746376 40.388260 21.690140
905 3 27.503346 39.913902 21.021250
906 3 28.784357 39.127324 24.734653
907 2 36.978689 32.297544 2.353270
908 3 37.110097 34.000003 0.241785
909 3 37.728788 35.614678 2.445005
910 2 19.400936 28.237005 36.630806
911 3 19.495701 29.233165 38.675864
912 3 19.770708 27.429636 38.202525
913 2 41.515337 25.712986 43.956408
914 3 40.906323 24.158402 42.673158
915 3 40.925666 24.516811 43.242213
916 2 33.451043 51.296331 6.590652
917 3 34.974761 51.685557 7.208894
918 3 34.622513 50.793354 6.849915
919 2 19.575863 32.691254 25.965180
920 3 22.112745 31.858179 29.857194
921 3 20.243155 32.431165 26.662685
922 2 17.766005 20.828764 46.590212
923 3 19.260275 20.243992 44.344819
924 3 18.293732 20.984036 42.913971
925 2 13.024611 15.673088 16.415620
926 3 14.952929 16.524065 17.384479
927 3 14.687870 17.261902 17.861357
928 2 17.018879 21.824280 33.146839
929 3 19.469189 20.774802 31.930370
930 3 17.885520 20.018071 32.031909
931 2 -3.823787 44.304120 12.523266
932 3 -2.298438 43.434285 12.112857
933 3 -4.843337 43.153950 13.680207
934 2 14.874493 32.979283 24.340319
935 3 12.929711 33.379383 22.106566
936 3 13.258371 33.737049 23.369553
937 2 37.162021 31.515179 9.475248
938 3 35.439097 31.174875 9.699152
939 3 34.655336 31.506231 8.070716
940 2 13.715371 44.339227 50.518194
941 3 12.831751 45.337396 50.333972
942 3 12.646551 45.178446 53.312529
943 2 19.514650 52.990518 23.119909
944 3 18.507356 53.101440 21.379314
945 3 19.756906 52.881183 22.796062
946 2 27.753763 21.393399 17.159075
947 3 27.161930 21.344669 14.766629
948 3 25.817249 22.631884 15.912291
949 2 15.910770 25.129286 42.727620
950 3 16.702409 23.575085 40.601587
951 3 16.506044 24.942582 41.123386
952 2 26.798775 30.295329 18.597094
953 3 25.167475 31.383353 17.363881
954 3 27.052433 32.928084 20.553588
955 2 29.438621 14.510049 5.934905
956 3 29.585345 18.330301 5.737117
957 3 29.269803 16.468828 3.028150
958 2 29.392194 41.197149 -1.518438
959 3 27.961381 41.771824 0.214216
960 3 28.941954 40.962832 0.465233
961 2 5.028089 41.847507 25.025162
962 3 4.727106 41.302739 23.871779
963 3 4.551314 44.021503 25.359285
964 2 12.749419 26.430952 60.070768
965 3 12.953299 28.175637 59.386947
966 3 14.205534 28.538054 59.595461
967 2 3.118096 51.051394 30.692567
968 3 0.983855 52.900843 30.545142
969 3 1.540884 54.166379 28.178189
970 2 -4.959979 22.260898 30.460588
971 3 -5.174316 23.544874 32.344366
972 3 -4.700120 20.098663 32.750098
973 2 28.867894 30.253752 11.039276
974 3 28.267028 25.923279 11.585443
975 3 28.147643 29.097939 8.757676
976 2 -16.314171 47.819522 26.155645
977 3 -15.363799 47.155435 25.387697
978 3 -13.707477 49.039426 24.941064
979 2 4.470022 31.709253 30.170081
980 3 1.786977 33.496400 25.929784
981 3 2.122641 32.130778 27.329606
982 2 3.551891 41.146665 26.505693
983 3 1.678458 41.419214 26.358170
984 3 3.316285 41.129475 27.747758
985 2 -2.458072 44.498142 52.879458
986 3 -4.925145 42.767260 49.000985
987 3 -4.136426 44.946893 49.476984
988 2 6.089837 32.925403 38.189991
989 3 4.450740 31.672008 39.919353
990 3 5.625671 36.250808 40.879659
991 2 32.086647 28.788611 14.162179
992 3 30.091594 30.927954 11.124241
993 3 29.977018 32.687295 14.182042
994 2 12.951173 39.381286 14.754178
995 3 12.819009 41.282996 13.977807
996 3 13.467842 42.080630 18.255322
997 2 57.310793 31.119223 38.663060
998 3 56.299704 28.537155 39.283974
999 3 57.069528 31.344959 35.810437
1000 2 -11.110838 38.742268 56.576824
1001 3 -11.477695 36.757282 60.645692
1002 3 -10.345235 36.775732 58.138947
1003 2 9.981795 46.807213 12.477654
1004 3 9.256741 45.754259 11.282285
1005 3 6.500584 43.626767 9.492723
1006 2 18.589914 22.578092 7.363727
1007 3 16.686430 23.336870 8.089369
1008 3 17.496023 22.177038 6.061355
1009 2 -2.555120 46.027286 17.841787
1010 3 -3.304501 45.473862 21.746449
1011 3 -0.733365 45.132375 18.855071
1012 2 -10.049348 33.880679 35.680064
1013 3 -9.396850 33.851681 34.453932
1014 3 -9.242388 33.802304 36.639407
1015 2 9.685497 31.394997 8.948857
1016 3 9.258357 32.704584 8.895150
1017 3 8.507403 31.352285 6.646572
1018 2 16.494305 42.624809 41.441899
1019 3 15.343253 43.243680 40.346760
1020 3 13.906979 43.193573 38.746838
1021 2 12.693143 31.311281 43.954586
1022 3 13.617393 30.249754 46.568376
1023 3 13.475906 28.017095 45.374340
1024 2 23.692422 48.132549 25.154369
1025 3 24.087431 44.375286 26.568437
1026 3 23.445755 46.202913 28.361964
1027 2 25.436710 11.313655 33.959751
1028 3 26.993503 11.644262 33.605806
1029 3 27.383072 11.109781 35.892561
1030 2 27.574270 14.670579 20.916516
1031 3 29.677657 13.681197 22.445580
1032 3 29.472355 15.003017 23.731904
1033 2 31.547614 51.541131 59.169203
1034 3 33.096001 51.444633 59.499540
1035 3 34.802431 56.060578 62.028173
1036 2 52.368382 47.876169 24.653834
1037 3 51.042275 45.650075 24.715389
1038 3 50.559783 49.006016 23.015235
1039 2 -3.845725 48.098627 28.055141
1040 3 -5.888224 46.778754 28.066952
1041 3 -2.846324 47.561780 26.194707
1042 2 6.723577 34.703273 16.086743
1043 3 7.165411 34.196260 16.804925
1044 3 7.054953 33.627904 16.032962
1045 2 8.058883 20.916166 20.938609
1046 3 8.048956 19.502130 20.461085
1047 3 9.592620 20.319176 19.184238
1048 2 35.269294 47.723664 41.402175
1049 3 36.250481 46.285025 37.215906
1050 3 36.888140 48.635480 40.727094
1051 2 -12.242593 38.859548 23.138895
1052 3 -11.507617 36.975990 23.561391
1053 3 -12.803355 35.765001 23.001829
1054 2 17.204580 47.478624 50.565492
1055 3 15.872353 48.134100 49.008432
1056 3 16.685258 48.210159 49.561001
1057 2 9.989976 30.358517 46.086025
1058 3 9.040040 28.831671 44.449581
1059 3 7.710830 28.966168 44.483212
1060 2 46.218189 53.350745 15.284534
1061 3 47.354239 54.948350 14.002474
1062 3 45.220124 54.716820 15.336445
1063 2 31.818238 30.901475 32.459861
1064 3 31.456082 32.708511 31.031750
1065 3 29.718125 31.438887 31.123373
1066 2 38.181856 43.012336 23.366434
1067 3 37.846808 41.968999 22.457020
1068 3 36.488470 43.314783 23.904345
1069 2 39.584926 46.608088 30.304945
1070 3 38.094161 46.319446 26.711055
1071 3 41.345412 45.868618 30.977894
1072 2 35.715390 36.247134 27.887592
1073 3 35.917445 34.378537 30.344086
1074 3 36.355306 36.178029 30.593985
1075 2 55.449005 36.829055 0.099857
1076 3 54.671961 34.745050 0.499505
1077 3 54.388964 38.865875 -0.392553
1078 2 35.379633 3.504040 22.779493
1079 3 34.293632 3.055162 23.767014
1080 3 35.115252 6.547896 23.906000
1081 2 4.646239 46.818051 32.266848
1082 3 6.818860 48.203382 30.693958
1083 3 5.664480 46.602213 31.307784
1084 2 31.172266 36.620876 26.057845
1085 3 30.812386 36.990538 27.766619
1086 3 31.886209 36.616988 28.140777
1087 2 -6.104381 64.848023 38.546273
1088 3 -4.437549 63.434036 36.973072
1089 3 -5.509110 64.172839 37.787141
1090 2 9.212148 33.476287 22.346103
1091 3 9.888913 35.292162 20.061106
1092 3 10.617312 32.970807 20.697269
1093 2 20.119887 42.162196 11.125137
1094 3 20.037283 41.432901 8.407653
1095 3 19.905353 41.327437 8.947442
1096 2 48.118832 16.574139 8.457918
1097 3 51.484747 16.609381 4.246067
1098 3 49.831864 16.866471 5.764572
1099 2 33.172192 37.647430 12.883750
1100 3 31.834832 39.570464 12.282051
1101 3 33.173374 40.664184 13.791287
1102 2 31.164063 34.289720 9.571462
1103 3 31.464857 32.820955 10.131580
1104 3 32.105393 32.539293 10.417627
1105 2 10.982303 48.098165 37.055190
1106 3 9.862843 48.136156 33.106010
1107 3 11.300399 50.260197 35.119285
1108 2 14.997531 11.136129 33.884191
1109 3 16.203277 8.700165 37.765290
1110 3 15.527719 8.533885 36.470738
1111 2 41.126958 36.947504 39.564075
1112 3 41.199094 34.691048 39.318881
1113 3 40.375726 35.370840 42.163473
1114 2 37.514323 45.258905 22.498943
1115 3 37.305218 45.306575 23.044592
1116 3 36.373661 45.524473 21.727979
1117 2 -12.104080 53.571390 35.407261
1118 3 -11.257815 54.026245 36.421497
1119 3 -12.763003 53.127109 36.178188
1120 2 -4.646272 36.920982 33.374443
1121 3 -8.357237 37.598871 35.380875
1122 3 -5.342583 35.217838 33.675123
1123 2 18.546830 27.125771 37.015455
1124 3 19.887820 28.050415 35.002308
1125 3 19.575952 26.298652 34.178215
1126 2 8.315691 45.356912 13.639689
1127 3 7.766712 43.740721 12.293795
1128 3 8.392016 43.146192 13.003568
1129 2 28.514208 61.719601 36.064989
1130 3 29.966028 61.289905 34.381186
1131 3 29.601359 58.997468 36.814834
1132 2 19.986189 25.449097 21.763905
1133 3 21.576034 27.919025 21.019236
1134 3 22.058891 29.056320 22.112680
1135 2 33.095382 27.415758 41.186560
1136 3 33.521791 28.430226 41.015708
1137 3 31.320324 28.440414 39.023823
1138 2 17.201367 38.915135 30.571254
1139 3 18.103884 41.833378 32.472923
1140 3 18.270127 38.966725 31.713215
1141 2 15.075226 55.535665 11.380096
1142 3 16.992524 57.004236 6.364322
1143 3 14.761406 56.407194 9.433336
1144 2 50.019376 43.704072 41.127960
1145 3 48.584081 45.065298 39.780077
1146 3 47.650085 44.788468 37.749604
1147 2 41.167831 32.962450 30.192974
1148 3 41.835588 31.794180 29.008035
1149 3 41.423113 28.825495 27.888741
1150 2 17.048296 16.500003 29.586338
1151 3 17.475007 18.177683 29.314659
1152 3 16.066377 16.778059 31.586617
1153 2 19.699562 22.246632 32.932163
1154 3 20.958681 23.089242 34.824093
1155 3 19.102137 25.302251 35.162761
1156 2 -6.590986 34.583405 19.759322
1157 3 -7.899997 36.180260 22.236292
1158 3 -7.958698 35.916871 22.716266
1159 2 -9.275771 36.191196 29.075404
1160 3 -8.841042 31.635771 30.946281
1161 3 -9.019830 32.179112 33.601473
1162 2 2.747051 21.357930 8.361359
1163 3 3.143396 21.187060 7.811772
1164 3 2.078325 22.852533 5.944477
1165 2 3.491238 41.677726 48.034419
1166 3 3.969813 40.502300 45.976362
1167 3 3.565780 38.107392 46.034789
1168 2 4.149872 20.586361 21.934605
1169 3 3.683032 18.185665 22.855558
1170 3 4.271877 22.301325 21.128854
1171 2 -5.911724 48.159560 62.535305
1172 3 -6.839909 47.129981 59.668438
1173 3 -6.184260 49.033732 61.293200
1174 2 11.122051 62.132576 18.650346
1175 3 9.589256 62.017065 18.261220
1176 3 11.088182 59.735856 19.173831
1177 2 21.208807 52.598334 35.858957
1178 3 21.311219 51.753489 34.126802
1179 3 21.743200 53.191275 33.648672
1180 2 30.008952 37.166790 32.756978
1181 3 30.660616 36.272271 33.252103
1182 3 31.456680 35.936372 31.465268
1183 2 15.855860 41.866685 25.753864
1184 3 15.758719 41.305446 24.407383
1185 3 14.377760 41.427641 26.576815
1186 2 44.586727 42.848544 29.781171
1187 3 45.482323 42.830517 29.968084
1188 3 45.483599 43.509687 29.115047
1189 2 30.655681 53.981396 31.945814
1190 3 30.422384 54.315081 30.704015
1191 3 29.323848 52.766357 27.251009
1192 2 39.436548 46.712931 45.296965
1193 3 37.700552 44.348079 43.509793
1194 3 36.854518 46.590407 46.399965
1195 2 15.357386 15.212117 26.683540
1196 3 14.790313 16.100249 24.524450
1197 3 15.732975 17.811431 25.355527
1198 2 15.140034 26.295914 29.934346
1199 3 16.848947 25.971602 29.144233
1200 3 15.751887 24.964053 29.787810
1201 2 -2.267884 35.732036 11.824030
1202 3 0.899033 35.057771 15.326528
1203 3 -3.185496 34.434961 14.071000
1204 2 11.747878 17.075389 9.054355
1205 3 11.426283 18.646048 8.980638
1206 3 12.616759 18.118928 6.733512
1207 2 -2.269462 13.396608 4.651493
1208 3 -2.482280 11.798750 6.629644
1209 3 -1.998783 9.866616 7.335156
1210 2 40.557100 36.601299 23.236876
1211 3 40.760548 34.876162 18.592684
1212 3 42.795399 36.146908 23.183230
1213 2 7.030716 12.456023 42.073075
1214 3 7.942513 15.356122 39.656174
1215 3 6.304030 14.295241 40.663848
1216 2 33.474031 9.927432 39.995667
1217 3 33.866510 12.616584 37.937124
1218 3 33.454756 14.556840 35.427168
1219 2 26.295248 29.112638 29.479077
1220 3 25.666952 27.646309 28.389340
1221 3 26.316219 26.943997 30.459132
1222 2 25.459744 33.402717 8.794661
1223 3 26.673686 34.277005 7.630346
1224 3 24.250817 34.955672 13.662924
1225 2 11.886617 39.412056 23.757461
1226 3 12.868845 37.245892 23.418146
1227 3 11.529545 39.005292 24.714063
1228 2 26.148844 44.530675 24.393210
1229 3 25.893410 46.727244 22.065410
1230 3 27.242635 43.830697 23.281537
1231 2 34.563796 10.187749 28.065284
1232 3 36.726810 9.591454 29.287472
1233 3 35.091090 9.405097 27.361003
1234 2 -2.730036 25.674097 31.339582
1235 3 -2.336000 25.820573 32.687086
1236 3 -1.860560 24.038869 32.361766
1237 2 -2.355745 9.875840 48.186009
1238 3 -4.561822 7.664558 47.384254
1239 3 -2.338792 8.352797 47.900985
1240 2 22.117119 7.900117 41.670184
1241 3 22.322633 7.928346 42.517972
1242 3 23.415579 9.450281 40.655360
1243 2 19.016090 32.093362 32.769555
1244 3 18.272325 33.108852 34.882666
1245 3 17.998006 33.749136 33.087914
1246 2 15.939142 33.200522 35.574885
1247 3 15.070885 32.413029 37.462868
1248 3 15.283202 32.796610 34.649666
1249 2 11.721327 33.698873 36.661168
1250 3 12.279785 32.561901 35.892610
1251 3 12.532120 32.876586 33.871834
1252 2 43.687749 11.812796 2.544143
1253 3 42.658973 10.700784 4.303173
1254 3 41.963301 10.662338 2.632476
1255 2 8.645966 8.921268 54.203501
1256 3 6.877551 8.535971 49.995733
1257 3 7.654032 9.340524 51.827629
1258 2 12.815247 14.139656 46.487461
1259 3 12.713225 16.272685 44.828513
1260 3 11.740997 12.686894 45.154158
1261 2 27.306071 39.975126 24.841630
1262 3 25.326739 41.252174 25.595926
1263 3 26.170800 42.011614 25.943294
1264 2 46.796912 45.636897 1.531274
1265 3 46.657407 45.091438 1.742990
1266 3 47.733844 47.525761 0.652329
1267 2 29.289815 35.584665 34.249648
1268 3 26.813735 33.300574 34.525368
1269 3 27.911873 37.684878 35.276634
1270 2 20.872712 34.004622 30.297120
1271 3 23.147413 35.159515 27.638731
1272 3 21.925690 35.572859 25.551071
1273 2 -8.034747 15.322051 47.486509
1274 3 -7.681401 16.595694 46.610557
1275 3 -7.177624 14.317532 46.827676
1276 2 -4.497098 37.765666 33.197527
1277 3 -4.002980 38.478620 32.641203
1278 3 -2.871567 40.031481 33.555413
1279 2 6.332888 23.905251 56.047365
1280 3 7.545218 20.761629 51.597209
1281 3 6.170505 21.778999 55.732782
1282 2 32.972058 28.400595 8.461405
1283 3 31.454421 31.277568 8.186202
1284 3 33.357120 30.861833 9.328283
1285 2 14.118032 27.819750 34.329227
1286 3 15.888184 28.492497 35.735702
1287 3 15.663279 28.799476 35.083693
1288 2 35.672468 9.110132 40.499630
1289 3 36.604915 11.480852 43.059011
1290 3 36.936400 10.265779 43.429277
1291 2 1.735492 19.536949 28.549520
1292 3 2.880296 19.062213 25.224942
1293 3 3.484084 20.026097 29.953026
1294 2 12.936333 46.664505 6.978692
1295 3 14.391475 44.029185 6.464768
1296 3 13.673206 45.282468 8.362019
1297 2 9.446337 29.013997 15.099855
1298 3 8.062191 28.988260 14.357439
1299 3 9.071109 29.688228 15.025213
1300 2 25.466744 34.883123 16.997326
1301 3 24.604128 32.342538 19.245352
1302 3 24.819053 32.193865 15.644542
1303 2 30.885751 29.825434 22.651057
1304 3 31.423516 28.534776 22.151737
1305 3 33.598567 29.693127 20.213100
1306 2 12.566816 33.719189 28.351221
1307 3 13.145818 33.202644 30.137978
1308 3 11.091530 35.259472 28.496443
1309 2 19.164325 35.376591 45.533721
1310 3 18.237126 33.366335 44.626501
1311 3 18.740487 34.512431 43.792806
1312 2 -21.330933 26.919497 43.043737
1313 3 -19.258072 28.082472 46.019221
1314 3 -20.937469 29.046506 46.350111
1315 2 23.989886 21.594591 18.898103
1316 3 23.037294 24.705033 19.456387
1317 3 22.361832 23.964841 16.531959
1318 2 28.884999 1.805290 31.966323
1319 3 29.395909 2.896779 31.259385
1320 3 30.268030 1.152439 30.010492
1321 2 27.687284 22.089554 35.289103
1322 3 27.727165 22.167141 36.897621
1323 3 28.974932 22.451646 35.978952
1324 2 11.454990 22.534417 13.985361
1325 3 11.972809 21.835278 14.862175
1326 3 13.022141 22.829163 11.906022
1327 2 0.105047 18.771695 33.724420
1328 3 1.654063 20.593506 32.383862
1329 3 1.266147 20.280179 32.344217
1330 2 17.876924 23.821160 20.464947
1331 3 16.782500 23.129094 20.693452
1332 3 16.628295 21.962947 18.590487
1333 2 23.075529 46.529202 38.450310
1334 3 24.853696 43.021475 36.250960
1335 3 22.962140 45.876961 38.583032
1336 2 20.660578 37.262091 31.130815
1337 3 20.238489 38.147845 34.824730
1338 3 21.413775 40.432678 32.734080
1339 2 23.038146 23.876170 28.888226
1340 3 24.851152 24.871852 29.228751
1341 3 23.613633 23.735020 31.279664
1342 2 41.921814 22.077922 51.009180
1343 3 41.181845 21.655370 53.998332
1344 3 40.491783 19.178148 49.244808
1345 2 28.880197 45.819233 12.317945
1346 3 30.654203 49.534215 13.822746
1347 3 28.338238 47.006009 13.288629
1348 2 43.096879 39.289637 44.974334
1349 3 42.880402 40.515935 42.269745
1350 3 42.714872 41.697207 43.215218
1351 2 -0.010475 33.786422 37.781628
1352 3 -0.882145 34.567040 37.674165
1353 3 -1.655270 32.730042 37.339703
1354 2 10.788485 33.108844 27.355272
1355 3 11.870797 32.109918 27.232299
1356 3 14.769675 34.042863 26.786836
1357 2 -1.878843 30.586503 26.744937
1358 3 0.368219 30.881037 24.288786
1359 3 1.010149 28.932043 27.741512
1360 2 14.182241 14.809711 34.684417
1361 3 15.033388 16.266963 34.033766
1362 3 15.400636 14.578459 35.313420
1363 2 23.410972 22.036560 38.746250
1364 3 25.002950 21.477274 40.874290
1365 3 24.212760 18.721276 42.582931
1366 2 7.936843 30.829310 47.329814
1367 3 7.474748 31.199023 43.791517
1368 3 5.939742 31.597233 43.554465
1369 2 32.376568 57.102873 22.511322
1370 3 34.035663 58.143964 23.394788
1371 3 32.781086 59.005857 22.553204
1372 2 8.898664 39.578245 12.710132
1373 3 9.152237 38.803915 16.041524
1374 3 9.055378 37.922684 14.760251
1375 2 26.316909 35.988072 30.735955
1376 3 23.639545 37.093825 32.343346
1377 3 25.682628 35.063416 32.520213
1378 2 39.278748 46.747720 34.122726
1379 3 38.610620 46.634507 34.713439
1380 3 37.882807 44.271132 31.595376
1381 2 23.031339 13.231799 10.652657
1382 3 20.950731 12.449910 12.495314
1383 3 22.200358 13.142087 10.030763
1384 2 32.729080 28.056729 6.420616
1385 3 31.536573 28.051223 5.929976
1386 3 32.573924 25.540740 8.145806
1387 2 41.771894 10.987726 7.994664
1388 3 38.975766 8.797195 8.934267
1389 3 42.219083 9.769421 9.159829
1390 2 20.010851 24.255585 37.453335
1391 3 22.223177 21.591394 37.620109
1392 3 19.216892 22.908550 38.384966
1393 2 13.225405 37.570234 54.966097
1394 3 12.266684 39.508107 52.190750
1395 3 12.820273 36.763248 53.456107
1396 2 11.400301 31.324251 1.152131
1397 3 12.479646 33.466850 1.124908
1398 3 10.840528 30.554349 1.798271
1399 2 1.044337 37.544157 33.056718
1400 3 3.854955 36.223218 33.952230
1401 3 1.426102 36.078722 33.005977
1402 2 19.006341 32.951480 32.605701
1403 3 17.992256 33.211999 29.008793
1404 3 18.530716 34.125135 30.658196
1405 2 23.887105 28.610557 23.174702
1406 3 25.527376 29.872030 25.171872
1407 3 23.689213 29.174416 24.378155
1408 2 14.136795 21.589720 3.247736
1409 3 14.333324 22.393154 1.653739
1410 3 15.007042 23.694216 0.427924
1411 2 3.592428 29.348869 18.593414
1412 3 4.363465 28.670355 14.193657
1413 3 3.410225 30.796336 18.838482
1414 2 3.514662 30.761684 -1.496812
1415 3 4.978847 29.149965 -3.403812
1416 3 4.070097 28.654963 -0.327783
1417 2 24.992123 30.476383 24.022826
1418 3 23.401021 29.832013 18.452850
1419 3 24.643905 29.884834 20.614523
1420 2 -1.763175 34.327413 37.344050
1421 3 -0.069555 32.821558 37.716396
1422 3 -0.882165 33.444469 37.488629
1423 2 35.064421 33.056473 15.909493
1424 3 32.872235 30.571810 15.569758
1425 3 34.546693 34.246887 15.893177
1426 2 20.235957 28.947239 5.379039
1427 3 21.288167 30.667202 3.909262
1428 3 20.552679 29.260977 3.482849
1429 2 4.952494 17.485478 41.650406
1430 3 4.952112 19.837447 40.430648
1431 3 4.034432 17.157458 42.160363
1432 2 4.107905 18.486473 32.778790
1433 3 4.989138 18.580254 33.920351
1434 3 5.422527 19.818960 33.562498
1435 2 -2.804238 14.746577 27.861648
1436 3 -4.091126 15.482276 26.339458
1437 3 -2.314687 16.132519 28.166706
1438 2 27.373132 39.238771 4.940004
1439 3 26.720684 41.050662 6.136628
1440 3 28.309757 41.369923 8.564459
1441 2 11.003828 28.572387 21.537505
1442 3 11.545623 28.784590 20.862479
1443 3 9.971645 25.245863 20.494774
1444 2 12.997029 34.964991 7.337503
1445 3 14.225916 33.932995 7.905498
1446 3 11.574214 36.185310 6.858759
1447 2 9.892371 17.022605 24.536798
1448 3 10.132513 19.264465 23.271731
1449 3 9.346544 20.463185 23.888898
1450 2 19.114640 48.184612 24.171445
1451 3 16.542344 48.513382 24.779751
1452 3 18.626815 47.710383 23.634874
1453 2 31.578605 44.821178 43.303628
1454 3 32.256640 44.705431 46.737403
1455 3 31.255861 45.018347 40.744846
1456 2 -9.961729 13.436935 13.174616
1457 3 -8.554630 14.370450 14.307265
1458 3 -8.537277 15.063890 13.832498
1459 2 14.724607 27.352872 19.520891
1460 3 15.454010 26.885826 17.997839
1461 3 14.885074 27.943920 16.896491
1462 2 21.141712 26.687977 22.450476
1463 3 18.388536 26.459177 20.190056
1464 3 19.437288 27.193884 18.723213
1465 2 57.462481 50.313552 29.171545
1466 3 58.950892 51.539265 26.501817
1467 3 59.660720 50.440875 27.986245
1468 2 -5.220470 31.342807 29.377967
1469 3 -2.935123 31.964100 31.574492
1470 3 -4.909173 33.664165 30.278402
1471 2 32.112884 25.265927 43.717403
1472 3 35.003065 23.981443 44.958927
1473 3 33.517289 23.077166 45.853866
1474 2 12.832736 22.482369 44.708669
1475 3 11.245153 22.656858 41.299205
1476 3 11.552647 24.250740 42.564332
1477 2 -8.355216 48.694264 26.483475
1478 3 -10.708545 47.637969 26.819414
1479 3 -9.007530 48.315561 28.500003
1480 2 2.518911 44.955736 53.175295
1481 3 2.214220 46.915705 53.278588
1482 3 3.227090 46.057239 53.378213
1483 2 10.160038 62.191918 38.376093
1484 3 12.218611 60.426024 35.568380
1485 3 12.186750 58.198353 34.612888
1486 2 32.129752 37.879685 4.680263
1487 3 30.491813 38.199518 7.827091
1488 3 30.907661 37.681936 8.489771
1489 2 10.340461 14.554978 18.557939
1490 3 9.529399 16.336116 19.425732
1491 3 8.879411 17.124179 20.453183
1492 2 27.146047 19.246023 9.910155
1493 3 24.899098 19.147583 13.293439
1494 3 26.857902 15.072941 11.966699
1495 2 24.943246 25.182395 21.231762
1496 3 26.062057 25.031769 22.594784
1497 3 25.232507 26.108248 20.814421
1498 2 34.973864 22.574316 42.987047
1499 3 34.918023 24.335630 42.790317
1500 3 34.068572 24.014901 43.029230
1501 2 33.286435 40.025825 20.225464
1502 3 35.764518 39.355719 20.649325
1503 3 33.334938 40.218769 21.673313
1504 2 33.594368 43.349430 24.636523
1505 3 32.057016 41.371487 25.578797
1506 3 31.812710 40.895932 26.171192
1507 2 5.533535 25.915433 17.155609
1508 3 4.685652 23.951347 17.088515
1509 3 7.025971 25.975811 16.853430
1510 2 -18.604849 52.009427 10.881937
1511 3 -15.693983 50.658920 10.401224
1512 3 -17.484803 51.029195 11.148632
1513 2 10.273125 15.802110 46.819832
1514 3 11.999052 15.200841 48.055135
1515 3 10.256842 16.189523 44.521183
1516 2 -8.339042 31.507965 38.670739
1517 3 -9.464918 31.185631 41.801768
1518 3 -9.758916 31.292530 39.015365
1519 2 22.844961 46.891178 36.114807
1520 3 22.051981 46.681160 34.156468
1521 3 23.792916 47.512197 35.844479
1522 2 6.915817 26.076456 29.567257
1523 3 6.209898 26.034377 30.575061
1524 3 6.493792 26.609089 30.323870
1525 2 7.235882 56.629762 23.849156
1526 3 7.984272 56.173979 23.462122
1527 3 7.665733 57.394511 19.926206
1528 2 22.049714 54.635735 21.573493
1529 3 20.142582 55.132679 21.558111
1530 3 21.631647 57.964732 23.664142
1531 2 35.552176 50.698392 33.725154
1532 3 34.028331 53.007083 34.366449
1533 3 37.113862 49.879858 31.987578
1534 2 25.147893 37.738490 46.584494
1535 3 27.549586 33.244572 45.811842
1536 3 26.217002 33.543929 45.753878
1537 2 44.992760 37.911467 32.568637
1538 3 44.374054 37.622054 31.332302
1539 3 43.209560 37.406353 32.508795
1540 2 46.429429 35.563647 43.389984
1541 3 48.083119 38.452888 42.449255
1542 3 48.400060 38.624765 43.861347
1543 2 44.046806 31.918248 41.548544
1544 3 43.077744 34.721829 40.116378
1545 3 43.108847 36.007684 42.510683
1546 2 13.292455 39.653228 49.362848
1547 3 13.542868 41.663212 46.871764
1548 3 10.121633 40.375533 48.425551
1549 2 19.634010 24.804347 20.427939
1550 3 20.969958 23.590732 17.728632
1551 3 23.125092 21.505711 19.604360
1552 2 15.953234 31.784687 52.322897
1553 3 16.669081 32.553725 53.547708
1554 3 16.056555 30.999760 52.999593
1555 2 -8.347833 11.828882 31.945902
1556 3 -7.739921 9.681173 28.811313
1557 3 -8.116561 9.762069 30.087140
1558 2 28.442515 24.233669 40.823861
1559 3 28.814525 25.504183 41.263328
1560 3 28.901287 25.179495 39.969406
1561 2 23.900954 29.136929 42.613563
1562 3 24.875567 27.730055 41.752133
1563 3 23.875318 29.014972 39.181460
1564 2 47.178945 51.728319 38.015977
1565 3 45.584696 50.952391 38.152462
1566 3 46.364137 49.782796 36.343535
1567 2 29.474816 28.416505 18.341001
1568 3 28.415856 30.878024 19.681042
1569 3 29.239072 30.533269 20.360908
1570 2 27.203572 39.113558 47.117933
1571 3 27.413667 40.346230 47.178815
1572 3 26.885471 41.080004 46.870906
1573 2 25.429916 24.457213 29.065216
1574 3 27.182335 23.550661 28.442556
1575 3 24.679893 22.723282 24.415589
1576 2 15.547028 34.801279 25.292510
1577 3 16.276668 34.126739 27.139365
1578 3 17.487289 36.156450 25.796374
1579 2 36.446250 32.035080 41.203923
1580 3 35.783395 36.106118 44.534939
1581 3 35.689502 34.541346 41.631438
1582 2 47.541005 35.294315 43.464414
1583 3 48.579761 35.920812 43.733797
1584 3 48.673844 35.937497 43.219995
1585 2 -19.204547 58.129600 43.364980
1586 3 -21.136634 57.319823 44.030120
1587 3 -20.178152 60.935109 43.901104
1588 2 -7.085225 49.936344 23.574535
1589 3 -8.167541 50.367893 21.140156
1590 3 -8.433638 48.843443 21.860529
1591 2 14.327013 52.401367 14.891432
1592 3 15.611557 52.792467 12.936941
1593 3 15.601050 51.430191 15.379857
1594 2 3.394137 53.094085 43.579771
1595 3 4.965445 56.387527 43.680020
1596 3 5.658014 52.060532 43.350901
1597 2 30.272739 25.514600 20.072574
1598 3 31.547944 25.455844 19.515073
1599 3 30.529603 26.105640 20.138922
1600 2 11.564991 29.084403 38.445099
1601 3 9.692683 29.664352 37.558409
1602 3 10.772861 27.552883 37.269424
1603 2 8.620629 52.129343 43.402455
1604 3 7.373843 51.823083 41.590547
1605 3 8.426538 54.020121 42.292759
1606 2 7.752110 28.376151 28.629736
1607 3 7.547622 27.518343 28.939454
1608 3 8.962535 29.541455 26.558056
1609 2 16.716286 24.653337 28.128914
1610 3 16.033581 25.384950 28.894491
1611 3 16.963134 25.677259 28.433104
1612 2 28.831008 34.907363 34.961261
1613 3 27.950621 33.858033 34.678757
1614 3 28.784266 32.234901 35.702101
1615 2 4.204517 46.825884 28.443684
1616 3 5.175998 47.498612 26.876249
1617 3 6.579095 47.877729 27.753398
1618 2 13.362850 20.345335 33.716953
1619 3 13.466583 21.806848 29.192877
1620 3 13.605332 22.114008 29.693738
1621 2 41.346942 39.538330 26.814460
1622 3 37.624294 36.291217 30.055153
1623 3 39.776033 37.390314 27.812744
1624 2 20.048508 34.363553 18.736693
1625 3 19.100944 33.905483 22.998759
1626 3 19.157155 35.240754 20.269314
1627 2 -10.019278 17.626048 27.813003
1628 3 -10.960061 13.444827 28.468581
1629 3 -8.130042 15.494695 28.151510
1630 2 -14.594918 59.968911 20.819094
1631 3 -14.584891 60.025813 21.907861
1632 3 -13.862016 60.019458 22.122028
1633 2 -11.049517 17.550960 26.659360
1634 3 -12.815200 18.471196 24.138334
1635 3 -11.793487 19.277713 30.573263
1636 2 15.382980 55.996842 52.563726
1637 3 15.840878 57.022131 52.171027
1638 3 16.636743 60.898988 51.563082
1639 2 -19.216265 28.278520 41.454601
1640 3 -20.641521 28.308554 40.552695
1641 3 -20.868002 26.159421 43.284742
1642 2 27.731421 54.681538 17.919544
1643 3 26.040649 51.652143 17.335773
1644 3 27.034874 54.443629 17.286369
1645 2 39.449212 46.293336 28.920855
1646 3 39.656327 46.146598 28.409138
1647 3 41.366351 46.334105 28.485553
1648 2 24.803394 41.762600 28.313104
1649 3 25.384088 42.230661 26.131225
1650 3 25.821254 44.151505 28.894472
1651 2 30.783969 33.145355 3.665283
1652 3 31.693643 35.535850 1.224924
1653 3 31.308994 34.109814 2.295264
1654 2 33.785509 51.152745 31.301154
1655 3 35.214193 51.495893 31.330243
1656 3 35.785407 53.721958 32.052150
1657 2 36.728440 28.360925 25.270709
1658 3 35.450472 28.954601 25.802885
1659 3 37.088258 27.148591 27.124720
1660 2 35.051307 66.470985 15.271878
1661 3 33.762153 65.962398 17.460352
1662 3 32.720488 62.966626 15.377419
1663 2 10.542897 50.985453 52.111401
1664 3 10.723786 50.968846 51.767754
1665 3 8.980809 47.789809 51.789487
1666 2 10.937351 47.147842 21.273373
1667 3 10.619552 48.271661 20.377678
1668 3 11.006094 47.068785 22.556464
1669 2 6.537300 34.778038 9.690984
1670 3 6.810618 36.676387 10.675593
1671 3 5.767902 35.314631 7.887475
1672 2 27.719303 43.800649 54.468071
1673 3 27.926659 44.151385 51.789713
1674 3 28.039505 44.836175 52.808191
1675 2 11.440076 29.855302 27.829124
1676 3 11.431435 30.163560 27.813881
1677 3 11.973615 28.723531 27.861492
1678 2 16.234913 36.092617 17.791616
1679 3 14.361274 36.695374 16.597566
1680 3 15.879372 36.104740 16.344432
1681 2 23.053196 41.703918 25.178371
1682 3 23.445071 42.401655 27.114326
1683 3 24.036736 41.994276 27.028217
1684 2 17.381185 31.384924 33.892664
1685 3 16.820045 31.267905 35.248387
1686 3 18.362845 30.653392 34.976755
1687 2 7.159877 30.204239 9.807931
1688 3 6.788287 29.260352 7.745670
1689 3 6.690988 28.905258 8.224644
1690 2 36.453121 44.956753 32.610811
1691 3 37.078460 45.374699 28.698494
1692 3 35.948338 44.924675 30.977594
1693 2 18.726871 59.201692 28.304259
1694 3 19.346864 58.117733 26.512282
1695 3 20.136235 59.018891 28.179629
1696 2 26.955814 40.433328 15.915368
1697 3 26.025394 40.331049 15.244598
1698 3 26.979529 41.659681 15.918839
1699 2 56.538340 66.747901 33.662594
1700 3 53.436074 68.266041 34.942749
1701 3 55.508643 67.547753 33.533012
1702 2 12.228677 20.376849 23.783094
1703 3 10.608483 22.404716 23.600858
1704 3 10.849793 21.087490 21.346947
1705 2 14.848442 5.001466 12.323425
1706 3 14.317810 6.166809 9.543928
1707 3 13.691092 4.630878 9.318548
1708 2 13.331660 2.668059 33.248031
1709 3 13.021850 1.415311 37.139004
1710 3 13.598590 -0.016396 34.131282
1711 2 14.437036 0.590173 25.541143
1712 3 17.436598 0.214576 23.064628
1713 3 17.204095 1.320410 23.150839
1714 2 29.923304 32.304243 38.925078
1715 3 33.077818 32.956782 41.428550
1716 3 30.569406 31.663871 42.593388
1717 2 24.166219 24.555435 31.302045
1718 3 23.667950 26.169501 30.237329
1719 3 23.819400 26.099435 29.025788
1720 2 17.539417 29.588080 38.865421
1721 3 15.849561 27.110518 37.892426
1722 3 15.804578 26.280247 39.856610
1723 2 33.713230 17.180877 15.823845
1724 3 35.018489 20.094597 18.193022
1725 3 34.144591 18.322422 14.781967
1726 2 40.030481 22.983032 19.281179
1727 3 39.294632 22.825389 20.104104
1728 3 41.523735 24.615005 18.200414
1729 2 21.184401 27.246565 26.230964
1730 3 19.996235 28.162669 22.707284
1731 3 21.802762 28.026716 23.286778
1732 2 16.021518 37.919478 32.104543
1733 3 18.383504 36.008269 30.138432
1734 3 16.328418 37.333098 30.153877
1735 2 37.509524 25.960666 20.811822
1736 3 35.939361 23.910512 21.228197
1737 3 34.780843 26.380474 21.602947
1738 2 26.991392 10.062891 26.893728
1739 3 26.703916 9.133524 28.643528
1740 3 26.711821 8.241593 29.110794
1741 2 19.422427 9.469615 12.384138
1742 3 17.766657 11.777400 10.513314
1743 3 19.782504 11.239393 12.893430
1744 2 16.932045 17.420734 22.588685
1745 3 16.012742 15.465918 18.659411
1746 3 16.742464 16.893667 17.563409
1747 2 5.122174 26.583977 49.259290
1748 3 3.898426 28.989719 48.880391
1749 3 4.473307 27.860269 50.149570
1750 2 9.803474 44.995176 27.006057
1751 3 10.009288 42.881640 28.719410
1752 3 9.819052 44.082316 25.730387
1753 2 9.721808 21.042720 16.696612
1754 3 10.275850 20.540036 16.145072
1755 3 11.085182 19.798110 16.757709
1756 2 27.404325 44.125551 29.587762
1757 3 27.284753 41.944875 28.363369
1758 3 29.868111 44.985508 27.401766
1759 2 29.036739 14.074570 19.112189
1760 3 30.200844 13.652964 20.033311
1761 3 28.544976 13.233823 20.304505
1762 2 -2.400994 18.324211 28.899062
1763 3 0.758108 19.913805 28.921531
1764 3 -2.617397 20.981454 31.027399
1765 2 11.491918 4.962955 38.328750
1766 3 11.614054 7.919436 39.789349
1767 3 13.162292 5.718929 37.492870
1768 2 23.164809 29.270628 26.219062
1769 3 22.996934 30.567005 24.993714
1770 3 22.061580 30.206702 24.930386
1771 2 23.404099 36.720512 36.611778
1772 3 23.033052 38.944148 36.772202
1773 3 23.390992 39.172819 34.227641
1774 2 17.951782 1.083835 16.959009
1775 3 18.563042 2.404848 14.863066
1776 3 17.509143 0.866100 15.154271
1777 2 47.410380 41.428946 12.607887
1778 3 46.602992 43.542287 11.734484
1779 3 48.646473 40.920144 10.678638
1780 2 27.942298 31.980776 43.363870
1781 3 29.207648 30.365280 44.855729
1782 3 28.989234 32.657104 46.809257
1783 2 -11.129800 35.684874 24.994471
1784 3 -11.939468 33.872632 26.521476
1785 3 -11.984816 36.307271 24.962985
1786 2 15.164671 13.856479 51.192332
1787 3 15.784182 16.840909 49.908362
1788 3 16.669918 14.340869 48.968666
1789 2 -7.797686 20.265689 57.842153
1790 3 -8.142272 18.959938 56.668995
1791 3 -7.367585 16.603253 55.308987
1792 2 8.423026 21.513743 38.427161
1793 3 7.486282 21.282877 36.292327
1794 3 7.471348 21.578244 39.079147
1795 2 20.406329 26.978052 42.010764
1796 3 20.930773 26.013017 39.568254
1797 3 22.645592 26.564726 41.173060
1798 2 20.516187 43.414854 29.810534
1799 3 19.411636 45.564719 29.500429
1800 3 19.742285 44.003248 29.588913
1801 2 30.213500 29.445600 18.906583
1802 3 29.559816 29.820050 17.591541
1803 3 30.182159 29.165235 18.863528
1804 2 23.438099 21.039936 34.915982
1805 3 23.294576 22.585865 37.875083
1806 3 23.469021 22.560564 36.398460
1807 2 16.857647 47.973699 42.125963
1808 3 16.218270 47.878771 40.675214
1809 3 17.870161 48.730861 40.286203
1810 2 23.279752 13.505943 37.889621
1811 3 23.086056 14.406091 37.168417
1812 3 24.347333 10.707751 37.998377
1813 2 4.811484 23.256237 17.090967
1814 3 2.326639 24.817895 16.455555
1815 3 4.134016 21.445851 16.927052
1816 2 22.298812 29.841342 16.883793
1817 3 21.765408 27.266522 16.438679
1818 3 22.601067 31.183520 18.325255
1819 2 -2.815685 19.637561 50.200582
1820 3 0.435903 18.882788 48.417799
1821 3 -1.433129 21.112431 48.875711
1822 2 15.900302 38.313837 25.978641
1823 3 17.965904 41.305225 22.221358
1824 3 15.554274 40.068919 21.216755
1825 2 21.062817 27.554064 44.360236
1826 3 21.142406 25.748596 43.538882
1827 3 21.225716 27.175383 44.054546
1828 2 31.162756 2.896152 25.939465
1829 3 31.708618 3.492395 27.326202
1830 3 32.365313 1.158770 28.355597
1831 2 7.602601 35.886724 35.911510
1832 3 8.045917 35.820981 37.331893
1833 3 9.125211 36.709901 39.530518
1834 2 14.285438 37.398726 33.590943
1835 3 15.367429 36.213924 33.958142
1836 3 15.027770 36.087370 31.960531
1837 2 7.790905 35.522592 13.558173
1838 3 7.552580 34.834396 15.686597
1839 3 10.391277 34.784721 15.433753
1840 2 18.519290 1.078346 41.643498
1841 3 19.365011 -0.185762 42.195800
1842 3 17.610844 2.651188 40.611007
1843 2 13.724480 18.821151 36.695438
1844 3 12.238196 17.469002 36.390511
1845 3 11.571888 18.535036 39.428021
1846 2 26.842649 12.827947 42.845123
1847 3 28.013816 13.574578 42.213943
1848 3 27.855533 13.359316 42.651816
1849 2 15.077715 28.390562 32.839363
1850 3 17.372955 26.768357 34.795501
1851 3 17.222931 28.042422 32.253624
1852 2 45.581285 27.410743 24.950958
1853 3 46.882889 25.477969 24.318418
1854 3 47.127774 23.287987 24.853132
1855 2 16.147935 18.756577 31.783960
1856 3 15.468104 20.533269 31.827640
1857 3 15.444579 17.657928 33.759393
1858 2 10.058080 20.798397 47.559681
1859 3 10.570589 20.311740 51.679990
1860 3 10.682448 22.145475 49.615261
1861 2 3.654271 31.708792 39.055835
1862 3 3.564196 32.667157 39.729665
1863 3 5.085168 32.502964 36.601763
1864 2 28.862850 26.846235 32.016902
1865 3 28.741943 26.700525 34.630877
1866 3 27.627927 25.542070 34.632037
1867 2 -8.350012 40.837448 45.953602
1868 3 -7.300345 41.872005 44.231844
1869 3 -9.056464 40.896555 45.802807
1870 2 15.232077 21.859584 47.995894
1871 3 16.366193 23.324846 49.020790
1872 3 17.459262 21.977331 49.384015
1873 2 27.858940 26.710704 39.366602
1874 3 28.215690 26.001424 39.444992
1875 3 27.800757 26.143975 39.752474
1876 2 13.217085 29.875846 27.717271
1877 3 13.820564 26.970400 27.567244
1878 3 13.934776 26.487733 29.563351
1879 2 4.086891 24.592218 44.061253
1880 3 4.848125 22.067957 40.979169
1881 3 1.644807 20.776428 43.873403
1882 2 24.725180 4.242328 34.900372
1883 3 26.150637 6.049122 32.477914
1884 3 24.510904 5.193390 32.335041
1885 2 25.952524 10.933959 16.368789
1886 3 26.793764 9.370086 17.456807
1887 3 26.182578 8.532540 16.887395
1888 2 39.488189 16.511457 22.013075
1889 3 39.962204 18.656731 24.417470
1890 3 38.179165 19.407959 23.372620
1891 2 6.875796 45.189817 29.595765
1892 3 6.736922 44.087556 29.686923
1893 3 6.812567 46.154339 32.799630
1894 2 41.077804 12.884562 -15.163164
1895 3 39.176052 11.120283 -14.212665
1896 3 37.664726 12.153708 -16.390201
1897 2 -7.321720 23.855270 23.111886
1898 3 -7.462076 24.754163 24.115125
1899 3 -9.128797 23.665006 25.327236
1900 2 6.118570 17.965656 6.637856
1901 3 4.694323 18.766129 4.370687
1902 3 5.958953 19.736172 4.696916
1903 2 -9.577746 31.526386 21.307323
1904 3 -10.221290 31.953316 20.120615
1905 3 -9.792631 31.916314 20.099972
1906 2 14.213410 27.701451 20.471852
1907 3 15.134964 26.112752 22.890095
1908 3 14.471598 25.839222 20.247620
1909 2 11.134458 29.984743 9.828369
1910 3 13.765903 28.601072 10.440355
1911 3 12.108274 26.699304 13.638155
1912 2 14.674946 40.105333 19.568698
1913 3 16.666397 41.324939 19.405491
1914 3 14.636553 40.626743 18.365827
1915 2 7.362122 35.248089 39.507128
1916 3 5.856538 33.766763 40.628054
1917 3 6.407913 33.240179 38.778220
1918 2 17.615833 45.223029 49.991565
1919 3 16.831068 41.689314 46.320401
1920 3 16.545818 43.204637 48.840263
1921 2 48.815645 35.035818 36.987817
1922 3 48.481243 33.226337 35.330697
1923 3 49.974642 34.340610 37.434670
1924 2 16.370276 42.110585 28.157461
1925 3 16.694317 40.225850 26.094269
1926 3 14.668707 42.160139 26.775715
1927 2 -4.999402 35.811915 42.372129
1928 3 -4.029245 36.578588 42.249815
1929 3 -4.676154 38.585131 43.476089
1930 2 6.578226 21.564958 14.811517
1931 3 5.880766 19.708272 18.313383
1932 3 8.131905 21.686729 16.298383
1933 2 1.814282 39.732389 34.220163
1934 3 0.644826 37.027344 36.092979
1935 3 1.397050 39.097531 35.372192
1936 2 8.732973 42.455743 21.569838
1937 3 7.912810 42.071506 22.044901
1938 3 9.382048 42.406029 20.264905
1939 2 10.382485 14.054404 26.511316
1940 3 10.260791 15.057872 28.816767
1941 3 9.466007 13.245791 26.428103
1942 2 27.546421 27.333842 21.181204
1943 3 27.512822 29.750728 21.990553
1944 3 28.200427 26.737329 18.861832
1945 2 26.850353 33.222619 47.596186
1946 3 25.429351 33.035081 46.060386
1947 3 25.278749 30.815052 48.956636
1948 2 1.476267 32.235898 16.881387
1949 3 2.096594 32.374010 14.558108
1950 3 1.610671 30.744655 12.889387
1951 2 5.814377 -5.746108 50.168227
1952 3 6.240475 -4.449960 53.210030
1953 3 7.495540 -3.553165 52.884168
1954 2 13.815485 13.865355 34.512524
1955 3 13.707596 15.627321 36.239812
1956 3 16.032736 14.512773 36.811224
1957 2 31.862975 44.259839 39.174616
1958 3 30.851412 44.057206 39.924547
1959 3 29.694822 42.385714 41.458877
1960 2 20.793966 24.345691 44.171343
1961 3 19.901033 24.643982 45.962230
1962 3 21.071782 24.469521 44.698144
1963 2 11.692007 44.720404 29.787704
1964 3 12.450514 43.021143 30.550715
1965 3 11.830481 42.543962 28.908215
1966 2 14.460459 44.405901 39.832847
1967 3 12.972485 45.453463 39.559155
1968 3 13.279414 42.325320 41.016537
1969 2 21.631663 44.761672 27.912029
1970 3 20.341159 44.811901 28.075247
1971 3 20.814809 44.507956 29.895064
1972 2 18.154103 44.011508 24.983812
1973 3 20.021080 44.307824 25.196742
1974 3 18.571755 44.291537 24.350332
1975 2 27.716900 41.508966 43.010896
1976 3 28.281732 41.575455 42.196167
1977 3 28.231911 40.642301 39.853418
1978 2 26.126270 26.736166 29.160165
1979 3 25.622569 27.895732 28.684549
1980 3 25.636844 27.615028 30.088430
1981 2 4.217497 22.198709 36.319377
1982 3 4.490590 21.659772 36.019764
1983 3 5.484847 22.956873 37.548186
1984 2 29.986822 43.887551 33.026752
1985 3 28.572712 43.709788 34.283506
1986 3 30.291330 41.589013 33.105918
1987 2 -8.322974 57.941599 24.020506
1988 3 -9.427900 57.221216 22.651247
1989 3 -8.134957 58.332432 25.819311
1990 2 6.166153 46.237320 37.228069
1991 3 7.136076 48.909650 38.388151
1992 3 6.903456 48.373100 38.549169
1993 2 20.549053 41.472702 28.230420
1994 3 19.989544 41.466480 27.378696
1995 3 21.035294 41.261245 29.186563
1996 2 23.417366 37.535224 18.294201
1997 3 25.530947 34.702277 17.089496
1998 3 26.648157 37.256256 15.897479
1999 2 35.560890 52.732645 26.759555
2000 3 34.983360 53.205787 25.634532
2001 3 35.397614 50.845336 27.904034
2002 2 28.350825 39.352856 29.825045
2003 3 30.424117 41.510378 27.265369
2004 3 28.502824 39.068694 30.654041
2005 2 23.621172 39.222829 15.156998
2006 3 25.130783 41.186972 17.130460
2007 3 24.663797 41.527816 17.682628
2008 2 6.507194 43.375819 42.006465
2009 3 6.845137 45.710091 43.834036
2010 3 6.972370 46.911073 41.603188
2011 2 27.143722 27.770543 45.620763
2012 3 27.628669 25.873832 45.376965
2013 3 26.486916 26.389534 45.856421
2014 2 36.937071 61.962816 31.533780
2015 3 39.103912 61.056831 36.199015
2016 3 37.051757 61.850525 33.086504
2017 2 8.192658 37.758522 38.398121
2018 3 8.404934 36.803408 38.715337
2019 3 9.413559 38.068347 38.912484
2020 2 22.487975 32.248451 40.674308
2021 3 23.722283 30.209123 37.794068
2022 3 21.408978 32.161010 39.090190
2023 2 -0.761063 56.177947 36.973410
2024 3 0.183980 56.780607 38.236893
2025 3 -2.233082 54.679288 36.050907
2026 2 12.031453 47.779306 46.956345
2027 3 12.341749 47.985575 48.993286
2028 3 11.940479 46.298935 47.974707
2029 2 14.241283 57.080090 45.516287
2030 3 13.463408 56.896544 45.614521
2031 3 14.108392 56.839835 44.283472
2032 2 12.426899 46.693051 20.496627
2033 3 12.935283 46.202559 19.856814
2034 3 11.557875 45.650855 21.672786
2035 2 -5.964196 45.802141 37.171527
2036 3 -4.326251 46.054013 38.625383
2037 3 -6.067798 46.001923 38.428483
2038 2 10.337312 38.733286 32.032673
2039 3 10.565822 40.581342 33.670415
2040 3 9.474890 41.084858 34.067101
2041 2 16.388086 34.129640 23.537052
2042 3 17.211131 33.887650 20.183390
2043 3 16.450486 36.684702 23.772444
2044 2 40.418801 46.295581 39.632745
2045 3 39.971810 46.681382 38.893161
2046 3 41.428018 46.163057 39.566757
2047 2 20.145605 50.672940 33.370557
2048 3 22.298333 52.124033 32.209609
2049 3 23.418402 51.817610 32.898123
2050 2 10.160969 26.671287 11.683796
2051 3 11.760851 30.885431 11.467536
2052 3 11.237797 28.736851 10.416910
2053 2 27.610176 53.828068 27.328500
2054 3 26.413539 53.362030 27.476077
2055 3 28.693597 52.732535 27.531148
2056 2 2.592457 38.274722 31.486367
2057 3 2.869963 36.082884 33.087582
2058 3 2.606609 38.947560 32.600379
2059 2 15.734846 42.663414 21.750556
2060 3 15.643920 42.625436 23.503788
2061 3 15.564182 42.357132 26.195313
2062 2 13.635130 17.622576 21.161510
2063 3 13.014314 15.976579 22.440802
2064 3 15.924145 16.289158 20.242371
2065 2 7.883056 35.598006 37.715606
2066 3 7.840512 35.180540 37.845491
2067 3 7.572308 33.097416 38.539005
2068 2 5.510040 16.110896 49.333035
2069 3 6.623537 15.794951 50.397494
2070 3 9.061404 15.991353 48.596534
2071 2 13.001936 43.323541 13.549152
2072 3 8.681792 45.375967 15.428583
2073 3 10.333615 42.678410 13.238446
2074 2 24.114132 51.213802 38.859644
2075 3 22.921143 50.436608 40.199503
2076 3 22.946897 50.031522 37.604261
2077 2 -1.005771 46.335103 19.983556
2078 3 -1.312349 45.050837 19.583897
2079 3 -0.214826 46.986148 21.729761
2080 2 43.685082 46.312690 18.623858
2081 3 43.660312 47.873694 23.581503
2082 3 44.821949 49.357051 20.160642
2083 2 8.205137 20.644444 37.716433
2084 3 8.403213 24.593469 37.488652
2085 3 7.543075 22.387603 38.747459
2086 2 26.070008 54.563940 20.682421
2087 3 25.581463 53.239529 20.086428
2088 3 25.708171 52.479137 20.465012
2089 2 10.397688 23.834481 17.604541
2090 3 11.083339 24.127362 15.610457
2091 3 9.911639 23.316250 17.386118
2092 2 35.076660 44.813808 6.704358
2093 3 34.421106 46.761712 6.002466
2094 3 35.660303 46.650975 6.841297
2095 2 10.999656 43.487414 52.481632
2096 3 9.574579 47.047311 51.898295
2097 3 10.624804 43.212186 50.286140
2098 2 13.685054 25.681899 19.360780
2099 3 15.475465 24.495165 19.789653
2100 3 14.649557 25.285873 20.424495
2101 2 19.661980 42.747874 48.952533
2102 3 19.786057 43.681913 49.120706
2103 3 17.623283 42.106932 51.428113
2104 2 11.952628 39.973777 19.603497
2105 3 12.718797 38.733918 16.750495
2106 3 10.456079 39.135511 19.018810
2107 2 14.883097 46.498969 27.087813
2108 3 13.296410 46.078068 22.646220
2109 3 14.643042 46.741220 25.482374
2110 2 7.328835 51.698013 24.031376
2111 3 5.343711 50.789618 23.613380
2112 3 5.442677 49.356800 21.548618
2113 2 9.422155 52.337262 35.332331
2114 3 10.913800 51.338232 32.635771
2115 3 9.384786 51.004104 36.922753
2116 2 15.344544 66.598793 21.780052
2117 3 15.501467 68.561088 25.024941
2118 3 17.146079 66.661510 26.129007
2119 2 23.237198 34.872175 16.519570
2120 3 23.615928 35.966117 18.248906
2121 3 23.790399 35.598301 19.512959
2122 2 31.707108 45.251220 15.004106
2123 3 32.327371 44.848287 16.716363
2124 3 31.887293 43.778588 13.980593
2125 2 18.802754 58.626149 43.361052
2126 3 19.050146 58.433826 42.628034
2127 3 18.605160 62.429991 44.093020
2128 2 19.765806 35.677301 44.172330
2129 3 19.334452 34.879679 47.000103
2130 3 19.990191 35.668743 44.681888
2131 2 32.629915 46.566204 27.422010
2132 3 32.610323 44.785830 26.623028
2133 3 32.897798 44.855617 26.226354
2134 2 -2.896951 19.593060 42.879556
2135 3 -4.013509 22.111765 41.337451
2136 3 -3.992965 21.251917 41.570529
2137 2 -3.460195 28.038524 21.742163
2138 3 -3.912272 30.269775 21.997825
2139 3 -2.879327 30.092906 24.246106
2140 2 9.122531 66.023630 30.428188
2141 3 9.483497 66.670040 32.266044
2142 3 8.377909 64.049540 31.580134
2143 2 16.965896 55.051166 38.522835
2144 3 16.483022 57.616505 36.944256
2145 3 17.352317 59.711237 35.636976
2146 2 24.493371 45.604725 25.000329
2147 3 24.825785 44.271150 24.320473
2148 3 25.441008 44.440974 21.942641
2149 2 30.189526 33.564943 26.115712
2150 3 29.643609 30.875709 23.022165
2151 3 30.521756 34.524626 23.058977
2152 2 9.725005 26.401288 13.254363
2153 3 9.264768 28.988244 13.595630
2154 3 8.709375 27.306098 13.314769
2155 2 43.246143 41.651984 30.984999
2156 3 42.295122 40.360440 33.095838
2157 3 43.344375 42.321928 31.205836
2158 2 28.781123 65.300529 36.367860
2159 3 29.537604 62.292761 37.607437
2160 3 28.392705 62.800291 37.329847
2161 2 34.724322 41.750838 31.769973
2162 3 34.807627 40.647720 35.390637
2163 3 34.917527 39.540669 34.861032
2164 2 -1.501158 25.889323 29.141134
2165 3 -0.724998 23.820217 32.644400
2166 3 -2.040125 25.916944 31.057007
2167 2 23.335326 28.305220 48.727931
2168 3 22.706744 29.399001 47.785270
2169 3 25.001445 29.491363 46.748629
2170 2 22.417198 52.024487 35.805784
2171 3 21.283648 52.012042 37.270606
2172 3 22.198426 49.563557 38.632506
2173 2 13.885833 14.739046 2.527925
2174 3 14.155717 16.309040 4.668892
2175 3 13.929778 15.400651 6.759388
2176 2 16.354943 32.505208 40.602556
2177 3 14.829857 33.213816 41.921803
2178 3 15.599739 30.985011 40.047867
2179 2 -19.102834 31.748133 50.385604
2180 3 -19.052415 29.727500 51.430403
2181 3 -18.751811 32.088931 50.438478
2182 2 -10.802990 18.185144 27.633229
2183 3 -8.746718 17.873339 26.574049
2184 3 -9.149965 18.377595 27.155112
2185 2 22.150367 2.910111 50.352218
2186 3 23.713600 1.740727 50.277719
2187 3 22.690277 3.254614 46.900124
2188 2 28.647799 27.898271 36.128252
2189 3 27.531098 28.913821 37.912736
2190 3 29.523022 28.451580 37.721784
2191 2 26.700941 12.993770 46.389284
2192 3 24.543653 11.716731 44.947365
2193 3 24.381163 13.217596 47.195497
2194 2 42.055755 10.422994 34.187617
2195 3 39.285638 10.269650 35.215017
2196 3 41.402996 12.336689 35.739330
2197 2 24.184551 24.695659 40.241412
2198 3 25.142253 24.259595 40.894361
2199 3 23.909436 25.692090 38.962747
2200 2 -13.790931 16.196601 27.498205
2201 3 -10.476836 19.083216 29.138708
2202 3 -13.057034 18.760085 29.707081
2203 2 23.454047 17.479871 43.595495
2204 3 22.654217 18.583430 44.281145
2205 3 23.043280 16.875024 46.167985
2206 2 9.090455 13.514885 48.353680
2207 3 13.093703 14.948862 46.325356
2208 3 11.790206 14.583197 47.147463
2209 2 45.424771 19.783774 36.624519
2210 3 45.297683 22.047561 36.134153
2211 3 44.354041 23.176887 35.611089
2212 2 -22.529269 7.966985 51.077740
2213 3 -23.502541 9.837825 49.368172
2214 3 -21.223033 9.010928 50.229749
2215 2 13.337654 28.790746 44.828637
2216 3 11.998865 29.973339 42.926248
2217 3 14.761686 31.657504 42.298601
2218 2 -5.692737 -0.914971 22.720080
2219 3 -4.571446 1.080825 26.613353
2220 3 -6.236875 0.817163 24.562689
2221 2 15.676969 34.912674 35.379113
2222 3 16.617631 37.148729 34.854449
2223 3 17.038411 37.359054 36.675393
2224 2 12.372365 17.680252 14.342420
2225 3 10.991996 19.250244 16.563076
2226 3 10.094976 17.644414 18.351532
2227 2 45.827837 27.360874 32.651555
2228 3 44.661485 28.956111 32.943702
2229 3 45.570599 28.881290 31.642523
2230 2 25.938344 31.663381 34.977158
2231 3 26.629807 30.625176 38.673402
2232 3 28.312590 32.496548 38.230445
2233 2 -9.964021 28.789240 43.233363
2234 3 -7.445997 29.560655 42.496418
2235 3 -8.547485 28.459112 43.912216
2236 2 29.362236 15.692846 32.884817
2237 3 29.414191 14.553539 30.860672
2238 3 30.253684 15.336782 31.312860
2239 2 24.250879 33.736026 35.371337
2240 3 23.741506 35.602512 37.274975
2241 3 24.271039 35.291595 37.621244
2242 2 29.951893 15.528148 42.108551
2243 3 31.115226 15.554636 41.356187
2244 3 31.964249 13.202967 42.126894
2245 2 40.554166 24.509906 48.732300
2246 3 40.697233 25.166180 50.811687
2247 3 41.573923 22.506749 49.202339
2248 2 34.114732 -1.708679 14.308385
2249 3 31.095391 -2.364485 14.274653
2250 3 32.779641 -2.490964 12.701838
2251 2 23.225345 14.199411 8.849840
2252 3 20.789830 16.653383 7.819403
2253 3 21.942716 15.463470 9.387849
2254 2 17.558084 37.971745 45.015029
2255 3 19.762052 38.299500 43.683666
2256 3 19.147549 38.619757 44.554016
2257 2 2.845214 14.060981 47.711246
2258 3 4.019902 16.152798 46.539426
2259 3 3.850321 13.580177 47.664614
2260 2 3.840113 25.705567 22.037095
2261 3 2.777699 24.326654 20.938289
2262 3 3.131034 25.584421 22.045523
2263 2 44.859291 20.541054 45.958706
2264 3 44.512446 21.856810 44.201800
2265 3 45.106129 23.564077 44.198236
2266 2 9.727949 20.294629 18.266146
2267 3 9.663572 20.438726 19.883384
2268 3 8.954572 20.611249 19.330968
2269 2 21.587781 17.407486 27.167415
2270 3 21.926270 18.758102 25.602614
2271 3 23.532794 18.701629 23.938919
2272 2 12.162646 24.604317 30.053381
2273 3 12.945401 22.642730 31.645305
2274 3 13.626072 21.666169 30.244576
2275 2 22.763451 23.414344 36.441449
2276 3 22.813002 21.748547 35.765955
2277 3 22.020751 23.174384 35.450006
2278 2 15.542215 -11.047762 58.397490
2279 3 15.941497 -10.241547 58.436239
2280 3 14.891030 -9.934021 59.567871
2281 2 15.020226 8.081049 31.001103
2282 3 15.442595 6.906203 29.887826
2283 3 13.409363 5.017592 32.883537
2284 2 16.172482 52.494383 23.477909
2285 3 15.334488 51.969204 23.583259
2286 3 16.577845 51.151358 23.941723
2287 2 37.301836 29.197539 16.818920
2288 3 37.355336 28.666233 14.868198
2289 3 36.499350 28.431107 12.116960
2290 2 7.940706 39.546175 33.448632
2291 3 6.852177 38.471019 33.254108
2292 3 8.650808 39.280754 31.098017
2293 2 15.555620 10.205192 27.854743
2294 3 13.709259 11.573020 25.178630
2295 3 14.261080 12.881257 25.561233
2296 2 15.982046 21.280040 17.713431
2297 3 16.406328 22.585159 19.137888
2298 3 14.808800 22.357757 19.535030
2299 2 21.942976 10.254197 45.224136
2300 3 19.020603 10.713156 44.360782
2301 3 22.084109 11.525557 46.397172
2302 2 13.791669 7.411161 34.759670
2303 3 12.227967 9.173790 35.303674
2304 3 14.918969 10.369057 32.268993
2305 2 6.042572 38.106622 39.277535
2306 3 5.266904 38.543764 38.252555
2307 3 4.824374 38.072749 38.341455
2308 2 7.076018 41.619125 37.448304
2309 3 4.549598 42.547027 39.406458
2310 3 3.023673 40.560261 37.730435
2311 2 37.137067 21.147379 15.949818
2312 3 36.240859 21.662937 14.049989
2313 3 37.827245 20.161830 14.169290
2314 2 43.421347 0.262958 39.433868
2315 3 41.825413 -0.800458 41.050234
2316 3 42.809762 -0.261217 43.753354
2317 2 28.943310 27.627438 1.518272
2318 3 27.979218 28.680739 3.736432
2319 3 27.243732 31.034464 -0.436163
2320 2 26.739034 31.685646 29.839088
2321 3 25.582445 31.327758 25.814106
2322 3 28.121120 33.286877 30.477231
2323 2 29.391378 37.922994 41.043649
2324 3 30.974375 35.985478 37.978086
2325 3 29.850416 35.353388 42.572676
2326 2 23.406000 40.573012 32.793594
2327 3 23.174812 40.358884 30.594968
2328 3 22.605907 39.369640 32.834844
2329 2 -0.030948 52.530014 29.707858
2330 3 2.505213 52.987975 31.199762
2331 3 0.858878 53.126284 29.845861
2332 2 12.218142 21.265333 31.073662
2333 3 12.702326 18.121618 29.882327
2334 3 13.735022 20.826158 30.461231
2335 2 17.363476 4.417812 41.025299
2336 3 16.340973 5.547554 38.489303
2337 3 17.754511 5.032759 38.579895
2338 2 24.477620 27.563857 14.960119
2339 3 26.181479 26.884059 16.083730
2340 3 25.363208 27.410232 16.610133
2341 2 56.528880 39.811094 30.419247
2342 3 57.238845 38.425059 27.661668
2343 3 56.302292 40.283343 30.364885
2344 2 6.411628 20.314036 23.558692
2345 3 3.516082 18.930426 22.778424
2346 3 3.511098 17.501749 20.178818
2347 2 20.545496 26.172242 13.154960
2348 3 20.342912 27.177259 16.111945
2349 3 20.801872 25.700202 13.280301
2350 2 9.928398 25.540433 16.279198
2351 3 8.870861 24.931515 15.317568
2352 3 8.571261 25.586164 17.716386
2353 2 8.200167 43.782617 44.500646
2354 3 7.463800 46.727654 43.308942
2355 3 7.843702 44.437391 46.411853
2356 2 18.826714 43.242363 35.100108
2357 3 16.814784 41.859573 34.397636
2358 3 18.986257 42.769407 39.207450
2359 2 -11.624136 18.537495 46.712175
2360 3 -13.447001 18.207197 51.031843
2361 3 -13.908417 19.842320 52.507460
2362 2 -2.735011 37.370410 44.306403
2363 3 -1.631852 33.760400 44.941366
2364 3 -1.747246 36.775023 45.576368
2365 2 18.908192 57.342329 36.277887
2366 3 16.488098 58.459799 32.865930
2367 3 16.109898 56.108947 35.918267
2368 2 22.983287 40.777336 33.736977
2369 3 23.170621 41.347714 32.651462
2370 3 24.522657 40.325273 31.766231
2371 2 -5.430854 19.908545 34.600800
2372 3 -7.105853 19.469245 37.513784
2373 3 -6.311688 18.407575 37.165189
2374 2 -5.724866 47.870887 38.848498
2375 3 -4.309401 48.034983 37.122925
2376 3 -5.649084 47.148040 39.785235
2377 2 47.093914 19.510444 32.339781
2378 3 45.993871 20.672999 34.771522
2379 3 47.003296 17.946454 35.671504
2380 2 22.277283 48.041420 15.945711
2381 3 24.141080 47.071013 15.391657
2382 3 21.788319 48.802737 18.314156
2383 2 5.781798 30.116983 11.752552
2384 3 3.232790 30.600130 11.714570
2385 3 5.211094 28.223269 12.360333
2386 2 -11.636708 24.225471 55.447862
2387 3 -11.449686 23.023502 49.712711
2388 3 -12.578989 24.823988 52.738252
2389 2 -9.626430 36.161055 50.060095
2390 3 -7.784322 35.757699 49.281887
2391 3 -9.515470 36.130303 46.392501
2392 2 8.764264 55.490493 61.840967
2393 3 7.017281 53.854326 61.811010
2394 3 8.741711 54.209814 60.750963
2395 2 6.109285 35.344493 25.899150
2396 3 5.051596 35.337529 26.966717
2397 3 6.200023 34.015309 27.763050
2398 2 10.881768 43.803692 29.224871
2399 3 10.493271 42.856642 31.418634
2400 3 10.512106 39.217019 32.483051
2401 2 -6.422312 22.562109 14.532317
2402 3 -7.237345 21.526333 13.550724
2403 3 -8.150369 21.778593 16.741771
2404 2 21.533071 65.198832 39.672827
2405 3 21.257036 64.916826 37.929125
2406 3 22.348520 62.004123 38.930643
2407 2 23.802818 29.513203 39.832672
2408 3 24.213987 31.680724 39.800180
2409 3 24.550255 30.387788 38.750418
2410 2 57.829311 18.122837 35.826154
2411 3 56.175051 17.374818 36.454922
2412 3 59.121601 16.721591 35.186275
2413 2 20.726678 36.960122 29.887244
2414 3 20.249914 34.615236 31.428883
2415 3 19.309873 38.106362 30.704894
2416 2 21.625060 25.937458 11.255293
2417 3 19.945794 27.835159 16.431767
2418 3 20.140562 27.709917 14.243009
2419 2 40.711056 40.920762 31.786774
2420 3 40.767634 41.120902 29.538024
2421 3 39.298183 39.281712 31.670449
2422 2 40.372283 52.844898 29.450481
2423 3 41.041363 52.509758 29.304308
2424 3 41.104708 51.404312 29.641692
2425 2 -1.520448 52.830158 24.848659
2426 3 -1.793650 53.783562 21.828952
2427 3 -0.746359 54.073192 25.094364
2428 2 -18.031490 39.187953 63.641929
2429 3 -22.397954 40.452983 62.079538
2430 3 -19.119904 40.447937 65.058260
2431 2 -5.076727 37.860999 31.024476
2432 3 -4.181148 39.834739 29.992045
2433 3 -3.751813 37.637114 29.490965
2434 2 21.874757 57.186102 16.120970
2435 3 22.616850 54.262276 19.955828
2436 3 20.626360 54.890931 17.756199
2437 2 27.201486 63.453760 48.072941
2438 3 29.400548 62.173358 47.419953
2439 3 24.241406 60.273879 48.789862
2440 2 22.093151 37.355781 35.102379
2441 3 21.407528 36.754283 31.871929
2442 3 21.792771 35.903512 34.654837
2443 2 24.968680 35.656972 5.321374
2444 3 24.534706 36.215918 4.690559
2445 3 24.272236 35.944261 4.148526
2446 2 16.645865 43.147332 47.886812
2447 3 16.115503 43.670651 49.803844
2448 3 15.361778 41.542484 47.699139
2449 2 37.213827 54.102821 27.275838
2450 3 36.126219 54.163901 25.046166
2451 3 34.986781 54.598336 26.079820
2452 2 30.033481 37.319850 26.367172
2453 3 30.698242 37.653886 27.643845
2454 3 30.418710 38.058569 27.649094
2455 2 51.557937 58.257681 35.108828
2456 3 50.890892 61.916139 35.473775
2457 3 51.926070 59.186290 37.229036
2458 2 13.751383 51.530942 41.753111
2459 3 14.233058 52.859434 41.846481
2460 3 13.602864 52.152841 40.939727
2461 2 45.832890 38.319803 30.272654
2462 3 46.979999 39.501132 32.719739
2463 3 46.105078 38.845987 31.110550
2464 2 4.390752 57.248603 44.280003
2465 3 3.983890 58.098245 45.471481
2466 3 5.466848 58.531164 46.030255
2467 2 7.554245 28.128759 42.611785
2468 3 7.259076 25.767002 40.150629
2469 3 6.886201 26.715335 42.064786
2470 2 15.053195 37.719557 46.397972
2471 3 17.755145 35.319740 47.083228
2472 3 18.229134 35.418220 47.899371
2473 2 8.695146 49.243247 36.876608
2474 3 9.383492 49.127960 36.116194
2475 3 5.824418 47.162849 36.412288
2476 2 38.953476 42.967521 22.145135
2477 3 39.228100 39.851796 20.638537
2478 3 38.171123 42.663070 20.798616
2479 2 17.695565 45.189804 34.054247
2480 3 19.591163 42.251023 31.191748
2481 3 17.878269 44.050326 32.975851
2482 2 20.980858 30.850163 19.666413
2483 3 21.395346 29.007313 17.984165
2484 3 20.767565 31.765723 20.082922
2485 2 12.022416 53.151003 17.893459
2486 3 10.679090 55.353039 17.750322
2487 3 11.445308 53.316353 17.395415
2488 2 30.904673 53.991271 41.229670
2489 3 31.724789 53.296926 40.648904
2490 3 29.764725 54.089263 41.025541
2491 2 8.446342 25.891097 30.314145
2492 3 7.692904 24.602475 27.566120
2493 3 8.259282 25.915615 30.178754
2494 2 16.514579 37.787286 32.750318
2495 3 16.554868 38.621392 34.375859
2496 3 16.827050 40.218518 36.156776
2497 2 19.534389 46.488554 59.448442
2498 3 19.972463 44.444273 58.541097
2499 3 19.090860 45.239953 57.536961
2500 2 -1.961608 35.817189 49.512323
2501 3 -2.451929 35.986573 47.224900
2502 3 -3.137369 36.498657 50.399563
2503 2 17.236535 62.347557 45.483189
2504 3 17.107333 60.095153 47.886104
2505 3 15.541127 63.316401 43.584601
2506 2 14.608398 39.099414 30.998990
2507 3 12.805276 40.188488 30.354562
2508 3 13.189217 36.141856 32.293145
2509 2 9.167839 61.367295 30.540077
2510 3 9.404011 57.164850 29.587813
2511 3 10.119913 58.208168 32.906010
2512 2 12.743258 46.902488 33.833817
2513 3 13.494063 46.542576 32.293322
2514 3 12.793911 47.706941 33.309853
2515 2 10.527373 40.845410 -5.207304
2516 3 10.433102 39.370472 -1.460901
2517 3 11.063068 38.306097 -1.712730
2518 2 -0.286849 42.054880 46.939231
2519 3 -1.059508 42.896260 47.974308
2520 3 -1.801501 42.882504 50.878911
2521 2 3.893373 47.659293 41.479107
2522 3 5.621687 49.298921 40.494749
2523 3 4.899536 49.013354 42.899899
2524 2 29.174483 43.666559 34.525262
2525 3 28.315138 46.030181 34.390776
2526 3 29.732378 42.695784 35.190779
2527 2 15.520172 64.013703 21.338007
2528 3 16.325277 64.718418 19.893581
2529 3 15.161700 64.253714 21.539711
2530 2 42.628617 47.917067 28.455070
2531 3 43.345569 46.286837 30.066479
2532 3 41.951423 45.532455 28.666638
2533 2 26.942979 47.980529 24.339938
2534 3 25.908627 47.790955 24.399151
2535 3 25.731612 46.601822 23.214603
2536 2 32.450990 51.485814 35.166073
2537 3 35.138605 50.802144 33.280102
2538 3 33.260176 49.787441 35.787390
2539 2 37.974643 37.754757 47.919462
2540 3 37.071883 39.500129 46.724300
2541 3 36.499327 39.018345 47.231351
2542 2 -3.733750 17.554158 39.455712
2543 3 -5.752856 16.336911 38.655914
2544 3 -3.172025 21.088672 40.765028
2545 2 -17.560895 20.250200 32.243199
2546 3 -18.439856 18.005656 33.865751
2547 3 -19.923564 18.525896 36.144631
2548 2 6.385181 -0.744947 38.357260
2549 3 5.354976 -0.915369 38.265168
2550 3 6.992897 -0.712547 37.003012
2551 2 -20.542529 36.574754 36.183495
2552 3 -21.320784 36.806260 35.447447
2553 3 -20.413546 32.348301 35.222325
2554 2 22.946196 29.545692 23.469642
2555 3 21.006203 32.291957 26.275087
2556 3 20.481757 30.572330 24.222556
2557 2 4.448338 9.424253 43.254412
2558 3 5.392515 8.256664 45.637376
2559 3 6.678500 8.406918 47.246299
2560 2 19.283763 5.897645 48.619149
2561 3 22.100920 6.601987 50.517112
2562 3 21.448011 4.666360 52.790027
2563 2 -2.540417 12.221303 36.152562
2564 3 -0.698226 13.680245 38.779116
2565 3 -2.767113 15.358345 37.312299
2566 2 20.878238 26.062088 37.958449
2567 3 23.170752 27.197383 34.584927
2568 3 23.571075 26.201377 38.849529
2569 2 -0.007030 7.157951 47.011750
2570 3 -0.038263 8.859501 48.117920
2571 3 -0.702181 7.839401 47.401778
2572 2 14.946386 18.282076 39.383469
2573 3 15.035767 15.869775 38.848285
2574 3 13.940406 14.969753 34.900840
2575 2 14.122480 24.874644 26.395317
2576 3 13.026186 26.810061 27.052164
2577 3 13.912139 25.904762 28.466891
2578 2 25.177166 10.855240 44.954782
2579 3 25.087064 11.194770 43.757750
2580 3 25.553514 10.556822 44.469364
2581 2 0.290090 31.180453 33.181371
2582 3 -2.450895 32.014034 37.427765
2583 3 -2.107850 30.725977 36.714304
2584 2 11.724212 7.716285 58.312801
2585 3 11.568641 5.862480 56.289104
2586 3 11.655631 8.290720 59.092951
2587 2 -8.472730 12.891967 43.622891
2588 3 -8.127802 13.709276 44.195028
2589 3 -10.420144 12.628906 43.783192
2590 2 9.034710 18.632572 36.761130
2591 3 8.677210 17.485907 35.747501
2592 3 8.763678 18.572714 36.834753
2593 2 9.245366 17.047379 44.487679
2594 3 9.640855 17.614486 39.269065
2595 3 8.469141 17.982884 41.033874
2596 2 1.339199 20.326176 45.106391
2597 3 2.701750 21.688425 41.876728
2598 3 4.433643 22.174079 41.921169
2599 2 -14.069380 28.040144 50.208680
2600 3 -13.766339 27.864093 51.858739
2601 3 -12.096136 31.405635 49.822686
2602 2 36.189836 5.570540 43.759321
2603 3 34.924945 8.077509 41.613768
2604 3 34.944342 7.309406 40.944549
2605 2 19.995147 12.097060 59.606039
2606 3 21.240513 12.838479 63.568431
2607 3 18.624633 11.350691 58.784849
2608 2 9.587003 31.471984 50.679123
2609 3 7.374507 29.786472 51.875901
2610 3 10.935844 34.961065 49.202934
2611 2 15.660176 23.194270 47.362970
2612 3 17.603793 20.396272 47.885006
2613 3 14.907362 20.669946 49.255985
2614 2 39.933328 50.469934 39.314729
2615 3 36.045036 50.435314 40.954848
2616 3 38.360470 50.498328 41.222746
2617 2 28.445744 11.366282 33.914700
2618 3 28.227462 10.722074 34.416815
2619 3 26.698335 7.640552 35.092064
2620 2 -4.775331 43.613479 42.466424
2621 3 -2.702285 45.843459 43.009219
2622 3 -3.730871 43.837710 43.865739
2623 2 6.477522 19.713262 33.178230
2624 3 5.989139 21.722485 31.353639
2625 3 7.669499 21.005772 30.844287
2626 2 -3.362913 5.204291 51.744518
2627 3 -2.507173 3.491591 48.633477
2628 3 -2.520096 4.715909 48.944711
2629 2 7.932826 30.779194 5.082139
2630 3 7.739154 27.378969 2.773197
2631 3 7.958099 29.725661 3.456552
2632 2 8.473369 50.998566 47.944462
2633 3 7.808757 51.942209 48.902441
2634 3 7.359455 52.849353 49.129881
2635 2 25.819620 19.880339 50.890123
2636 3 26.643134 21.436690 50.562125
2637 3 26.239334 21.749303 52.540461
2638 2 9.392510 32.249916 52.679767
2639 3 9.442319 36.398797 54.113814
2640 3 10.231258 34.924331 54.199499
2641 2 26.249397 13.008836 37.112664
2642 3 25.796861 9.937669 37.525015
2643 3 26.917889 8.415191 36.390876
2644 2 3.190494 14.893653 46.718730
2645 3 4.145089 13.853369 45.504288
2646 3 5.009401 14.358189 45.606091
2647 2 59.147314 18.588204 21.535337
2648 3 61.387933 19.418060 23.007637
2649 3 61.185407 19.956745 22.559967
2650 2 0.199505 28.745572 44.849792
2651 3 -0.581378 28.980773 46.160252
2652 3 -0.585877 28.281702 44.538463
2653 2 39.328412 6.528259 21.888989
2654 3 39.252278 8.806858 22.214646
2655 3 40.164054 9.531745 26.471803
2656 2 13.839932 21.681699 38.417022
2657 3 16.761311 24.263885 38.436221
2658 3 14.614516 23.630580 39.400708
2659 2 29.774243 5.239325 29.849014
2660 3 26.952795 5.402278 30.342877
2661 3 26.940121 5.767902 28.858556
2662 2 15.453471 27.858870 25.997490
2663 3 15.067093 28.345858 26.759659
2664 3 16.712659 27.387244 27.228481
2665 2 1.826900 16.867909 51.228537
2666 3 -0.692390 16.271522 53.115640
2667 3 -0.184219 15.900129 50.564461
2668 2 27.972343 32.033725 34.616852
2669 3 28.341650 30.260984 32.247232
2670 3 27.364593 31.936600 34.731563
2671 2 41.305230 9.320385 42.968256
2672 3 41.092086 9.534499 43.841479
2673 3 43.005490 10.021924 41.945424
2674 2 11.883923 10.064266 36.080452
2675 3 10.652062 7.196567 33.255881
2676 3 12.594072 8.357070 36.482894
2677 2 37.691761 16.171500 8.711254
2678 3 36.495022 14.810103 8.521587
2679 3 37.920785 17.425584 11.222528
2680 2 38.939807 32.626158 37.506014
2681 3 35.386743 34.613846 36.999481
2682 3 36.830289 33.841970 34.065055
2683 2 42.272997 7.457791 25.072128
2684 3 42.065974 8.458733 26.370763
2685 3 41.196554 9.349415 24.867524
2686 2 15.327468 30.350424 57.459185
2687 3 17.091567 29.688939 54.237807
2688 3 17.759894 32.153387 55.751893
2689 2 28.591497 40.592131 30.939665
2690 3 29.125021 39.650993 33.870114
2691 3 27.334434 39.925809 34.629924
2692 2 34.091003 16.720037 39.144524
2693 3 35.294619 18.561744 36.597162
2694 3 34.502693 18.037509 35.890468
2695 2 0.644897 28.691702 48.621527
2696 3 0.460163 28.656864 51.260186
2697 3 -0.955101 27.514152 48.562343
2698 2 44.508772 30.997745 16.877815
2699 3 43.073065 32.476175 17.951034
2700 3 43.748170 30.209350 19.170335
2701 2 -3.414275 36.434900 45.600521
2702 3 -2.449436 37.655741 43.270009
2703 3 -4.473845 38.029709 44.728516
2704 2 33.454447 30.134624 49.338284
2705 3 32.742359 28.622503 48.498304
2706 3 32.757752 29.210294 45.973774
2707 2 -1.528043 30.287606 41.777428
2708 3 -3.556831 29.863810 45.942235
2709 3 -3.240502 30.196551 43.557265
2710 2 5.931685 13.212304 42.036229
2711 3 5.462901 12.204051 45.032349
2712 3 4.390219 9.153401 45.642723
2713 2 12.596468 40.723808 21.505628
2714 3 11.185437 41.661650 20.890896
2715 3 11.110157 39.883315 19.482803
2716 2 22.028074 43.124290 35.275939
2717 3 21.034719 42.375179 37.115943
2718 3 21.204718 43.613724 37.882336
2719 2 1.947392 31.934211 32.332160
2720 3 2.672980 27.226130 32.101632
2721 3 2.498096 28.750083 32.170383
2722 2 4.924082 59.038333 31.128418
2723 3 5.130304 60.387691 31.456543
2724 3 5.348550 59.873474 29.773271
2725 2 0.438164 34.834385 2.342591
2726 3 1.352684 35.054552 2.823836
2727 3 -0.303305 35.097326 2.306505
2728 2 -1.868698 34.898491 1.776691
2729 3 -3.443467 37.196201 2.605791
2730 3 -3.023029 35.937716 2.046683
2731 2 20.124827 52.746135 38.934430
2732 3 19.993794 52.535035 39.129244
2733 3 19.099350 53.816638 37.253889
2734 2 9.830089 28.469893 36.056784
2735 3 8.097767 28.971765 34.282726
2736 3 6.615734 30.009020 36.400537
2737 2 18.347512 35.288804 50.404273
2738 3 19.374604 35.881182 48.506596
2739 3 15.415071 37.659527 45.122538
2740 2 13.536320 19.987323 42.581967
2741 3 16.119498 18.692100 42.025440
2742 3 14.098965 18.221611 41.786483
2743 2 29.930686 8.481110 3.595184
2744 3 28.450173 5.424879 1.750662
2745 3 29.448313 7.187143 4.493513
2746 2 38.991321 18.972686 35.740113
2747 3 38.376254 17.226217 34.946136
2748 3 39.518949 16.822406 34.506652
2749 2 -18.079293 38.317270 63.503578
2750 3 -19.171124 36.440316 61.002557
2751 3 -17.623270 38.077413 62.513407
2752 2 13.267733 29.494559 55.327001
2753 3 12.926332 26.720432 57.594402
2754 3 12.291152 26.415419 56.551845
2755 2 12.306975 50.353975 21.578538
2756 3 8.995531 49.679922 20.896375
2757 3 12.373624 50.606737 20.332529
2758 2 -4.975730 52.758766 32.434031
2759 3 -5.843116 54.808429 30.825164
2760 3 -5.745240 54.371853 29.300809
2761 2 26.387615 45.713126 27.339514
2762 3 26.692813 42.055475 25.861278
2763 3 25.838564 44.161036 27.618927
2764 2 15.556582 52.355894 54.924371
2765 3 14.021432 50.921669 55.706221
2766 3 14.494822 50.566837 56.362971
2767 2 17.519941 39.699603 34.375433
2768 3 19.906840 40.422917 35.004257
2769 3 16.911201 41.864671 33.939079
2770 2 11.249548 26.858440 33.145001
2771 3 9.782706 27.612701 32.464693
2772 3 11.754087 28.613668 34.676365
2773 2 6.127335 55.648283 50.805143
2774 3 7.065182 56.942468 48.913219
2775 3 5.973149 53.676980 52.745824
2776 2 34.359025 42.801903 42.253261
2777 3 35.193228 42.611535 38.453127
2778 3 34.002810 43.411400 40.031872
2779 2 25.344402 46.460354 40.137568
2780 3 27.096773 46.865730 39.323644
2781 3 26.423362 47.333271 42.425646
2782 2 13.390504 19.336347 33.916866
2783 3 14.000490 18.397206 34.562253
2784 3 15.172045 19.200897 36.325501
2785 2 14.253603 26.659197 40.864298
2786 3 12.490826 26.063435 41.648847
2787 3 13.815689 25.582384 43.235910
2788 2 0.597659 51.896934 47.262180
2789 3 -0.324841 53.124019 48.257590
2790 3 -0.231215 52.988263 49.232219
2791 2 20.249330 10.188297 36.184456
2792 3 20.278002 11.890178 35.664075
2793 3 20.171700 11.023360 36.595797
2794 2 0.167377 41.768011 43.833291
2795 3 1.640205 41.077482 44.206074
2796 3 3.177044 41.646335 42.425962
2797 2 -1.575569 24.604232 42.939746
2798 3 -1.783596 25.903383 41.211820
2799 3 -2.378829 26.370124 43.229613
2800 2 6.147714 12.600176 12.317265
2801 3 4.732697 12.143410 13.278793
2802 3 5.952349 13.924220 16.817049
2803 2 6.917908 50.289807 33.049044
2804 3 8.803904 50.021077 34.823408
2805 3 6.148440 51.157888 31.439953
2806 2 21.881667 57.504985 34.330803
2807 3 21.193827 56.078454 32.700641
2808 3 20.725711 56.537970 37.439680
2809 2 28.476519 34.929558 40.094940
2810 3 29.960438 34.679399 39.775481
2811 3 28.118354 34.977452 40.354936
2812 2 30.322047 34.730052 42.499543
2813 3 29.226856 32.756140 43.575961
2814 3 29.627585 33.980862 44.897437
2815 2 21.152762 54.080520 26.515803
2816 3 23.545999 52.792117 28.666454
2817 3 20.874363 52.274335 25.914051
2818 2 14.351120 50.810305 60.972891
2819 3 17.487058 50.132825 60.439687
2820 3 16.538320 50.347519 61.161782
2821 2 12.998099 25.312405 48.033826
2822 3 14.308685 26.321024 47.776309
2823 3 14.219766 23.976305 46.191341
2824 2 34.718822 36.064497 36.176465
2825 3 36.473222 33.769784 34.587644
2826 3 35.583583 32.575425 34.916419
2827 2 -5.313664 47.875728 62.937114
2828 3 -7.819276 48.846056 61.546717
2829 3 -5.024810 50.583497 62.409353
2830 2 -6.175663 41.077796 59.681248
2831 3 -5.042942 40.471895 57.796275
2832 3 -8.185237 43.016108 59.502474
2833 2 -7.614251 65.425284 45.792638
2834 3 -7.706800 65.478480 47.249289
2835 3 -10.087038 65.285979 45.044446
2836 2 9.567173 44.750149 49.048514
2837 3 11.349932 47.228138 48.007924
2838 3 9.889362 43.903943 48.845501
2839 2 9.743259 75.572722 41.987268
2840 3 7.136499 76.036213 41.654484
2841 3 8.007465 75.172260 42.480238
2842 2 -7.688676 38.482143 47.926926
2843 3 -9.009683 35.455767 48.038487
2844 3 -9.755123 36.182676 48.562276
2845 2 23.123367 49.840102 40.791259
2846 3 23.162792 51.876762 38.880364
2847 3 23.655310 51.194578 40.693818
2848 2 16.780347 41.043586 36.096737
2849 3 15.186621 36.787168 35.305593
2850 3 17.358490 38.242670 33.217641
2851 2 15.299345 62.445385 43.579838
2852 3 15.998520 61.493023 41.124306
2853 3 15.218487 60.231919 41.224575
2854 2 16.465835 45.723928 34.444679
2855 3 16.697420 45.750773 32.710453
2856 3 17.658094 47.202497 32.964212
2857 2 35.590291 41.047672 34.318191
2858 3 36.579166 40.851657 35.407258
2859 3 35.577635 43.344101 36.269728
2860 2 20.523009 46.516642 21.155454
2861 3 18.419913 49.536201 20.170461
2862 3 19.486508 49.780038 21.528000
2863 2 42.037731 45.924347 23.837873
2864 3 42.042540 43.616162 23.670175
2865 3 40.251295 44.678957 21.395990
2866 2 1.535129 18.415637 49.998563
2867 3 4.457592 17.551316 50.133005
2868 3 4.053558 17.401212 49.811622
2869 2 45.292846 7.513917 29.313956
2870 3 45.732511 5.531733 32.547715
2871 3 46.052662 5.558160 30.380864
2872 2 26.091762 10.074997 64.002531
2873 3 26.075722 9.122152 61.426098
2874 3 25.114426 12.098118 62.696887
2875 2 29.491017 30.434775 47.525548
2876 3 31.548887 29.248115 46.019760
2877 3 29.377802 32.526952 46.428957
2878 2 15.970861 36.799246 21.359290
2879 3 17.613730 38.340874 25.821119
2880 3 16.546855 39.158010 22.724643
2881 2 -6.726601 2.093772 48.081067
2882 3 -7.271997 1.952526 46.976990
2883 3 -8.583681 0.948907 49.427706
2884 2 9.462896 29.023042 72.184620
2885 3 7.736903 31.422389 68.482890
2886 3 9.464713 30.569387 70.266512
2887 2 26.810059 31.910918 44.803670
2888 3 25.087732 31.799502 44.144184
2889 3 26.653690 30.377470 44.545934
2890 2 17.123007 -1.772860 70.056319
2891 3 16.962350 0.927503 70.682004
2892 3 15.911976 0.308103 72.918477
2893 2 19.095717 3.490293 37.824401
2894 3 18.414162 4.305123 35.629809
2895 3 18.498941 3.240941 36.905905
2896 2 31.740192 -5.310478 48.360421
2897 3 32.188465 -6.761579 44.356250
2898 3 30.987585 -6.326115 46.658079
2899 2 16.095417 22.464640 24.175520
2900 3 15.318428 22.472455 22.670610
2901 3 14.693275 21.913708 22.512586
2902 2 28.188152 14.566712 36.571451
2903 3 27.775730 12.180172 36.933136
2904 3 29.568980 13.102810 36.652546
2905 2 4.106588 26.551058 37.539196
2906 3 4.608141 27.431900 35.622017
2907 3 4.631317 26.429870 36.787750
2908 2 6.296013 31.664897 18.261366
2909 3 4.634540 31.504147 20.222239
2910 3 5.212658 29.534719 18.990647
2911 2 20.203440 18.169568 20.331347
2912 3 21.823412 16.301949 18.506407
2913 3 21.702943 17.296314 20.504287
2914 2 -6.299688 7.345114 45.667565
2915 3 -5.306976 7.443346 47.008305
2916 3 -5.489124 5.929808 46.717148
2917 2 22.488435 40.172846 34.138057
2918 3 22.268590 38.016867 31.672524
2919 3 23.276981 38.537494 34.111884
2920 2 14.029694 31.405325 46.239883
2921 3 15.730054 31.795036 48.752984
2922 3 15.543115 30.394067 47.912870
2923 2 17.672185 11.784796 28.458617
2924 3 16.858343 10.950898 28.117910
2925 3 14.734698 11.346842 30.458830
2926 2 1.446549 28.739400 39.605619
2927 3 1.400309 26.995287 39.271466
2928 3 1.664176 28.494316 37.836568
2929 2 29.438715 23.683538 25.944533
2930 3 27.866292 22.784028 27.398283
2931 3 27.100212 22.354049 25.065883
2932 2 25.564544 20.505929 54.382252
2933 3 24.137026 19.605412 56.113965
2934 3 25.270214 19.869124 54.000440
2935 2 59.420245 24.241498 35.789213
2936 3 58.261513 25.670347 37.484449
2937 3 58.109393 29.604366 34.392739
2938 2 36.147185 7.330405 46.490429
2939 3 36.573023 6.506623 45.841448
2940 3 35.731547 6.611506 48.381895
2941 2 50.061746 18.038414 50.610660
2942 3 48.338435 18.437866 52.066226
2943 3 49.750081 17.876254 49.283400
2944 2 23.996091 42.539281 52.319621
2945 3 22.230742 41.863680 50.551861
2946 3 21.169590 41.726260 49.853346
2947 2 -8.899195 14.214370 21.331633
2948 3 -7.392990 12.469603 19.647000
2949 3 -5.931331 13.459307 20.844635
2950 2 0.824921 18.986371 28.596340
2951 3 1.122493 17.870658 28.694625
2952 3 -0.691246 20.826663 29.751526
2953 2 1.998518 2.824057 65.336655
2954 3 3.191985 4.395451 61.762459
2955 3 0.878583 2.510282 64.636610
2956 2 37.056030 50.407095 33.321451
2957 3 38.268238 47.235799 30.896551
2958 3 37.138959 46.290750 34.029572
2959 2 42.329386 23.812715 14.617111
2960 3 42.802364 24.983137 18.790676
2961 3 41.609943 25.817139 18.784899
2962 2 -9.632090 30.909558 46.385603
2963 3 -8.768194 31.699398 46.489890
2964 3 -11.562329 32.124661 45.508613
2965 2 -2.852838 23.861011 42.645731
2966 3 -6.604219 21.781074 43.825108
2967 3 -4.383790 21.564140 41.830391
2968 2 8.433509 40.818029 45.482711
2969 3 6.748376 39.416266 43.448065
2970 3 5.254155 40.479530 44.735043
2971 2 9.391688 22.647100 42.262252
2972 3 6.825874 23.335565 41.783928
2973 3 7.809646 21.352013 41.614172
2974 2 28.251617 40.932481 5.529645
2975 3 29.028366 38.985289 7.309722
2976 3 28.090834 38.378946 6.960758
2977 2 25.766846 31.066819 42.560535
2978 3 26.212533 31.071829 41.635124
2979 3 24.310172 28.655026 39.514543
2980 2 34.008021 36.943287 20.435748
2981 3 33.217759 36.887400 19.262403
2982 3 33.217630 36.094803 20.673861
2983 2 9.457970 12.230987 41.698863
2984 3 9.474392 9.417003 42.289823
2985 3 10.119447 12.060700 43.109202
2986 2 3.015656 15.361937 52.424303
2987 3 2.654392 16.453407 51.434640
2988 3 3.820530 14.128429 51.363799
2989 2 -1.971420 38.070008 52.544864
2990 3 -0.770905 40.118742 50.804138
2991 3 -1.642860 37.639347 54.035343
2992 2 25.569493 40.465086 52.556260
2993 3 23.482212 40.935546 51.235479
2994 3 25.967384 41.475931 52.310400
2995 2 28.398629 34.662260 27.777634
2996 3 29.483420 34.808572 29.600472
2997 3 27.677907 33.272155 29.034329
2998 2 21.792976 36.181207 17.418246
2999 3 21.230766 38.064198 17.508224
3000 3 21.951707 36.418217 16.141686
3001 2 18.016825 20.264737 21.811247
3002 3 15.643767 23.244687 24.844703
3003 3 14.393966 22.951995 24.140688
3004 2 7.518016 11.495485 30.176767
3005 3 7.437490 9.856163 32.854506
3006 3 6.916017 11.035083 34.281682
3007 2 53.299561 18.171628 49.674770
3008 3 50.449042 17.585077 48.985667
3009 3 51.458954 19.514247 49.853503
3010 2 2.414141 40.865780 46.247065
3011 3 1.555393 40.396068 47.090260
3012 3 1.942348 39.614007 48.283900
3013 2 26.099393 23.557453 57.077587
3014 3 26.867815 26.528866 59.261360
3015 3 26.486392 27.136548 60.151762
3016 2 -1.661241 20.069103 40.142783
3017 3 1.465085 17.216692 39.427437
3018 3 0.337761 17.310174 40.206476
3019 2 45.652573 20.994457 30.021899
3020 3 46.851096 20.186170 31.506155
3021 3 46.124080 18.949014 29.935917
3022 2 20.036858 35.337624 39.323895
3023 3 19.438529 35.302250 38.118708
3024 3 19.926692 36.886655 38.148606
3025 2 19.746180 29.944654 25.054570
3026 3 19.827226 29.122331 25.359393
3027 3 18.946513 29.590054 24.337166
3028 2 -3.965649 30.211554 52.372100
3029 3 -5.498723 31.320979 52.266515
3030 3 -3.715554 30.180587 49.541498
3031 2 28.442817 4.171159 46.392202
3032 3 27.165005 3.601338 49.273380
3033 3 27.728133 5.819241 48.994935
3034 2 -6.018995 31.441453 41.860998
3035 3 -8.355102 31.067887 45.064019
3036 3 -7.869889 29.103436 44.458581
3037 2 0.515995 55.266375 40.620364
3038 3 0.997716 58.847109 39.136171
3039 3 0.813061 54.032752 38.170063
3040 2 3.124060 47.275729 23.170970
3041 3 3.966834 48.855899 24.380172
3042 3 5.390383 45.712386 21.228137
3043 2 26.497493 49.501302 28.734272
3044 3 27.427374 50.297400 26.889030
3045 3 27.204918 50.238145 26.041645
3046 2 27.913099 36.174749 63.364138
3047 3 27.943295 35.409342 63.619994
3048 3 28.891997 34.672076 64.198013
3049 2 37.051736 40.899506 41.381627
3050 3 37.510841 41.282767 39.704328
3051 3 36.349345 38.998771 41.437393
3052 2 -9.754799 18.835865 44.403207
3053 3 -9.034694 18.518693 46.788196
3054 3 -8.148906 18.811193 45.521631
3055 2 7.650256 25.514683 37.765348
3056 3 6.362870 26.438669 35.512857
3057 3 6.983664 25.176170 38.048510
3058 2 -13.385755 35.610023 40.293443
3059 3 -12.299538 35.404715 36.130197
3060 3 -14.380195 36.173990 39.138361
3061 2 9.135983 39.884020 42.610588
3062 3 8.324485 39.411326 44.174318
3063 3 8.969708 39.177342 44.768722
3064 2 9.692653 27.865979 25.959966
3065 3 9.027203 29.201770 25.359321
3066 3 10.145968 24.523239 25.749006
3067 2 39.023575 44.569526 47.304236
3068 3 38.570149 42.513173 48.191674
3069 3 39.596246 44.700910 47.401725
3070 2 59.143712 23.225566 28.593982
3071 3 55.946145 22.804291 30.443642
3072 3 55.823390 24.220901 30.499794
3073 2 19.586175 24.675275 35.573218
3074 3 22.936347 22.009895 34.448947
3075 3 20.619840 24.671708 34.913004
3076 2 13.031600 32.224936 26.458615
3077 3 13.966959 31.848601 26.171919
3078 3 11.818166 31.359482 25.342822
3079 2 41.218455 30.192691 36.370985
3080 3 40.966326 28.025046 35.860246
3081 3 38.200429 28.466059 37.615117
3082 2 5.412325 38.297149 46.008763
3083 3 6.562072 36.127254 43.348795
3084 3 4.914742 37.432198 46.019876
3085 2 15.183710 17.979504 38.563370
3086 3 16.931641 18.036811 34.574198
3087 3 17.410225 16.394283 37.090097
3088 2 35.970482 44.293184 35.367154
3089 3 36.996664 46.264988 33.561295
3090 3 37.076785 45.882424 32.987861
3091 2 26.473089 62.284353 45.561018
3092 3 27.020342 62.475273 43.904792
3093 3 27.091973 58.427098 42.192898
3094 2 23.181044 54.450619 41.840507
3095 3 23.648720 55.196739 36.640627
3096 3 25.464001 55.065188 38.011159
3097 2 8.451543 27.276022 52.058633
3098 3 8.958659 25.813266 52.103863
3099 3 10.226953 27.115656 52.753078
3100 2 17.528397 39.218962 19.294122
3101 3 18.662725 40.083751 17.963323
3102 3 18.349125 39.936161 20.552460
3103 2 -18.125479 33.044421 36.199497
3104 3 -18.748948 33.477787 34.545020
3105 3 -18.888647 32.668545 35.215492
3106 2 3.963238 42.846274 41.626324
3107 3 4.995259 44.721423 36.011535
3108 3 5.844658 44.973633 37.990266
3109 2 -3.085068 36.746631 41.607298
3110 3 -5.247815 37.317324 40.630725
3111 3 -2.539581 38.485332 41.977189
3112 2 18.957326 63.963362 38.420014
3113 3 19.378057 64.337205 35.227386
3114 3 19.743143 64.336802 35.836117
3115 2 35.132556 43.986656 45.520002
3116 3 34.283592 44.284472 47.150936
3117 3 36.589103 45.005779 45.758463
3118 2 7.151694 29.962953 13.069548
3119 3 7.704599 29.992214 15.058331
3120 3 6.372622 32.116327 16.112346
3121 2 33.937166 38.468469 21.413391
3122 3 34.264221 35.930984 20.111740
3123 3 35.874725 37.240356 19.561771
3124 2 40.872218 19.625052 38.039276
3125 3 40.774121 19.077293 36.019896
3126 3 40.501327 21.128667 38.112189
3127 2 4.113848 30.923346 39.404262
3128 3 5.708228 34.381820 37.810459
3129 3 3.568590 34.214490 40.465317
3130 2 7.318072 38.020902 56.170305
3131 3 7.064726 36.056210 54.052575
3132 3 7.994950 37.112545 55.246106
3133 2 13.997189 41.751484 38.235894
3134 3 12.511979 42.767993 33.823332
3135 3 14.289028 43.065868 36.733110
3136 2 29.536856 36.985563 28.183900
3137 3 28.493299 36.361375 26.653101
3138 3 30.684262 37.599707 25.688415
3139 2 8.602571 44.606461 48.511543
3140 3 6.858755 48.168137 49.766738
3141 3 8.755153 45.811752 48.913784
3142 2 18.676169 50.895776 6.548709
3143 3 18.846471 50.214173 3.185228
3144 3 19.279510 49.308048 3.695239
3145 2 23.295760 39.021393 41.757156
3146 3 21.952008 36.757614 44.168215
3147 3 22.359688 36.613187 44.777604
3148 2 32.853168 17.984790 25.267307
3149 3 29.881833 19.704943 24.731566
3150 3 31.322153 16.384245 26.085582
3151 2 26.262821 44.263095 30.611341
3152 3 23.689578 43.809785 33.681138
3153 3 24.186590 43.307316 32.535448
3154 2 18.568386 26.465263 36.564030
3155 3 17.374143 26.536596 37.308750
3156 3 17.157002 28.019258 37.384153
3157 2 14.598227 32.638075 51.733528
3158 3 13.054850 31.989740 48.939139
3159 3 12.856958 31.460793 46.644863
3160 2 27.993485 46.149204 49.269095
3161 3 26.199329 45.971412 53.004010
3162 3 27.624020 45.389736 51.548833
3163 2 26.503660 56.860008 36.272683
3164 3 26.890049 52.807230 35.977408
3165 3 26.259380 56.203582 35.419473
3166 2 37.045789 49.231714 34.780891
3167 3 36.312085 51.283325 35.411040
3168 3 36.466969 52.151397 32.654720
3169 2 8.047239 13.616215 39.802881
3170 3 8.489794 15.587557 38.875207
3171 3 8.546778 13.443661 39.693622
3172 2 5.849681 36.214793 19.378941
3173 3 7.953320 36.328067 18.568979
3174 3 6.695386 35.927344 19.969475
3175 2 37.691595 23.739807 38.037769
3176 3 36.710114 25.422627 38.992388
3177 3 37.440193 24.883348 39.005032
3178 2 27.601809 11.996305 33.434451
3179 3 30.340394 10.966523 32.628809
3180 3 26.752990 11.850512 34.401231
3181 2 3.105638 13.322882 64.051183
3182 3 0.690104 13.184208 63.752519
3183 3 1.677527 13.492143 63.934804
3184 2 13.730122 8.261787 24.783616
3185 3 13.393907 7.428923 23.644510
3186 3 12.605282 6.171783 24.876271
3187 2 25.915304 35.079165 52.567177
3188 3 28.860841 35.081769 53.160985
3189 3 28.084355 36.816233 50.630661
3190 2 43.605100 26.010814 9.834714
3191 3 44.217475 25.819928 10.289022
3192 3 42.878196 28.354673 10.761171
3193 2 28.624124 8.218524 26.785335
3194 3 28.254203 9.340457 26.191030
3195 3 26.253854 8.302285 29.251880
3196 2 3.015257 -4.264770 55.782512
3197 3 4.085611 -5.921976 53.443883
3198 3 2.584227 -6.768161 54.646063
3199 2 40.561865 20.073561 54.040369
3200 3 40.038398 20.851736 53.392049
3201 3 41.061920 19.714362 51.423234
3202 2 12.791928 31.121911 42.839933
3203 3 11.405419 31.794643 46.676293
3204 3 12.130316 30.196409 47.404355
3205 2 12.025941 29.922568 49.060122
3206 3 12.549112 28.605462 48.042881
3207 3 11.524359 28.487572 47.010821
3208 2 5.715885 21.895008 56.959197
3209 3 5.790042 20.710528 55.244946
3210 3 3.619994 21.215482 54.174735
3211 2 1.829237 21.219093 60.494364
3212 3 1.625325 18.748523 59.365493
3213 3 0.770593 21.431803 57.899303
3214 2 32.033382 18.800559 63.875407
3215 3 33.132148 16.594178 62.284634
3216 3 32.756542 17.984766 61.943535
3217 2 28.246409 26.131815 36.075686
3218 3 28.978265 27.911882 36.048445
3219 3 27.671735 29.544159 35.209571
3220 2 11.826343 22.678222 49.448575
3221 3 13.624131 22.642837 49.429514
3222 3 12.297599 23.941835 48.985474
3223 2 33.935315 22.023031 42.304405
3224 3 35.107276 22.865032 42.733299
3225 3 34.006035 21.146950 42.504564
3226 2 7.527679 10.853154 55.233435
3227 3 5.813629 10.555943 54.311743
3228 3 6.538701 10.469541 56.489406
3229 2 20.410409 18.413110 27.245983
3230 3 22.179092 20.407861 31.921138
3231 3 22.936058 20.933415 26.826391
3232 2 11.958526 30.330441 74.784703
3233 3 12.800134 28.797058 74.122323
3234 3 11.476533 30.941219 76.821422
3235 2 2.760738 15.156723 26.785405
3236 3 3.162286 15.970436 23.392461
3237 3 3.855595 12.956806 25.726980
3238 2 36.203276 21.762197 46.912014
3239 3 33.155226 21.877224 50.091541
3240 3 34.657564 22.868939 47.803551
3241 2 52.203694 23.522788 26.793571
3242 3 49.347669 26.582554 29.747737
3243 3 53.051555 25.265552 31.246944
3244 2 29.644381 27.311518 20.796616
3245 3 30.294046 25.916586 20.523346
3246 3 30.721053 26.389130 20.438253
3247 2 8.348374 22.340521 38.304553
3248 3 7.732947 22.247177 40.229183
3249 3 7.931166 22.665566 40.721484
3250 2 0.543463 25.815184 64.947914
3251 3 3.192914 27.183886 63.493715
3252 3 2.161706 28.073942 66.176706
3253 2 38.946563 10.779392 63.346175
3254 3 39.757347 12.702276 63.544849
3255 3 37.370857 12.045625 64.281844
3256 2 -15.163078 25.740734 -3.649353
3257 3 -14.001577 25.162262 -4.348531
3258 3 -12.815730 25.316917 -2.699152
3259 2 16.024722 -3.863950 52.679414
3260 3 14.537097 -4.055621 53.777266
3261 3 13.377604 -5.087156 55.252387
3262 2 21.488955 40.284286 46.202693
3263 3 20.424474 43.648270 45.139742
3264 3 21.079037 40.942791 43.506334
3265 2 6.889145 28.169626 43.401060
3266 3 7.804873 26.077770 45.483881
3267 3 5.800628 27.202092 43.270880
3268 2 12.196538 26.861231 32.491508
3269 3 15.326973 26.744833 33.033162
3270 3 12.278323 27.971041 33.067898
3271 2 -0.008882 29.867066 45.698221
3272 3 -1.785420 28.511418 47.325886
3273 3 -0.626497 29.362478 45.982013
3274 2 29.753029 35.938231 21.313663
3275 3 29.954524 35.927888 22.292070
3276 3 31.484486 34.094416 21.189260
3277 2 13.126392 18.820459 42.237494
3278 3 12.274401 17.067983 40.404110
3279 3 13.495768 16.740061 40.358603
3280 2 55.568251 49.073582 33.051691
3281 3 53.728793 46.745544 33.357844
3282 3 54.148048 47.252645 34.234157
3283 2 26.509000 24.542011 41.487175
3284 3 25.785344 22.927203 38.881922
3285 3 25.575005 22.096497 42.945858
3286 2 3.652384 22.229948 32.690449
3287 3 2.924462 22.441991 33.334308
3288 3 5.071940 21.588426 31.474851
3289 2 3.164780 16.086935 39.007636
3290 3 3.204940 16.271662 37.664859
3291 3 3.255530 17.717675 37.899704
3292 2 32.755037 18.731506 15.316869
3293 3 34.247721 18.405773 11.703113
3294 3 32.039742 18.314435 13.105938
3295 2 0.214734 28.847131 46.758194
3296 3 -0.775426 27.170429 46.511404
3297 3 -1.567336 28.425129 48.582347
3298 2 30.329516 43.569208 36.149905
3299 3 30.388965 42.387609 32.443759
3300 3 27.974193 41.322083 32.850713
3301 2 24.289912 4.956725 43.577788
3302 3 22.061361 7.343941 40.561266
3303 3 23.838436 5.260427 42.357128
3304 2 12.975713 32.028174 38.034560
3305 3 16.261285 29.649036 38.963320
3306 3 15.720160 31.402048 39.257782
3307 2 30.571828 24.251492 47.799341
3308 3 31.844666 26.766601 47.643328
3309 3 32.438894 25.891247 49.420233
3310 2 32.333065 24.854656 33.479647
3311 3 28.748456 25.251417 36.330221
3312 3 30.251702 23.218891 36.907284
3313 2 5.731370 17.246861 51.112630
3314 3 3.725381 16.944745 51.324686
3315 3 6.771499 16.044434 50.319328
3316 2 36.321854 21.674113 39.823605
3317 3 36.825653 21.354817 41.934745
3318 3 36.221472 19.626359 40.650752
3319 2 17.827658 6.476607 46.918664
3320 3 17.815227 6.460930 46.994920
3321 3 16.095838 6.225499 45.597597
3322 2 43.596281 25.690622 50.877285
3323 3 43.284300 28.722911 49.126168
3324 3 43.877511 28.035519 48.006381
3325 2 21.471540 32.721036 35.780744
3326 3 20.934263 31.061411 35.248625
3327 3 21.942891 30.721971 32.771443
3328 2 43.562046 18.741113 27.519833
3329 3 42.037631 21.858746 32.921794
3330 3 42.607427 21.607076 29.965470
3331 2 1.532214 22.754029 50.260921
3332 3 3.240805 20.911438 48.173012
3333 3 2.435033 23.649314 49.634651
3334 2 24.723146 29.976920 29.599781
3335 3 24.623948 32.087210 28.854934
3336 3 26.960058 31.180550 27.942562
3337 2 15.628547 36.235258 24.542509
3338 3 17.355759 38.270967 25.404599
3339 3 16.133498 39.372907 21.251308
3340 2 2.472647 37.727055 37.414204
3341 3 4.975679 40.860661 40.923454
3342 3 2.581267 40.621563 40.612956
3343 2 33.630694 35.651033 32.274854
3344 3 33.230345 36.832341 27.525401
3345 3 31.592696 37.336970 28.074220
3346 2 -3.438169 41.261237 54.518737
3347 3 -5.731446 41.351011 51.986342
3348 3 -4.228519 41.484406 50.878706
3349 2 14.721818 18.367690 51.238406
3350 3 12.404428 19.472364 48.790367
3351 3 12.888079 16.751489 49.800608
3352 2 -7.820318 16.221217 18.035913
3353 3 -7.963872 19.626000 17.124113
3354 3 -7.731549 17.454252 19.447179
3355 2 34.081874 22.133204 23.285593
3356 3 32.169903 22.147121 25.181538
3357 3 32.857668 20.437351 25.319447
3358 2 23.781733 60.985979 26.702671
3359 3 24.250095 61.765320 29.411259
3360 3 24.111632 60.504513 30.643093
3361 2 41.801379 33.972518 47.559746
3362 3 43.913385 33.292945 46.257220
3363 3 44.901199 34.551144 47.598384
3364 2 31.652436 34.725364 46.941521
3365 3 30.624482 37.745518 48.984837
3366 3 30.042929 36.260455 48.084727
3367 2 27.989995 40.371790 36.343061
3368 3 29.754145 40.274014 38.384974
3369 3 28.379293 39.570776 37.278517
3370 2 6.875070 31.144211 11.111935
3371 3 8.766039 30.333017 6.772780
3372 3 7.312588 30.687116 6.866069
3373 2 5.208325 24.043451 58.280831
3374 3 4.369314 25.699525 55.040079
3375 3 4.766029 25.695795 60.551477
3376 2 15.077248 46.451843 50.428495
3377 3 17.015323 45.904909 51.413409
3378 3 16.805302 45.011433 47.641069
3379 2 8.222254 44.956857 30.810741
3380 3 8.759529 45.497405 30.421485
3381 3 9.159451 43.345646 30.052708
3382 2 35.135337 35.389479 28.684146
3383 3 35.994263 37.045167 29.880788
3384 3 34.418600 34.635373 27.664238
3385 2 34.632082 41.431305 33.366343
3386 3 36.303212 39.608370 33.224955
3387 3 34.614098 42.784256 37.233354
3388 2 11.375391 52.033374 63.700019
3389 3 11.887442 50.696522 62.895995
3390 3 10.859373 51.264518 64.862150
3391 2 13.195512 50.688619 30.403623
3392 3 12.717640 49.978045 29.478959
3393 3 11.518471 47.946776 26.981360
3394 2 31.383599 50.741488 34.787680
3395 3 28.781982 49.708327 35.233569
3396 3 28.716299 50.433423 34.389393
3397 2 8.549059 38.090842 49.042363
3398 3 8.193268 39.818444 51.692597
3399 3 5.739095 38.028780 49.289669
3400 2 5.679825 37.227250 22.034451
3401 3 4.872529 35.845506 22.343904
3402 3 4.204880 37.234069 21.784838
3403 2 30.891163 49.031166 54.904182
3404 3 29.227659 47.185068 56.705448
3405 3 30.026576 47.722684 52.765268
3406 2 25.291169 29.941132 39.504651
3407 3 27.369629 27.470821 38.133315
3408 3 27.530612 27.769361 37.178771
3409 2 27.137017 40.157872 31.830158
3410 3 26.924954 39.118000 28.809796
3411 3 27.952622 40.723830 32.574009
3412 2 -0.789264 20.209496 67.883966
3413 3 -2.039079 21.222131 65.311542
3414 3 -2.438074 21.055320 63.855978
3415 2 23.269321 45.307593 33.687947
3416 3 24.361844 45.096337 34.395114
3417 3 23.536258 43.895026 37.410070
3418 2 11.173761 37.184302 38.997902
3419 3 11.684554 36.719805 40.795842
3420 3 10.972579 37.427291 39.145207
3421 2 -1.379644 52.383068 61.897526
3422 3 -0.542719 50.700021 62.596048
3423 3 -1.931262 52.839881 60.298532
3424 2 22.284257 38.318180 32.529641
3425 3 21.363693 39.731316 34.057668
3426 3 21.981983 41.669402 34.869530
3427 2 8.871611 43.924589 32.770699
3428 3 7.737015 43.287778 33.559461
3429 3 7.365925 44.195613 34.761065
3430 2 26.447616 45.056181 18.803079
3431 3 28.347132 45.583787 17.081076
3432 3 25.875469 47.213783 17.044833
3433 2 5.724908 39.586485 20.818264
3434 3 8.196443 38.307507 22.268145
3435 3 7.832426 39.522129 20.477558
3436 2 32.919866 29.803388 48.633908
3437 3 29.827747 28.515119 50.911075
3438 3 31.089711 29.789996 49.185566
3439 2 7.605746 18.244493 44.660763
3440 3 8.795805 19.420833 42.018705
3441 3 7.384526 18.204387 45.907987
3442 2 27.751162 23.637365 44.087595
3443 3 28.144780 24.129634 43.214713
3444 3 29.475394 24.371940 40.567917
3445 2 18.989018 52.414230 41.322681
3446 3 20.478741 51.251315 41.534345
3447 3 18.315255 48.768491 42.559792
3448 2 30.532541 28.309976 34.357996
3449 3 30.417777 27.177616 38.349509
3450 3 31.229374 28.271021 34.924233
3451 2 -28.085634 28.434280 34.750721
3452 3 -25.660058 30.552158 33.254560
3453 3 -24.956574 30.893152 35.998453
3454 2 -1.567824 48.889829 22.541757
3455 3 -0.881108 49.823974 24.971088
3456 3 -2.044594 49.593223 26.452409
3457 2 -13.341187 55.059152 46.576758
3458 3 -12.465721 53.914121 45.124566
3459 3 -14.708765 53.727089 45.573229
3460 2 15.054516 59.211586 24.639394
3461 3 14.459174 60.811814 24.392810
3462 3 15.285353 61.574484 25.900312
3463 2 -1.519427 31.691252 34.206057
3464 3 -0.081477 33.445352 34.053409
3465 3 -0.638796 29.921622 35.731454
3466 2 4.911729 50.359441 27.150112
3467 3 4.852084 49.419902 27.538731
3468 3 5.251731 49.307922 28.971847
3469 2 16.139409 50.372089 27.387787
3470 3 14.539216 49.626252 30.885055
3471 3 16.171791 47.903495 28.366075
3472 2 6.547719 15.555048 39.759552
3473 3 7.420245 17.787100 39.417649
3474 3 6.105044 13.511004 38.809886
3475 2 28.888838 61.005581 15.799155
3476 3 29.227734 60.673493 14.634608
3477 3 28.316481 61.425862 12.498994
3478 2 8.038909 43.567147 19.620009
3479 3 5.617235 42.649637 18.638884
3480 3 6.811265 42.833982 20.629399
3481 2 25.068964 63.169721 40.341879
3482 3 23.264528 63.135279 39.901843
3483 3 25.154127 65.056364 39.482322
3484 2 16.655435 47.299438 40.574604
3485 3 15.901661 47.610219 42.334195
3486 3 15.238631 48.574715 42.485854
3487 2 32.621966 26.922475 36.895313
3488 3 32.596308 24.796667 37.342609
3489 3 33.017692 27.372040 35.277361
3490 2 3.744661 12.059736 42.859515
3491 3 2.347503 10.594259 44.542998
3492 3 3.295884 11.266293 45.915520
3493 2 9.982710 11.432404 47.026240
3494 3 9.270430 10.363494 47.304150
3495 3 10.810909 12.187518 45.242641
3496 2 22.181555 15.657539 38.567163
3497 3 22.748253 14.611161 42.423591
3498 3 22.679960 14.467113 39.854551
3499 2 38.711530 1.881798 39.620581
3500 3 37.336573 1.609415 40.570796
3501 3 36.275134 3.551449 41.077314
3502 2 25.266100 19.215699 35.070246
3503 3 24.946974 22.191459 39.338756
3504 3 24.959807 22.548943 39.344338
3505 2 5.331647 27.909092 51.062090
3506 3 2.582577 25.190383 50.861541
3507 3 4.359962 25.433427 48.615284
3508 2 6.471528 41.293609 40.197557
3509 3 5.852626 41.687871 39.645638
3510 3 7.574702 39.562556 39.701189
3511 2 2.893349 22.040973 49.349886
3512 3 0.332179 23.781063 48.613284
3513 3 1.783098 22.557952 50.212181
3514 2 8.717418 5.324692 48.725692
3515 3 6.577303 4.703396 47.775225
3516 3 6.938307 5.052525 45.768506
3517 2 38.984042 13.553059 36.876625
3518 3 39.261086 12.318414 35.959510
3519 3 39.956467 13.439175 34.649889
3520 2 14.972124 20.125554 62.735967
3521 3 14.281023 18.489908 64.505151
3522 3 15.648633 19.904470 62.036366
3523 2 37.024654 28.810425 30.603677
3524 3 39.108714 28.271501 32.384945
3525 3 39.848859 29.034268 30.360718
3526 2 39.859263 16.819519 26.463410
3527 3 37.316789 15.632120 30.929515
3528 3 38.358437 16.681424 30.348095
3529 2 10.796000 1.839952 36.796069
3530 3 11.139893 3.481642 37.327332
3531 3 11.128928 3.386729 35.293149
3532 2 -7.282579 7.466004 47.205980
3533 3 -8.051300 9.214451 51.145582
3534 3 -7.872542 9.526811 47.245287
3535 2 0.057284 17.097890 57.511380
3536 3 -1.572445 17.253049 58.133882
3537 3 -1.895442 15.754424 55.950985
3538 2 21.480416 -0.648957 43.738253
3539 3 20.982657 1.351068 44.266367
3540 3 22.270944 -0.200075 44.579490
3541 2 23.801585 8.776874 35.440689
3542 3 22.811281 8.419126 36.117538
3543 3 22.887854 9.511339 35.547040
3544 2 28.473038 17.039450 56.380133
3545 3 29.564321 18.397484 56.135770
3546 3 29.784026 20.138250 58.521093
3547 2 36.372133 -10.531780 18.587603
3548 3 37.502110 -9.163645 20.433309
3549 3 37.341948 -8.514093 19.382145
3550 2 34.708887 21.115077 27.238474
3551 3 34.456937 23.414619 28.030391
3552 3 34.976540 21.786593 22.384354
3553 2 26.465444 26.300466 24.224140
3554 3 24.559995 23.592952 24.582558
3555 3 28.562625 24.076818 23.147014
3556 2 23.177227 9.785970 53.695142
3557 3 23.209368 11.175557 56.182628
3558 3 19.854185 8.370791 56.281942
3559 2 30.054462 19.865969 32.519137
3560 3 30.448028 18.268268 33.040402
3561 3 29.731050 16.825360 33.164858
3562 2 26.542422 26.261425 43.563799
3563 3 27.962672 25.476593 43.537510
3564 3 27.235360 24.140195 44.012289
3565 2 38.177407 5.614320 12.376826
3566 3 38.616932 7.837705 11.340396
3567 3 39.950166 7.338644 9.983887
3568 2 29.188179 8.948569 41.624945
3569 3 28.248740 8.457696 43.451693
3570 3 30.781979 10.287228 42.121363
3571 2 14.503481 24.639523 48.405287
3572 3 17.229009 26.374848 51.236948
3573 3 16.016809 23.269835 48.783466
3574 2 3.843484 23.711643 52.351370
3575 3 3.457465 25.013932 55.136944
3576 3 3.474636 26.958937 53.951861
3577 2 28.880921 32.606286 40.127943
3578 3 29.477103 34.775785 38.983597
3579 3 30.753711 34.929020 43.571595
3580 2 38.883155 30.575358 52.552452
3581 3 40.126520 29.958854 53.360852
3582 3 39.704809 29.003261 53.027573
3583 2 24.897196 50.017877 27.473047
3584 3 26.899562 48.292994 26.596652
3585 3 26.488751 47.336164 30.061318
3586 2 16.281994 32.493850 34.848159
3587 3 15.547847 30.864326 38.546223
3588 3 15.011088 35.276583 38.774624
3589 2 44.948525 2.818836 40.422426
3590 3 46.354150 4.436504 37.155429
3591 3 47.305302 0.927144 40.133891
3592 2 31.068601 18.174260 39.573727
3593 3 29.839267 18.829929 39.839035
3594 3 29.252115 20.413799 39.295175
3595 2 16.598296 26.653782 40.743458
3596 3 15.451425 26.977582 39.817260
3597 3 17.091867 26.266693 42.064357
3598 2 25.939598 9.485398 38.551331
3599 3 26.537022 9.404171 39.497491
3600 3 25.351702 8.557529 39.115631
3601 2 30.065021 25.437142 31.222619
3602 3 28.961942 25.732507 33.298433
3603 3 29.934415 24.569966 31.510569
3604 2 21.467102 19.205395 66.143899
3605 3 21.353657 17.126441 62.086005
3606 3 21.198804 18.635985 68.264265
3607 2 7.418578 41.396472 63.764001
3608 3 8.000767 41.248986 61.736036
3609 3 6.219360 39.063764 63.659647
3610 2 -1.012186 26.767534 38.652326
3611 3 -1.254070 23.875139 36.573470
3612 3 -3.052757 25.215419 38.979655
3613 2 5.652270 27.391659 46.324221
3614 3 5.796359 27.638417 45.200352
3615 3 5.184809 27.845631 46.009674
3616 2 14.922989 14.457330 47.717476
3617 3 13.476484 14.946660 48.148121
3618 3 13.036524 14.006394 47.360246
3619 2 -0.230659 43.536760 41.513109
3620 3 -0.419564 45.421321 43.629776
3621 3 -0.930933 42.884882 42.742441
3622 2 24.403206 35.829722 54.023853
3623 3 22.710225 38.418051 54.836494
3624 3 24.271695 36.957214 54.847847
3625 2 26.526139 34.044823 52.131172
3626 3 26.941000 33.948278 52.548621
3627 3 25.470301 35.267676 51.640351
3628 2 20.052741 19.350445 19.590639
3629 3 18.376931 16.936647 22.487075
3630 3 19.683434 18.464201 22.225992
3631 2 15.623731 25.476130 31.135449
3632 3 15.915796 27.481198 31.803743
3633 3 16.406097 27.350584 34.069923
3634 2 25.725752 35.104778 27.035185
3635 3 26.795291 32.955172 29.200955
3636 3 27.190515 35.915476 27.545577
3637 2 38.411943 12.724813 39.116375
3638 3 39.958559 12.989802 35.841537
3639 3 39.287225 12.506819 39.492798
3640 2 41.880876 4.740500 47.643796
3641 3 41.621997 4.887011 45.379006
3642 3 40.249840 3.800778 45.844056
3643 2 -14.359846 8.992446 39.334927
3644 3 -12.708911 11.167617 38.861669
3645 3 -14.572797 9.341801 38.344808
3646 2 12.125625 27.103971 47.826209
3647 3 11.203431 27.287381 46.396480
3648 3 11.667162 27.987881 48.205752
3649 2 31.223358 20.327929 35.737308
3650 3 30.241564 19.497585 36.137192
3651 3 30.032535 19.415903 36.238029
3652 2 23.493923 2.306778 45.853596
3653 3 23.715265 4.545133 46.463130
3654 3 24.596408 4.950964 44.365199
3655 2 17.627457 28.623870 53.270300
3656 3 18.803990 26.943538 51.667201
3657 3 17.717789 27.300029 51.775630
3658 2 34.857985 17.664022 34.467863
3659 3 36.324963 21.161239 36.299514
3660 3 35.982831 15.755633 35.026429
3661 2 9.247212 43.082815 49.372665
3662 3 10.621108 42.780480 48.820746
3663 3 12.759013 44.168827 47.313773
3664 2 21.984087 27.946162 28.264253
3665 3 21.727760 29.683306 28.797070
3666 3 20.832648 27.401694 29.994085
3667 2 44.722229 57.385076 50.032122
3668 3 45.151403 55.367183 49.045068
3669 3 44.426123 57.947935 49.507357
3670 2 30.369118 37.167832 45.092732
3671 3 31.713793 37.960857 43.748473
3672 3 31.543657 33.489299 46.160692
3673 2 88.061501 22.799331 45.794776
3674 3 86.701022 22.858669 46.505977
3675 3 87.543364 21.261943 44.043793
3676 2 2.726382 40.325480 3.939191
3677 3 5.777907 41.209930 4.054721
3678 3 6.795800 40.967720 3.840727
3679 2 3.181274 38.981995 30.374051
3680 3 6.453817 40.134490 31.558815
3681 3 4.792586 36.993079 32.359772
3682 2 22.070038 27.608261 33.667483
3683 3 22.346729 27.797770 34.422650
3684 3 20.401530 26.173978 35.575957
3685 2 29.725035 24.944872 38.915919
3686 3 30.786018 23.730226 39.471232
3687 3 31.468484 24.767264 42.989079
3688 2 18.882217 16.261238 58.809053
3689 3 20.125388 16.911719 61.447008
3690 3 24.662680 16.250638 60.064841
3691 2 -2.865243 21.165215 31.113439
3692 3 -1.334439 20.571281 31.234376
3693 3 -4.749291 20.589625 31.301857
3694 2 19.598718 36.793177 47.973334
3695 3 20.224712 39.875612 49.064569
3696 3 19.558617 37.565874 46.607035
3697 2 11.139798 41.943313 18.452000
3698 3 13.847636 42.774510 20.429037
3699 3 11.006679 41.709332 19.187023
3700 2 23.524353 59.510677 35.600824
3701 3 23.327708 60.459105 34.266065
3702 3 23.920158 58.554069 33.806138
3703 2 30.477728 29.463112 40.087349
3704 3 30.517020 30.171839 42.518438
3705 3 30.627674 30.588413 38.773418
3706 2 28.029801 27.373580 52.658916
3707 3 27.455842 29.710932 54.807795
3708 3 26.591355 29.727534 55.150598
3709 2 38.592952 30.782423 41.315602
3710 3 36.226208 32.483979 39.455059
3711 3 37.135539 31.588373 40.486679
3712 2 16.589171 62.679102 32.997176
3713 3 18.121779 58.058550 32.424973
3714 3 17.572703 59.597634 30.781149
3715 2 25.522570 37.709591 34.164363
3716 3 25.715542 38.265551 38.352947
3717 3 26.010354 38.518097 39.149381
3718 2 34.966054 37.672568 28.529117
3719 3 32.880091 37.478265 25.545499
3720 3 34.787318 36.849754 27.174737
3721 2 21.145523 41.378639 49.945544
3722 3 22.471202 42.416609 49.395697
3723 3 20.793076 41.156501 50.149466
3724 2 10.109192 28.791723 31.763884
3725 3 9.232147 29.081325 32.920269
3726 3 8.876516 31.031361 31.941291
3727 2 6.549599 32.651081 40.991712
3728 3 4.758680 33.651434 43.962700
3729 3 5.203566 34.179207 42.820156
3730 2 38.068085 55.792808 53.763626
3731 3 36.838522 55.844267 51.294810
3732 3 38.575681 54.840145 51.802830
3733 2 11.465417 43.055426 51.899247
3734 3 11.280868 39.592936 50.054619
3735 3 10.806223 43.287558 52.357519
3736 2 10.171233 32.913662 55.537980
3737 3 12.144691 28.995110 55.797695
3738 3 10.889816 31.599812 57.632823
3739 2 10.405339 56.970828 50.103731
3740 3 11.352784 57.810120 55.335659
3741 3 10.345983 55.368920 51.782845
3742 2 -1.675931 44.880699 49.604005
3743 3 -2.497068 46.270330 50.687825
3744 3 0.304833 46.948782 52.136599
3745 2 7.558976 36.492520 46.255779
3746 3 6.438179 34.640118 46.270042
3747 3 7.893464 34.342490 44.201666
3748 2 33.070984 14.533339 62.818686
3749 3 32.549517 16.327379 58.930576
3750 3 33.539157 14.400664 59.313519
3751 2 24.772823 46.426547 47.460183
3752 3 25.503773 45.995547 46.918189
3753 3 26.117879 45.824906 47.618748
3754 2 41.359031 28.735426 20.816774
3755 3 43.528465 30.829591 22.919762
3756 3 43.656326 28.895633 23.713483
3757 2 40.036415 21.390699 70.685108
3758 3 37.428490 20.352778 70.180818
3759 3 41.199505 22.137071 70.904204
3760 2 23.986124 29.532196 19.975159
3761 3 23.708479 30.949128 20.916099
3762 3 22.649807 30.889181 20.033531
3763 2 33.877504 38.582482 38.388771
3764 3 34.508365 40.673922 38.046838
3765 3 33.405148 39.302667 36.073775
3766 2 12.382195 9.414308 46.820159
3767 3 13.797711 11.866016 48.047397
3768 3 12.466482 12.149356 46.741516
3769 2 2.938691 29.513154 26.670172
3770 3 2.804993 28.041435 29.020672
3771 3 2.278185 27.007567 29.919427
3772 2 -5.293344 39.554691 51.206023
3773 3 -4.247388 38.450858 51.771333
3774 3 -5.787078 41.540223 52.579791
3775 2 9.408615 37.198457 42.845019
3776 3 8.612109 33.637798 39.646826
3777 3 9.500184 36.364487 41.565948
3778 2 11.028485 32.475008 15.904751
3779 3 11.780207 33.665225 16.340052
3780 3 10.707976 34.410428 19.252720
3781 2 25.941729 41.339458 58.867693
3782 3 25.540194 38.203053 59.188748
3783 3 26.559034 39.284927 59.619836
3784 2 9.322365 13.106126 57.009138
3785 3 7.112757 15.119811 55.636863
3786 3 9.405099 16.399267 58.775093
3787 2 7.826123 61.826723 58.796718
3788 3 7.816846 61.699501 55.403463
3789 3 7.435274 63.095494 55.793617
3790 2 20.374025 62.210285 38.452117
3791 3 22.975353 63.205668 36.798031
3792 3 21.078157 61.090623 36.801144
3793 2 29.686708 40.643976 24.606980
3794 3 30.941580 41.021017 24.128006
3795 3 30.352658 39.733165 22.532642
3796 2 43.651413 42.045444 36.292238
3797 3 44.520019 40.608510 37.257027
3798 3 43.251872 39.929648 39.669270
3799 2 36.468127 37.454079 51.892630
3800 3 34.688465 38.828430 51.990590
3801 3 33.222827 36.835388 51.964121
3802 2 1.458212 41.591892 49.051734
3803 3 1.142669 39.933823 53.860995
3804 3 1.139893 38.857028 50.685110
3805 2 25.608496 31.215000 64.791609
3806 3 23.458317 29.894821 68.367512
3807 3 24.608574 31.320133 67.215252
3808 2 17.473048 16.257022 54.791054
3809 3 16.732165 19.771036 54.050589
3810 3 15.523863 15.464445 52.538770
3811 2 8.186456 31.819361 47.217305
3812 3 7.249374 33.348267 47.786870
3813 3 7.367523 32.395605 49.140632
3814 2 45.282286 32.388941 34.417329
3815 3 45.554909 33.843466 35.847179
3816 3 46.839246 31.787614 33.951695
3817 2 16.884946 29.088058 32.750927
3818 3 17.593765 28.904370 31.879017
3819 3 16.203364 28.570191 30.970029
3820 2 5.243920 56.015721 45.185117
3821 3 2.796570 52.639911 46.519251
3822 3 6.141776 56.522347 48.064767
3823 2 6.461733 44.693046 44.651671
3824 3 7.546535 43.198845 42.370678
3825 3 5.046224 44.655769 42.362288
3826 2 33.681559 36.257283 39.258660
3827 3 32.610266 34.801898 37.095207
3828 3 33.230387 36.999323 38.391853
3829 2 14.556443 50.132509 55.415781
3830 3 15.047518 49.344920 52.674783
3831 3 13.974792 49.175497 54.330068
3832 2 23.662344 24.208236 35.760360
3833 3 23.085789 24.830829 36.078094
3834 3 21.751649 24.683114 35.907101
3835 2 48.745108 60.934832 47.593815
3836 3 47.105989 59.569058 44.113893
3837 3 46.659549 58.251097 47.561796
3838 2 7.309557 44.728289 33.182585
3839 3 7.037271 47.721319 34.147086
3840 3 7.823702 46.632154 36.345855
3841 2 -15.169678 18.552987 63.372137
3842 3 -14.632432 19.254976 59.877625
3843 3 -16.055125 18.772011 61.890030
3844 2 7.678679 37.875142 37.065891
3845 3 9.082062 34.954400 36.039938
3846 3 7.348164 37.543269 37.739845
3847 2 15.360365 23.657607 31.909523
3848 3 16.085200 23.084386 34.004944
3849 3 15.051492 21.594336 33.882551
3850 2 13.345844 7.074873 51.920661
3851 3 11.705265 6.188514 51.292905
3852 3 12.975586 5.486983 50.951892
3853 2 20.188830 36.167662 26.417503
3854 3 20.290289 35.001451 27.720491
3855 3 19.374523 37.425092 29.041052
3856 2 8.578600 26.717146 26.304323
3857 3 9.760365 24.837068 25.573242
3858 3 8.785431 27.259669 28.397855
3859 2 19.931338 13.491689 52.119056
3860 3 19.338892 15.533461 53.489777
3861 3 20.513268 15.642779 53.717222
3862 2 29.262646 3.804321 46.558604
3863 3 28.488806 3.882340 48.023811
3864 3 30.389614 5.240480 46.584971
3865 2 13.861500 14.338231 47.910841
3866 3 14.078536 14.870417 49.024552
3867 3 15.989730 15.046444 50.590238
3868 2 19.283054 -3.341598 47.864640
3869 3 18.510528 -4.985991 46.029484
3870 3 19.546828 -2.313961 47.013067
3871 2 28.768888 42.354211 65.107032
3872 3 28.032760 43.183197 66.597627
3873 3 27.610166 43.477923 69.853909
3874 2 27.664383 -11.793857 61.457429
3875 3 29.419293 -9.663307 61.634183
3876 3 28.297238 -11.314817 63.096025
3877 2 38.279974 43.080261 45.792131
3878 3 40.005717 41.648241 49.041638
3879 3 40.713851 43.177334 47.738250
3880 2 19.453081 16.509789 55.463551
3881 3 18.226635 17.471545 51.332946
3882 3 18.469182 15.392088 54.134307
3883 2 35.170790 36.754418 51.141691
3884 3 35.598854 34.654911 54.123270
3885 3 35.349617 34.623758 50.184169
3886 2 19.225744 27.362685 38.004595
3887 3 20.029010 25.535611 37.057793
3888 3 18.749842 24.936007 35.805386
3889 2 14.637283 47.405925 57.236604
3890 3 14.691915 46.513770 58.145981
3891 3 15.206891 46.932448 55.273671
3892 2 29.763882 34.371578 37.351748
3893 3 29.420488 34.304082 37.385865
3894 3 30.151958 35.249992 36.918507
3895 2 30.351571 20.008152 37.910414
3896 3 29.291028 18.519744 39.072132
3897 3 28.811441 18.298288 38.760059
3898 2 24.153562 22.111306 41.308178
3899 3 24.583042 23.834264 39.707438
3900 3 23.978684 22.743741 40.697329
3901 2 40.078687 28.846132 31.004611
3902 3 40.355576 32.769200 32.392140
3903 3 40.130561 33.282960 32.430346
3904 2 16.541217 20.990247 38.721746
3905 3 15.373051 22.487450 38.171868
3906 3 15.517416 19.246076 37.460602
3907 2 46.203947 38.060631 26.580036
3908 3 46.766133 38.406967 29.539889
3909 3 46.822428 38.061332 26.466329
3910 2 43.057027 41.078026 32.601606
3911 3 44.708206 40.580625 32.299201
3912 3 43.342141 40.540244 32.701160
3913 2 24.935271 16.954742 50.418598
3914 3 23.090816 16.259167 49.473037
3915 3 23.599049 17.229482 51.004664
3916 2 24.267719 7.269743 15.200824
3917 3 22.355434 5.324537 12.134324
3918 3 24.534497 4.837045 15.052938
3919 2 1.907694 44.283146 45.445695
3920 3 5.087806 43.215567 49.186800
3921 3 3.483762 46.646260 44.804846
3922 2 24.227667 20.000976 51.742957
3923 3 24.942749 18.456151 48.842401
3924 3 22.830426 19.145800 50.276963
3925 2 10.164871 25.436225 32.713540
3926 3 8.294351 26.738237 34.988248
3927 3 9.723124 27.156863 34.249213
3928 2 4.320705 44.972937 53.217007
3929 3 4.666231 46.029637 48.951765
3930 3 4.595831 44.502232 51.968234
3931 2 33.344810 34.757262 38.011535
3932 3 34.720325 34.428295 38.842806
3933 3 35.073511 32.560282 39.217186
3934 2 5.308885 20.168566 60.855737
3935 3 5.770533 18.529197 64.517892
3936 3 5.403341 17.570727 64.040071
3937 2 1.568969 41.980915 55.345284
3938 3 1.176728 41.969438 58.545090
3939 3 1.721220 43.328026 56.349030
3940 2 13.935489 15.061300 57.780614
3941 3 12.762937 14.975766 56.102185
3942 3 13.900981 13.690300 56.898989
3943 2 16.152399 46.186300 24.241205
3944 3 16.381849 47.344148 25.275280
3945 3 16.641802 46.135613 25.201667
3946 2 40.342071 19.802371 30.173122
3947 3 39.536214 19.396919 30.324212
3948 3 41.676292 18.328573 31.964243
3949 2 11.316679 50.021233 58.847188
3950 3 10.328258 52.046875 55.933371
3951 3 11.011917 51.861090 57.497267
3952 2 33.520529 8.251920 9.699619
3953 3 30.609683 8.140311 9.994589
3954 3 30.832459 5.727780 7.418397
3955 2 27.815163 7.964408 23.873791
3956 3 27.544044 6.933304 25.051536
3957 3 27.288436 6.956205 23.026661
3958 2 24.334595 4.847492 56.043938
3959 3 25.555613 6.261615 57.812487
3960 3 25.101156 4.708899 57.212550
3961 2 17.129857 14.389422 51.672953
3962 3 16.097562 14.005965 51.608824
3963 3 17.081549 13.685677 50.387535
3964 2 9.237821 14.272579 56.242239
3965 3 7.860204 16.572801 57.694032
3966 3 10.635473 13.662060 54.768170
3967 2 8.527227 17.762125 40.911422
3968 3 8.680198 15.119569 39.566688
3969 3 5.921242 17.209951 40.354982
3970 2 20.360138 35.825888 55.836751
3971 3 20.545203 35.599687 58.514937
3972 3 20.735509 33.081258 59.286284
3973 2 18.543382 39.325677 37.452876
3974 3 19.748389 38.838693 38.375833
3975 3 19.565794 41.154497 34.138994
3976 2 3.932329 18.263765 29.196690
3977 3 3.279410 17.892136 32.117027
3978 3 3.957611 18.776010 31.716847
3979 2 23.527462 8.088565 26.026003
3980 3 22.992715 8.980567 21.449861
3981 3 23.663964 9.245537 25.624119
3982 2 25.658232 22.430793 46.309623
3983 3 24.713836 21.914965 43.020228
3984 3 26.283175 22.323358 43.758153
3985 2 28.242801 49.531368 44.663351
3986 3 27.221353 48.515754 40.898861
3987 3 29.697741 49.513328 45.170036
3988 2 5.666376 8.946696 32.244327
3989 3 5.651170 9.635068 33.881910
3990 3 5.828070 9.970593 34.605037
3991 2 33.816964 24.441110 42.383269
3992 3 30.427976 25.065747 44.840317
3993 3 31.961416 26.835764 42.416616
3994 2 6.016516 15.017469 60.027379
3995 3 7.522142 15.439316 57.136072
3996 3 7.326016 16.753947 59.392750
3997 2 -12.987989 27.164501 39.007101
3998 3 -11.537016 27.760199 39.425611
3999 3 -10.101619 27.505074 41.788483
4000 2 4.049259 38.449203 25.017241
4001 3 4.279015 39.045308 26.770898
4002 3 3.711780 38.860965 28.217344
4003 2 29.560979 -4.435943 56.897037
4004 3 30.219138 -4.243385 56.877958
4005 3 28.940150 -4.407500 59.255114
4006 2 35.260787 18.342988 57.386905
4007 3 34.920972 16.360742 55.993406
4008 3 36.800072 17.613526 56.353320
4009 2 46.950949 17.681436 39.271966
4010 3 45.996010 15.216462 39.306322
4011 3 46.673750 19.012406 39.187629
4012 2 11.082555 13.339025 60.345058
4013 3 11.221728 16.571087 57.786099
4014 3 11.720468 17.429056 58.105390
4015 2 2.675120 23.289096 83.137756
4016 3 2.134543 24.633486 80.581418
4017 3 2.656752 24.187979 88.230805
4018 2 17.351169 20.760030 58.012993
4019 3 15.854090 23.010721 57.115792
4020 3 18.141358 20.819264 55.370508
4021 2 39.720951 5.275456 52.391502
4022 3 38.181621 6.849335 50.288410
4023 3 37.896597 8.237939 51.768420
4024 2 22.245574 44.418487 26.449493
4025 3 21.715096 46.719155 25.893826
4026 3 21.656626 45.021732 26.032176
4027 2 38.026042 47.259016 43.587297
4028 3 39.173402 44.203865 41.108260
4029 3 39.050437 45.759594 44.773086
4030 2 20.077153 39.869468 43.030210
4031 3 20.168371 40.081917 42.803238
4032 3 19.069155 39.247544 44.549373
4033 2 3.307621 46.648134 53.533996
4034 3 5.179275 46.728897 51.931409
4035 3 2.163451 48.557910 52.418433
4036 2 19.694024 11.985760 51.120532
4037 3 19.786431 14.964561 51.805490
4038 3 18.598392 12.916506 51.479171
4039 2 28.486571 26.188761 31.756329
4040 3 30.047538 24.657216 33.767835
4041 3 27.408872 26.914935 32.030795
4042 2 46.908994 24.764051 40.614847
4043 3 46.961838 23.416667 44.133185
4044 3 45.535488 24.758821 43.096286
4045 2 3.250146 43.073421 51.440602
4046 3 4.688612 43.660040 52.206849
4047 3 5.450989 46.999680 49.440973
4048 2 9.385663 40.221414 25.715720
4049 3 10.117672 36.798385 24.626229
4050 3 11.041238 34.814733 27.597460
4051 2 27.467812 20.587793 58.567615
4052 3 27.605006 19.766751 55.805759
4053 3 27.512849 18.590718 55.351419
4054 2 25.928079 22.917086 48.162243
4055 3 27.781578 20.207846 50.312835
4056 3 26.676900 21.515752 51.847760
4057 2 24.641896 31.081891 41.012768
4058 3 24.454250 29.801390 45.079488
4059 3 23.219533 30.802073 41.313136
4060 2 37.158649 33.003947 9.750341
4061 3 38.893796 32.479514 11.133361
4062 3 38.098984 32.400709 8.027589
4063 2 1.848885 34.365428 28.191439
4064 3 -0.682652 32.201353 28.332248
4065 3 -0.451950 32.343985 29.848373
4066 2 7.734565 60.751438 45.637242
4067 3 7.976971 59.802246 48.041668
4068 3 8.647992 59.163271 46.060889
4069 2 7.968515 38.139144 55.902100
4070 3 9.275100 34.571365 51.003509
4071 3 8.505012 37.940122 52.220356
4072 2 29.417919 33.972316 44.242726
4073 3 32.290713 35.207546 44.056808
4074 3 27.824529 35.129651 43.806552
4075 2 35.034547 20.254215 35.019618
4076 3 31.415069 20.534436 33.244471
4077 3 34.818905 18.968607 33.703864
4078 2 46.014759 18.286802 51.000190
4079 3 46.564118 18.248894 47.237060
4080 3 47.598850 21.216619 50.272834
4081 2 26.593792 17.107291 52.685591
4082 3 28.008289 15.990118 48.943201
4083 3 25.330342 17.541810 52.933688
4084 2 3.724001 48.204264 28.300096
4085 3 4.030282 45.322321 25.703033
4086 3 3.772434 49.787275 25.262174
4087 2 26.939205 39.718023 31.248864
4088 3 24.109033 39.457441 34.891503
4089 3 26.723160 38.213761 32.504145
4090 2 9.572523 0.273006 65.180904
4091 3 9.498639 1.368786 68.633627
4092 3 9.066303 1.265369 67.586012
4093 2 17.299909 16.967332 44.038285
4094 3 15.854024 20.148436 46.789126
4095 3 17.670769 20.037824 45.044829
4096 2 20.558865 47.919853 30.973760
4097 3 21.428730 47.745750 30.700953
4098 3 21.167260 50.484947 32.833444
4099 2 1.533445 45.291002 28.861172
4100 3 1.833030 46.877000 29.792905
4101 3 0.424639 44.878352 27.618450
4102 2 16.902803 39.522065 30.142189
4103 3 15.219733 39.301798 31.168302
4104 3 16.625557 41.877326 29.434391
4105 2 18.098212 44.670756 41.782152
4106 3 17.961868 42.690953 40.048508
4107 3 18.107127 45.519003 40.973726
4108 2 9.215806 31.239869 56.623830
4109 3 10.078202 28.322676 56.509823
4110 3 10.374949 29.582494 57.248434
4111 2 10.186519 30.746532 44.016258
4112 3 12.516515 33.367159 43.744190
4113 3 11.759532 32.411184 45.125251
4114 2 -7.425707 33.580096 53.068346
4115 3 -4.238278 32.636295 50.146135
4116 3 -5.123085 35.163595 49.677635
4117 2 4.073572 13.773509 60.438580
4118 3 5.323387 9.531122 58.666057
4119 3 4.762391 10.825758 58.499360
4120 2 6.936022 27.262338 58.326838
4121 3 8.650810 28.468384 58.195282
4122 3 8.807735 27.158339 56.093949
4123 2 -0.398344 56.171812 48.262065
4124 3 -0.807251 56.727449 48.453100
4125 3 -1.241187 54.563602 49.554861
4126 2 31.998608 44.842181 48.237734
4127 3 32.996856 46.275462 44.757363
4128 3 33.544351 45.263014 46.648035
4129 2 27.975618 35.211112 19.498404
4130 3 26.130904 30.758890 23.160522
4131 3 26.563156 30.691065 23.260190
4132 2 24.071229 33.742843 31.656170
4133 3 23.707110 34.000794 29.472158
4134 3 21.478028 34.466988 31.595485
4135 2 -1.822076 44.215890 38.936183
4136 3 -0.422593 41.677453 37.939220
4137 3 -1.568384 43.036556 40.716560
4138 2 6.028729 19.436958 40.966738
4139 3 5.474690 18.718750 41.619882
4140 3 5.242712 19.763872 43.221725
4141 2 18.461743 25.075040 48.796539
4142 3 19.482987 23.729650 48.068285
4143 3 18.573469 26.745405 47.435014
4144 2 12.602282 45.580852 55.396557
4145 3 11.587954 45.501222 59.345436
4146 3 14.352591 47.983802 57.383459
4147 2 12.161344 52.496492 21.081055
4148 3 10.527785 51.625057 19.860452
4149 3 11.051517 52.851011 24.310884
4150 2 22.741449 41.842182 52.166853
4151 3 24.834492 43.282696 51.613785
4152 3 23.964434 43.194019 53.531300
4153 2 38.908384 43.148919 22.829245
4154 3 36.699462 45.119199 21.659898
4155 3 37.860084 43.994394 25.312499
4156 2 26.170333 52.932840 37.304201
4157 3 26.070684 54.023804 37.004124
4158 3 25.277139 54.477489 38.944742
4159 2 27.009833 29.702200 37.473284
4160 3 27.217668 29.299776 39.275748
4161 3 27.305232 30.355177 39.288896
4162 2 11.993793 54.340536 44.174625
4163 3 12.155229 54.415991 42.821717
4164 3 10.085921 53.241057 43.879303
4165 2 30.416167 35.920143 27.799005
4166 3 29.515828 37.568354 27.976891
4167 3 30.140654 38.998279 24.108947
4168 2 26.677582 36.881324 57.945139
4169 3 25.055809 35.061453 54.280788
4170 3 25.569266 36.616682 54.046500
4171 2 22.943482 28.653431 45.521133
4172 3 23.213626 29.552751 44.451309
4173 3 21.874080 31.689695 45.657768
4174 2 24.121583 43.788104 45.135335
4175 3 23.563489 46.027030 49.791844
4176 3 24.495744 43.901045 44.696401
4177 2 28.144866 30.139091 50.893725
4178 3 28.319606 32.323866 49.715869
4179 3 28.531247 32.741712 51.741887
4180 2 25.096285 5.965921 52.718663
4181 3 26.646638 7.222884 55.504043
4182 3 26.184570 8.880110 53.102221
4183 2 5.388851 31.594547 32.887445
4184 3 6.245012 31.629554 32.275346
4185 3 5.763580 31.390089 29.385450
4186 2 32.417520 35.839431 60.818252
4187 3 31.232445 34.408363 62.452563
4188 3 30.661697 33.132484 60.619665
4189 2 29.163769 32.710962 27.912107
4190 3 28.829383 31.284396 26.654712
4191 3 29.524053 31.709507 26.862960
4192 2 15.994740 22.595858 45.497346
4193 3 18.584782 22.741666 46.051954
4194 3 18.643269 22.333853 46.383804
4195 2 -6.455174 46.786166 32.479775
4196 3 -6.073188 49.417068 33.094904
4197 3 -7.937561 45.430012 33.211747
4198 2 -10.871755 46.231588 40.249932
4199 3 -12.643517 43.615214 38.638076
4200 3 -9.930201 45.769057 39.661283
4201 2 9.962956 37.051315 51.145790
4202 3 10.206182 34.166684 50.304852
4203 3 8.105872 34.425448 48.676287
4204 2 6.237360 74.954687 49.971432
4205 3 4.753061 73.360145 50.921668
4206 3 6.944725 73.108051 52.079355
4207 2 28.165273 47.965137 37.300353
4208 3 29.351328 48.612007 35.285507
4209 3 28.568204 46.318638 37.753400
4210 2 6.113427 45.626273 32.903723
4211 3 6.404124 45.879711 34.949321
4212 3 6.250909 44.108230 33.044383
4213 2 21.531205 58.550317 27.668310
4214 3 21.182699 57.316406 28.401973
4215 3 21.416292 56.717183 25.853912
4216 2 -4.250356 13.475319 58.529051
4217 3 -3.384451 13.150478 59.609973
4218 3 -2.744070 12.932476 57.145880
4219 2 11.215351 30.687614 51.051926
4220 3 10.669656 31.542037 50.399646
4221 3 12.062122 31.287932 52.402223
4222 2 9.638531 53.936167 56.989086
4223 3 7.504088 53.732863 58.763298
4224 3 10.062671 51.904000 57.703991
4225 2 25.319260 29.196203 42.075188
4226 3 25.700583 28.439771 38.081386
4227 3 24.778097 26.498293 41.127563
4228 2 12.059402 48.484049 38.209431
4229 3 11.918458 47.615721 34.491070
4230 3 12.400172 46.628350 33.977121
4231 2 41.464556 35.501435 35.973606
4232 3 43.174771 35.737730 36.849948
4233 3 41.638420 37.034684 35.499306
4234 2 14.997898 14.652905 25.289165
4235 3 13.174618 16.797423 27.039418
4236 3 14.678982 15.095796 25.640403
4237 2 -2.431699 8.224324 60.674407
4238 3 -4.588530 9.278958 63.767691
4239 3 -3.552520 10.319047 63.296148
4240 2 5.151684 26.649970 57.707854
4241 3 4.358993 27.257886 55.809885
4242 3 5.795199 26.656313 56.439303
4243 2 19.379437 26.959835 40.723835
4244 3 20.523754 26.153390 40.250725
4245 3 20.003487 24.823878 42.372122
4246 2 -6.745342 4.006698 35.244242
4247 3 -4.795366 5.444584 33.929614
4248 3 -4.810723 6.322677 34.830077
4249 2 26.971978 -2.733732 53.135402
4250 3 26.597574 -0.990063 52.528527
4251 3 29.587088 -2.805259 55.282634
4252 2 23.552507 4.090797 44.720459
4253 3 22.423986 6.462209 47.022074
4254 3 23.102743 4.771071 48.197700
4255 2 5.736848 28.925086 27.251368
4256 3 5.461522 29.280216 29.425546
4257 3 7.704806 28.265104 27.535273
4258 2 28.011509 14.288497 55.831854
4259 3 28.652762 13.702227 53.380139
4260 3 28.092244 14.893540 53.300538
4261 2 16.317687 21.198553 37.247637
4262 3 17.936563 21.867191 36.658177
4263 3 17.792973 20.419011 35.358279
4264 2 30.219879 36.270403 48.989736
4265 3 29.477319 35.125173 48.534013
4266 3 30.332239 34.766770 48.663945
4267 2 29.997584 11.287660 37.271348
4268 3 28.663264 11.194292 36.752589
4269 3 30.290663 11.387404 37.994636
4270 2 50.030909 27.431571 48.651576
4271 3 50.277729 29.940003 49.687313
4272 3 51.546456 27.164432 50.375368
4273 2 23.977563 8.034495 31.272321
4274 3 21.241853 8.115951 33.665199
4275 3 21.405747 6.760257 35.344642
4276 2 -7.645165 13.127788 60.951206
4277 3 -9.066080 13.076511 60.613166
4278 3 -8.307126 12.927455 61.576129
4279 2 -18.592616 15.548001 40.025222
4280 3 -17.852018 14.623682 40.497247
4281 3 -18.065545 16.421153 44.160417
4282 2 33.565998 5.726747 62.745202
4283 3 33.286424 5.734114 63.946128
4284 3 31.976486 4.776606 63.558195
4285 2 23.445394 30.620269 55.467020
4286 3 24.281689 31.322499 53.634443
4287 3 24.124779 31.864153 52.274325
4288 2 28.234966 16.290522 58.829179
4289 3 29.705614 17.462848 56.910705
4290 3 29.004881 19.065806 57.334539
4291 2 28.155762 26.603410 66.118468
4292 3 28.016206 28.897844 69.272910
4293 3 27.624114 27.392688 66.264730
4294 2 26.011021 25.254806 43.642242
4295 3 24.828842 27.855570 44.053732
4296 3 27.327744 27.238541 44.497620
4297 2 25.187885 37.559754 21.730863
4298 3 25.833522 37.858327 22.822020
4299 3 25.290188 36.291377 22.390028
4300 2 9.583002 3.522817 38.207400
4301 3 9.693686 6.272521 40.198216
4302 3 9.521372 5.102448 38.072071
4303 2 20.730040 41.754124 33.746741
4304 3 18.082266 41.801516 33.925674
4305 3 17.687063 42.485165 34.269501
4306 2 45.737281 19.947441 51.815740
4307 3 46.732720 21.273569 52.257282
4308 3 46.520386 20.905911 51.453899
4309 2 31.665841 35.277096 50.547679
4310 3 30.603962 34.697361 54.303279
4311 3 33.365287 36.266634 52.908753
4312 2 10.375234 25.780373 53.004995
4313 3 11.416052 25.897893 52.324585
4314 3 11.176869 27.289987 54.475203
4315 2 10.137156 2.333319 55.974809
4316 3 8.116765 2.587928 55.892184
4317 3 7.964777 1.037396 56.411351
4318 2 -12.382492 35.451314 40.905591
4319 3 -13.444490 34.744870 40.087425
4320 3 -12.080292 33.411275 39.969025
4321 2 10.679416 14.545965 67.875478
4322 3 10.153111 15.599985 67.604570
4323 3 10.787533 11.583303 68.418332
4324 2 30.141087 30.887845 50.794317
4325 3 30.818281 32.636943 54.322893
4326 3 31.086096 33.310933 53.746198
4327 2 22.575915 29.256554 56.316023
4328 3 22.025833 29.157495 57.347239
4329 3 21.857512 26.004843 58.453885
4330 2 19.964406 13.616043 43.436909
4331 3 19.997116 13.710198 45.894439
4332 3 20.027253 13.282210 40.314049
4333 2 8.209126 2.345964 48.315821
4334 3 9.601976 2.988807 46.787816
4335 3 8.060182 0.749301 48.541151
4336 2 31.228789 22.855410 41.146831
4337 3 31.276408 21.289953 40.924248
4338 3 33.169225 21.641481 40.233577
4339 2 32.936367 46.970320 53.277086
4340 3 31.679517 47.646559 55.342959
4341 3 31.542593 49.157839 58.020768
4342 2 31.658805 50.329697 50.401567
4343 3 31.202366 48.651067 51.816577
4344 3 32.860888 48.359464 54.914944
4345 2 36.547519 31.807169 50.949111
4346 3 36.563736 32.660128 47.866552
4347 3 35.682080 32.500838 49.543691
4348 2 31.112066 0.308354 46.816806
4349 3 31.429557 -1.733562 48.022384
4350 3 33.296167 -2.530835 47.657060
4351 2 7.699341 28.036733 33.927975
4352 3 6.532519 27.838314 32.922933
4353 3 7.283776 27.877095 32.917751
4354 2 -0.523191 -7.046044 41.392739
4355 3 -0.874383 -4.965271 43.487515
4356 3 -1.234004 -5.708055 40.331493
4357 2 18.649420 33.721494 67.443062
4358 3 17.312998 35.017963 66.793829
4359 3 17.059916 33.410674 67.715898
4360 2 4.656575 29.167107 56.929203
4361 3 3.831621 29.813800 56.875476
4362 3 5.414626 28.551690 54.783914
4363 2 37.920107 2.431868 61.825555
4364 3 34.722610 2.438649 62.689501
4365 3 33.624319 2.229223 60.665333
4366 2 39.645607 35.114594 60.768377
4367 3 39.518133 35.059945 59.866969
4368 3 40.028222 35.901073 62.131720
4369 2 11.293553 22.734445 47.024803
4370 3 11.752167 24.140490 49.059193
4371 3 14.280748 24.191271 47.551440
4372 2 21.072862 37.034146 44.066263
4373 3 22.612960 36.829399 43.453419
4374 3 21.768773 38.246825 42.825719
4375 2 54.167657 8.162635 54.317147
4376 3 54.613469 8.693712 58.785232
4377 3 55.041123 9.973551 59.759981
4378 2 11.157078 21.893428 42.156592
4379 3 10.299784 19.449282 42.828113
4380 3 9.877409 19.118812 48.209885
4381 2 25.049171 40.491279 26.433959
4382 3 24.365728 38.611606 28.133163
4383 3 24.606769 39.687539 28.461937
4384 2 36.240855 33.897602 49.695035
4385 3 36.181703 33.792190 48.398407
4386 3 34.744794 37.058060 47.046799
4387 2 4.987243 11.874178 40.397790
4388 3 5.519442 13.365012 42.113648
4389 3 4.263928 11.434566 44.135231
4390 2 9.591187 21.804417 40.595226
4391 3 6.230139 22.165453 39.146565
4392 3 8.336537 21.139928 38.532810
4393 2 24.039231 31.610036 51.609020
4394 3 22.960497 29.178947 50.112110
4395 3 24.667752 33.392496 49.849886
4396 2 33.531779 14.738570 42.982893
4397 3 34.416078 16.485785 46.389805
4398 3 33.162993 14.212528 46.043761
4399 2 34.134393 42.581431 44.821330
4400 3 33.064521 42.877247 41.089898
4401 3 35.645520 42.533942 44.010651
4402 2 29.778588 31.797357 50.641066
4403 3 29.827967 29.629995 48.920044
4404 3 30.531647 28.220446 52.343242
4405 2 42.554216 10.674443 52.751915
4406 3 43.569881 10.748296 53.970264
4407 3 42.237878 10.128594 52.119192
4408 2 23.230195 45.019358 42.768463
4409 3 24.361759 47.283439 43.630832
4410 3 25.325146 44.312220 42.109132
4411 2 14.281442 28.652651 51.481535
4412 3 12.465395 28.475933 50.649854
4413 3 14.574755 26.579622 50.539457
4414 2 -0.474000 30.666454 65.500322
4415 3 1.343551 31.278302 66.071195
4416 3 -0.556093 30.677961 67.499238
4417 2 19.937643 30.322531 41.744120
4418 3 18.716755 29.541859 43.050807
4419 3 18.371100 29.402403 42.318156
4420 2 39.603822 35.762329 33.919814
4421 3 39.517591 35.119394 35.812088
4422 3 39.712788 32.863949 32.247226
4423 2 45.658834 43.547665 29.448116
4424 3 45.191151 39.653054 36.473962
4425 3 45.304256 44.207959 35.928287
4426 2 15.789627 19.000081 19.395297
4427 3 16.243167 17.411675 18.293077
4428 3 17.047202 19.366554 20.752091
4429 2 17.604229 35.325097 21.122154
4430 3 16.179174 34.248750 19.096553
4431 3 17.459485 34.204962 21.741024
4432 2 17.400415 44.502314 55.939130
4433 3 15.843169 46.502137 54.669430
4434 3 17.240376 46.398932 54.252894
4435 2 23.948532 31.198821 41.377787
4436 3 22.463407 31.618493 42.217319
4437 3 20.801383 33.556914 42.424820
4438 2 33.033161 5.850647 28.898773
4439 3 31.808590 4.038048 26.160055
4440 3 34.072575 3.940556 28.450752
4441 2 51.761625 36.432978 40.420947
4442 3 55.720207 35.320956 41.506919
4443 3 54.618584 37.060448 39.242614
4444 2 8.922208 39.288829 59.649437
4445 3 8.476619 39.354641 61.768788
4446 3 8.891349 39.969508 58.415962
4447 2 -0.496507 50.895363 46.381555
4448 3 -0.622344 52.389678 48.905552
4449 3 -3.600366 48.911132 46.378808
4450 2 -5.474869 28.601910 46.499531
4451 3 -6.090783 27.981879 48.902778
4452 3 -5.524536 27.319687 49.207356
4453 2 19.305022 15.962800 41.243338
4454 3 19.264906 15.599986 39.271117
4455 3 19.626622 17.616412 42.602690
4456 2 35.697953 29.999204 46.402518
4457 3 35.531730 27.714276 44.419442
4458 3 35.365375 29.081761 44.089353
4459 2 19.650792 48.876307 45.540800
4460 3 21.118043 48.884893 45.627357
4461 3 19.213467 51.719835 45.534734
4462 2 10.240738 26.554443 33.251242
4463 3 11.659776 26.500305 37.311968
4464 3 10.118044 25.415083 37.343299
4465 2 13.081031 36.418350 51.296148
4466 3 13.401943 36.526777 53.913606
4467 3 12.291464 35.771805 46.790009
4468 2 -0.542326 29.307898 56.968750
4469 3 0.063254 29.829185 57.359331
4470 3 -0.499692 29.641847 56.656355
4471 2 1.416606 22.579156 47.748761
4472 3 2.407732 22.056162 47.039453
4473 3 3.149847 19.591044 47.825155
4474 2 37.837312 35.237595 41.202412
4475 3 38.993458 34.855266 46.022048
4476 3 37.747508 34.226443 43.777701
4477 2 1.837145 23.536336 52.594972
4478 3 2.316548 23.491939 51.606467
4479 3 0.724280 24.267803 53.928203
4480 2 25.895231 36.471909 54.313243
4481 3 23.499568 36.331476 53.785260
4482 3 22.968045 35.774042 55.019353
4483 2 16.928051 43.856500 51.588382
4484 3 16.903342 44.165371 51.585564
4485 3 16.778596 45.092263 54.112903
4486 2 -5.683519 44.020056 47.671210
4487 3 -6.352877 43.418248 43.978402
4488 3 -7.204000 42.499459 43.620755
4489 2 27.400623 40.548744 50.637673
4490 3 28.933189 38.604277 53.986110
4491 3 26.062807 38.671900 52.668124
4492 2 -6.080207 12.696806 34.941649
4493 3 -6.844930 12.390807 36.165536
4494 3 -5.071664 11.192050 33.186692
4495 2 1.353045 25.516705 45.196758
4496 3 3.323433 23.538409 44.967682
4497 3 3.543031 27.701855 46.479243
4498 2 17.122410 34.148596 33.942168
4499 3 18.617933 35.461068 32.648489
4500 3 20.168135 33.577453 31.012792
4501 2 30.592424 24.400718 56.563654
4502 3 29.909744 24.145540 57.111864
4503 3 28.945404 21.617631 58.411942
4504 2 20.867161 32.552843 38.909932
4505 3 20.574902 32.358799 38.096750
4506 3 21.324261 33.464692 39.317926
4507 2 15.715786 54.008919 62.503337
4508 3 16.001362 52.689784 63.532639
4509 3 16.627967 53.400250 65.239931
4510 2 13.724955 44.703806 49.167186
4511 3 17.784245 43.568647 47.257389
4512 3 16.095426 44.477487 49.180868
4513 2 5.522225 31.194879 44.366454
4514 3 7.028508 30.303212 48.215889
4515 3 6.380041 32.319249 48.486128
4516 2 -1.938010 41.996362 69.901450
4517 3 -2.962704 41.631118 65.750891
4518 3 -0.541449 41.201123 65.915914
4519 2 25.881433 17.271718 37.688930
4520 3 25.879998 19.901916 37.403265
4521 3 25.738654 17.929842 37.975984
4522 2 34.102433 64.556698 63.776954
4523 3 32.706857 64.463187 63.019497
4524 3 30.853156 63.808753 62.572033
4525 2 12.024568 57.786762 47.281932
4526 3 12.631636 57.654930 48.576948
4527 3 12.027853 55.000702 47.128291
4528 2 25.465466 9.027690 30.765530
4529 3 23.446628 7.101525 28.883947
4530 3 24.726018 7.607362 28.538255
4531 2 28.037113 40.101576 37.199357
4532 3 30.195378 39.685756 37.835763
4533 3 28.679053 42.706043 38.688172
4534 2 13.558308 50.748315 40.125046
4535 3 15.243169 50.734650 38.755178
4536 3 14.778191 49.988340 41.485572
4537 2 18.586606 35.940435 59.505527
4538 3 18.060439 37.626362 58.914080
4539 3 17.507122 36.221578 61.194211
4540 2 17.430854 12.723812 30.153725
4541 3 18.418858 14.316582 30.563244
4542 3 18.814789 14.376274 31.630295
4543 2 39.957974 43.228957 52.461448
4544 3 37.850161 43.235095 52.275746
4545 3 39.846120 42.998724 49.920468
4546 2 38.786507 3.821182 59.765208
4547 3 37.309479 5.725991 59.007898
4548 3 40.245115 4.354067 58.342100
4549 2 36.648170 37.054634 44.490924
4550 3 36.172244 35.370617 44.595566
4551 3 37.700162 37.997322 46.685259
4552 2 33.709746 42.955188 71.166597
4553 3 33.303408 44.026444 68.379944
4554 3 31.690901 45.269045 73.448254
4555 2 -8.568093 63.892373 56.056386
4556 3 -6.528492 64.418745 61.084238
4557 3 -5.116526 64.766551 58.423970
4558 2 9.339229 52.110011 24.516024
4559 3 10.300419 51.967208 26.427012
4560 3 8.472226 48.460120 25.827483
4561 2 18.664907 53.763762 65.010553
4562 3 20.417818 55.729965 63.548531
4563 3 18.020497 54.222654 64.943139
4564 2 -4.639396 38.543527 70.876277
4565 3 -3.118956 40.072093 71.149962
4566 3 -4.336349 39.514748 69.360122
4567 2 -15.952768 38.968247 44.745394
4568 3 -13.129722 39.536722 42.967633
4569 3 -15.662982 36.246477 43.371777
4570 2 34.336932 37.789198 59.119559
4571 3 34.612186 38.376116 60.454569
4572 3 33.529881 35.775353 59.461829
4573 2 7.560676 28.192133 36.250603
4574 3 6.609179 29.167896 37.794540
4575 3 7.832611 29.563292 37.721292
4576 2 3.286411 25.194526 44.477595
4577 3 4.093524 25.966027 44.707774
4578 3 4.383098 26.668520 45.825611
4579 2 15.127952 46.673841 45.820729
4580 3 14.801915 48.097969 46.035712
4581 3 14.354805 47.707645 47.780491
4582 2 -1.329429 60.155852 51.823081
4583 3 -1.453040 58.034311 51.736884
4584 3 -0.582105 61.625692 51.413229
4585 2 20.800671 41.791050 49.050973
4586 3 21.821652 43.270073 47.164828
4587 3 19.759158 39.457943 46.706750
4588 2 25.059062 8.787825 11.437336
4589 3 26.030196 9.879171 15.252860
4590 3 26.281965 9.132095 14.584587
4591 2 21.562774 43.888593 58.281179
4592 3 20.537568 39.138983 55.815222
4593 3 20.388477 42.513966 58.658125
4594 2 21.683839 62.705013 44.463768
4595 3 22.622668 60.760074 38.103774
4596 3 22.774218 61.925315 41.827091
4597 2 7.005318 46.517007 68.530676
4598 3 6.850294 47.164616 72.944522
4599 3 7.170869 47.223704 73.067415
4600 2 0.787200 71.425047 33.047669
4601 3 -0.019653 70.782514 33.085513
4602 3 -0.697344 70.562728 34.674059
4603 2 -7.583315 40.724904 30.806391
4604 3 -6.360160 36.312482 29.440643
4605 3 -5.983444 38.703510 28.508596
4606 2 25.542144 29.381946 47.604141
4607 3 24.968059 30.817138 46.971671
4608 3 24.229497 28.872423 48.003902
4609 2 16.609319 22.283750 54.177544
4610 3 17.695757 22.826306 57.231057
4611 3 19.135289 21.616187 57.910397
4612 2 -5.484145 34.846039 33.757673
4613 3 -7.447446 34.003505 34.358702
4614 3 -7.013868 33.800606 34.663987
4615 2 17.577471 9.045698 43.047760
4616 3 18.564524 12.350111 41.218288
4617 3 17.665767 13.111792 40.643719
4618 2 24.160457 60.383867 47.474568
4619 3 21.414642 56.533728 45.660164
4620 3 24.148430 58.554385 43.531892
4621 2 -2.759173 55.166680 60.964215
4622 3 -2.725841 54.881033 57.398797
4623 3 -3.232170 56.136269 59.828096
4624 2 38.032448 74.500486 37.795879
4625 3 39.041479 76.455623 39.739089
4626 3 40.224304 74.722985 38.864334
4627 2 27.569711 62.605433 40.265577
4628 3 27.667032 57.977044 42.111997
4629 3 27.223287 61.534766 45.265251
4630 2 20.949446 26.553966 24.080649
4631 3 21.560966 26.933821 28.144693
4632 3 22.265950 28.391853 23.307784
4633 2 1.065336 5.415102 55.817127
4634 3 0.255259 6.998009 57.071902
4635 3 0.858669 5.651316 56.655117
4636 2 -0.210518 5.603550 41.238169
4637 3 0.605695 7.286966 42.658071
4638 3 1.604766 7.067476 42.636307
4639 2 -8.165178 8.324541 29.300713
4640 3 -7.363672 9.833723 27.146835
4641 3 -9.162284 11.053848 26.480353
4642 2 29.664583 25.286433 48.676636
4643 3 29.643399 24.263274 49.150757
4644 3 29.744561 24.702852 45.531311
4645 2 29.929531 19.123682 34.082903
4646 3 29.093075 20.970114 37.975153
4647 3 28.327553 18.796161 36.953596
4648 2 29.472182 27.311092 61.111524
4649 3 29.020164 26.435100 58.801843
4650 3 30.856065 26.450954 59.117049
4651 2 21.915880 34.330156 60.265369
4652 3 22.526017 35.133407 62.177355
4653 3 22.208787 35.265352 60.403688
4654 2 49.575452 -13.082025 40.209629
4655 3 49.182311 -14.466675 40.919462
4656 3 49.631566 -13.615866 40.347463
4657 2 43.698136 26.285722 32.591825
4658 3 44.304518 26.311762 32.558925
4659 3 44.904718 26.138506 31.455494
4660 2 18.494763 21.688074 51.838154
4661 3 15.314645 21.471304 55.989708
4662 3 16.815816 24.753642 54.660532
4663 2 34.685388 -8.702543 39.261503
4664 3 33.447053 -5.493494 37.876285
4665 3 33.397742 -7.796329 37.972969
4666 2 22.194433 10.576609 39.935595
4667 3 19.427187 12.470638 41.307262
4668 3 20.785932 10.640139 41.553000
4669 2 14.834470 7.752407 36.950744
4670 3 16.819472 7.551539 39.727527
4671 3 17.610337 6.949217 39.107565
4672 2 23.554357 13.981650 70.205742
4673 3 22.579663 13.923109 67.328961
4674 3 22.847675 16.790272 73.862522
4675 2 7.928028 33.178077 47.970329
4676 3 8.743052 34.842996 49.824051
4677 3 11.406822 33.022275 47.734864
4678 2 3.547057 10.414699 52.856384
4679 3 3.383383 13.567265 54.499896
4680 3 1.655516 11.458034 53.945045
4681 2 7.942298 0.005597 40.550238
4682 3 9.365701 1.933719 38.884356
4683 3 9.432994 1.628361 38.778435
4684 2 11.152101 26.573578 59.226856
4685 3 13.156299 25.311922 60.703095
4686 3 12.235083 26.819155 56.812572
4687 2 42.262454 31.631585 67.810662
4688 3 42.261808 32.693826 70.041720
4689 3 42.380099 29.860388 69.596789
4690 2 25.796185 17.398773 75.443724
4691 3 26.241677 17.566817 73.226593
4692 3 26.376502 16.664055 72.915515
4693 2 43.736550 15.415721 50.623564
4694 3 42.060095 15.135254 51.148258
4695 3 43.341796 18.562951 51.257467
4696 2 47.036907 -4.579027 56.233084
4697 3 46.161253 -5.040393 55.336128
4698 3 46.013031 -3.751450 55.853025
4699 2 22.532841 55.258244 39.163319
4700 3 21.829532 54.890232 38.332023
4701 3 23.387532 54.007232 39.528292
4702 2 27.812546 26.157955 45.508945
4703 3 26.854257 27.412413 47.734984
4704 3 28.502524 29.218328 46.518271
4705 2 26.462831 8.358078 37.005322
4706 3 26.757495 7.977461 35.924792
4707 3 26.769602 8.074668 35.664814
4708 2 42.445351 10.006218 50.607615
4709 3 40.445667 11.573459 46.910229
4710 3 42.025667 10.709609 47.845775
4711 2 -10.767555 28.626933 61.612211
4712 3 -12.781953 31.045540 57.769848
4713 3 -15.654053 30.411318 53.601818
4714 2 39.843744 16.660984 54.054286
4715 3 40.088250 18.005647 53.604445
4716 3 40.310201 16.362270 54.133018
4717 2 28.910348 31.003876 41.390987
4718 3 29.978437 30.373937 41.692234
4719 3 29.609727 29.181577 41.057813
4720 2 7.691063 -0.313210 70.393663
4721 3 10.942066 -2.266161 71.116200
4722 3 11.221654 -4.257884 72.481660
4723 2 -13.071211 24.384101 58.261840
4724 3 -14.161261 25.054741 59.440587
4725 3 -13.854507 26.482191 60.044904
4726 2 13.131023 28.268443 54.377948
4727 3 11.646426 26.423769 52.894879
4728 3 11.890939 26.123487 52.806221
4729 2 21.492459 25.116970 54.105423
4730 3 22.359051 25.179508 51.871002
4731 3 20.617801 24.701250 50.347416
4732 2 1.220300 32.739008 40.617184
4733 3 -0.915917 31.126429 41.412474
4734 3 -1.046804 31.688559 42.022102
4735 2 21.766237 22.904420 58.937754
4736 3 21.877960 23.560211 57.137043
4737 3 23.202456 23.402668 61.262643
4738 2 19.102946 27.372956 41.095900
4739 3 18.961725 25.409643 43.170175
4740 3 17.968592 29.200545 43.037628
4741 2 22.880906 14.483269 55.558162
4742 3 21.228740 15.301515 52.684228
4743 3 23.532100 13.691303 54.468368
4744 2 40.171716 32.151250 43.866458
4745 3 40.320195 32.234545 41.441856
4746 3 40.050557 30.877952 41.705535
4747 2 32.446308 33.343630 49.687841
4748 3 32.342732 34.909239 46.387646
4749 3 32.065531 32.905830 46.296931
4750 2 14.185942 32.905245 39.408024
4751 3 14.706851 32.244670 36.146704
4752 3 14.515540 32.238034 39.972976
4753 2 13.735917 18.604692 60.264760
4754 3 13.806167 19.430625 61.762667
4755 3 15.431542 19.117956 60.703598
4756 2 22.430128 30.896176 60.381989
4757 3 24.442829 29.767460 61.682858
4758 3 22.217139 30.661023 61.406290
4759 2 17.517240 22.519208 49.639940
4760 3 16.170535 20.940316 50.622118
4761 3 16.700491 21.443823 49.344470
4762 2 -7.149781 14.137727 72.128531
4763 3 -5.813680 14.941081 67.246999
4764 3 -5.318890 19.734287 68.771000
4765 2 14.498242 24.853820 47.060421
4766 3 13.227190 26.810351 48.718138
4767 3 11.974681 25.910799 48.073458
4768 2 24.298960 32.015019 42.226746
4769 3 25.931338 29.421672 43.393778
4770 3 25.248169 30.230868 44.347036
4771 2 28.817177 41.127428 55.710956
4772 3 28.448269 41.766392 54.530445
4773 3 29.581584 41.014466 55.208163
4774 2 22.427545 30.845266 29.763200
4775 3 18.717193 29.954989 30.890688
4776 3 20.332100 30.053315 28.092287
4777 2 10.699748 8.160448 59.688702
4778 3 11.398783 7.179392 57.210131
4779 3 12.081429 8.895583 61.425941
4780 2 35.331872 14.050605 32.172156
4781 3 34.449610 12.554413 33.465962
4782 3 33.407183 12.549826 34.512238
4783 2 43.771569 -1.011842 36.507414
4784 3 43.701491 -0.232020 33.777206
4785 3 42.941929 2.004776 34.940443
4786 2 48.397222 31.700232 21.934495
4787 3 49.723391 31.690954 21.286043
4788 3 48.857239 32.819354 23.932937
4789 2 -9.291682 44.275703 46.292643
4790 3 -8.517387 40.858554 46.365735
4791 3 -9.753373 45.137946 44.317266
4792 2 12.093988 32.875030 19.518974
4793 3 11.849051 33.215918 19.103918
4794 3 11.773718 32.165216 17.535225
4795 2 -8.366152 42.160573 59.211896
4796 3 -8.807662 39.476517 56.646894
4797 3 -8.132251 39.996613 55.580175
4798 2 8.876452 35.569274 36.665467
4799 3 8.752689 34.954625 38.727046
4800 3 7.364423 37.414428 37.332968
4801 2 41.329722 35.619405 52.378363
4802 3 41.973809 33.550361 53.884378
4803 3 40.589039 34.542141 54.471849
4804 2 18.258331 30.288222 46.077394
4805 3 18.055285 29.958009 46.304969
4806 3 17.609895 30.688521 44.031580
4807 2 20.728588 20.048308 47.600589
4808 3 21.588534 19.032361 49.119876
4809 3 22.990136 19.252462 49.654683
4810 2 33.314319 16.149516 48.665258
4811 3 34.520674 15.665206 47.956481
4812 3 33.706475 16.079270 45.315391
4813 2 28.170912 22.244713 28.213306
4814 3 28.218850 21.869513 27.698606
4815 3 29.139598 19.395944 26.977707
4816 2 14.308453 32.347354 53.514666
4817 3 14.084756 32.397413 56.067217
4818 3 14.182831 31.582478 53.725285
4819 2 13.285108 55.176369 50.008947
4820 3 13.554476 55.633915 49.946149
4821 3 13.310389 55.345935 51.184384
4822 2 2.825242 18.807345 44.837111
4823 3 4.436706 18.811491 45.504616
4824 3 4.131474 17.710574 44.019100
4825 2 22.916434 31.340061 65.941355
4826 3 21.739678 31.839331 66.542364
4827 3 23.371066 30.804969 69.529827
4828 2 35.034177 10.713197 41.140601
4829 3 35.594836 8.739676 37.559921
4830 3 33.181467 7.631354 40.746240
4831 2 17.464364 43.757689 46.703701
4832 3 16.507206 44.650187 48.358694
4833 3 16.367865 41.956687 49.789272
4834 2 20.239051 23.826811 17.016153
4835 3 20.601941 23.737544 17.063204
4836 3 20.860351 23.987328 19.402536
4837 2 35.092139 16.546436 40.596538
4838 3 31.551828 17.013351 41.305283
4839 3 32.157193 16.964225 40.238649
4840 2 15.698160 39.466193 19.983180
4841 3 14.909030 38.284805 20.977311
4842 3 13.944969 41.154399 20.017967
4843 2 -9.973484 38.253560 42.215008
4844 3 -9.239476 37.867022 41.018402
4845 3 -10.315707 38.074492 42.626911
4846 2 13.235667 36.715926 45.555404
4847 3 13.643381 35.036532 44.685855
4848 3 14.011284 35.506034 43.321147
4849 2 9.612433 27.682829 38.378723
4850 3 10.398088 26.390478 38.907223
4851 3 9.867042 29.809144 42.146462
4852 2 20.622024 46.203373 43.926502
4853 3 22.564309 48.393059 47.956292
4854 3 21.963480 49.953677 48.789191
4855 2 29.264581 37.505916 43.843698
4856 3 29.270080 36.357801 40.121600
4857 3 28.627377 35.608342 40.649059
4858 2 56.146512 0.063217 47.773641
4859 3 56.950686 -0.647385 47.387206
4860 3 54.070606 -0.278011 43.583895
4861 2 46.762322 39.862742 70.105212
4862 3 45.743785 38.430770 71.130768
4863 3 46.535166 38.687310 69.232768
4864 2 4.038007 33.687930 44.662233
4865 3 3.857548 32.707359 41.779119
4866 3 2.909076 33.073774 43.963207
4867 2 -1.386357 46.931992 43.721760
4868 3 0.569432 47.719460 43.527837
4869 3 -0.978357 47.917924 42.073684
4870 2 -7.451303 38.466656 30.757692
4871 3 -8.574271 38.880026 27.801219
4872 3 -9.551065 38.482599 30.538077
4873 2 16.014076 41.559490 65.856481
4874 3 16.604435 43.088384 65.265869
4875 3 14.201309 41.484425 65.762151
4876 2 42.005660 34.452943 40.679970
4877 3 44.456419 34.759689 35.305970
4878 3 42.992129 34.917618 36.459600
4879 2 25.750775 42.875033 58.838396
4880 3 24.951888 44.603711 59.429742
4881 3 26.633906 42.557537 54.635350
4882 2 16.005533 42.287606 59.795279
4883 3 16.730127 43.960995 60.673646
4884 3 17.434854 43.182175 61.558637
4885 2 40.540163 38.742140 41.812032
4886 3 41.548251 38.080948 44.798582
4887 3 41.674222 40.186889 41.197940
4888 2 -4.579488 19.329680 46.543017
4889 3 -2.738833 20.476532 47.720167
4890 3 -4.942249 19.189362 47.489246
4891 2 -4.296993 34.562783 42.697249
4892 3 -2.911317 33.898917 45.068851
4893 3 -4.631443 33.483021 42.472624
4894 2 15.131751 33.065770 38.823427
4895 3 16.044662 32.984507 38.185004
4896 3 16.310563 31.600689 35.521405
4897 2 9.870664 46.429548 26.442568
4898 3 10.375113 47.908499 26.537386
4899 3 8.226579 46.311922 27.048262
4900 2 44.907861 32.783132 42.105799
4901 3 44.429226 31.299742 42.804748
4902 3 47.007918 32.602830 42.960511
4903 2 50.038868 68.186390 43.037653
4904 3 49.981137 67.862098 44.575934
4905 3 52.278091 69.026597 44.624478
4906 2 20.581400 3.566822 62.616829
4907 3 21.430640 4.694504 63.672766
4908 3 21.499312 2.412315 62.454722
4909 2 38.474213 26.663841 48.281268
4910 3 38.670357 25.806214 49.890498
4911 3 38.339504 26.879449 50.294759
4912 2 3.635121 26.937355 58.038816
4913 3 2.714810 26.442699 56.302451
4914 3 2.865343 25.390790 57.213973
4915 2 8.630379 49.808690 45.337552
4916 3 8.043984 50.552828 44.064434
4917 3 6.007217 49.448269 43.825140
4918 2 4.388724 35.860636 42.954945
4919 3 4.211461 35.852507 42.759352
4920 3 5.163981 34.291547 43.520410
4921 2 10.314104 50.038150 34.130275
4922 3 11.820183 50.201451 32.880706
4923 3 9.818940 49.413043 37.824766
4924 2 -2.022659 26.263176 61.913620
4925 3 -2.767787 26.534837 61.160753
4926 3 -0.316365 28.987938 60.750687
4927 2 12.414019 31.521369 55.538059
4928 3 13.389375 30.306326 56.277947
4929 3 14.396889 31.246805 54.278129
4930 2 23.828738 58.485152 43.614368
4931 3 23.666950 56.509055 41.987143
4932 3 25.412304 57.464595 41.039640
4933 2 33.925562 46.002707 45.350996
4934 3 32.918310 43.852374 48.142181
4935 3 34.325368 44.479233 45.669508
4936 2 11.111449 12.672005 45.609300
4937 3 9.669282 12.413407 45.702266
4938 3 11.375148 12.581440 47.728595
4939 2 20.654842 35.198991 46.915066
4940 3 21.863592 33.406729 46.841010
4941 3 20.877403 36.010877 46.822812
4942 2 30.284675 64.716498 44.042709
4943 3 30.686155 66.696765 42.399844
4944 3 31.134258 65.527115 42.169631
4945 2 32.375904 30.019139 50.469709
4946 3 35.204256 29.102821 51.330210
4947 3 34.266027 28.341297 53.245356
4948 2 30.525866 26.030691 51.883227
4949 3 30.803992 28.944955 51.719664
4950 3 33.087726 26.829192 52.529452
4951 2 15.675047 54.957237 53.014548
4952 3 16.885647 53.184737 55.337696
4953 3 14.810740 51.291226 53.415139
4954 2 10.864551 39.427880 57.991485
4955 3 11.119468 38.095042 57.652642
4956 3 11.214640 35.297428 57.190270
4957 2 20.366512 36.857782 54.489685
4958 3 19.961819 35.997562 55.164169
4959 3 20.168354 35.059756 54.900835
4960 2 25.679935 12.260450 47.213036
4961 3 26.232513 12.940079 48.568628
4962 3 26.332630 11.990802 48.374747
4963 2 -5.433222 40.257224 55.947313
4964 3 -8.497325 43.575550 52.068422
4965 3 -7.648444 45.007022 51.558384
4966 2 -5.587508 41.499528 28.333418
4967 3 -6.763053 39.296730 29.909812
4968 3 -6.183732 38.717047 28.502054
4969 2 19.962555 20.183501 42.277959
4970 3 20.207172 22.441384 44.221974
4971 3 17.098597 20.550412 41.698452
4972 2 26.283940 36.062912 48.095323
4973 3 24.537973 33.467843 48.040923
4974 3 30.390178 33.758955 44.357507
4975 2 -0.872924 18.466642 45.283640
4976 3 -2.060720 19.969515 46.110508
4977 3 0.646998 19.135702 45.277270
4978 2 20.309954 13.851156 48.763628
4979 3 21.065929 14.349457 48.347263
4980 3 20.614223 12.744878 49.480420
4981 2 21.137810 28.482085 52.973525
4982 3 22.197188 30.484004 55.686367
4983 3 20.668169 27.661606 56.768461
4984 2 23.395942 34.099609 81.760755
4985 3 25.296562 37.210913 79.004584
4986 3 26.127002 34.294472 81.125462
4987 2 29.323883 33.798531 48.791562
4988 3 27.251410 31.127213 47.776729
4989 3 27.713119 32.634322 49.166337
4990 2 16.375825 46.843673 27.190723
4991 3 14.913520 47.132210 29.408667
4992 3 16.591643 46.335462 27.721465
4993 2 2.898311 36.905666 30.290117
4994 3 2.702406 35.479298 30.602469
4995 3 1.687247 36.628946 32.819590
4996 2 30.571875 39.214526 57.903369
4997 3 30.874127 39.011077 56.529168
4998 3 29.442277 39.009369 57.171027
4999 2 15.465923 19.825256 63.578847
5000 3 18.784241 19.280394 60.868173
5001 3 17.139064 22.141156 59.757084
5002 2 36.549433 51.907718 43.686971
5003 3 35.465955 50.499261 42.404528
5004 3 35.315218 53.211455 41.922350
5005 2 33.501975 33.422969 57.760384
5006 3 32.201117 33.708377 54.273740
5007 3 32.139269 33.376841 56.907190
5008 2 46.291616 30.838150 10.361880
5009 3 46.570047 30.874693 13.079641
5010 3 47.815436 30.700680 10.840100
5011 2 13.141041 55.518739 36.059579
5012 3 14.847077 56.135900 35.210460
5013 3 13.344403 59.349743 34.343704
5014 2 27.203014 19.072016 50.784696
5015 3 26.237591 19.099724 51.081165
5016 3 27.205224 20.741697 50.280300
5017 2 45.787949 36.453787 46.131986
5018 3 45.572796 35.712817 47.752991
5019 3 44.743401 36.264425 46.844193
5020 2 41.739338 18.450554 17.768108
5021 3 42.622389 18.394125 19.552276
5022 3 40.550446 18.825963 17.004516
5023 2 34.247368 54.117375 36.997902
5024 3 34.498841 52.849885 38.157703
5025 3 34.220822 52.568583 35.167723
5026 2 43.417420 46.203344 35.141095
5027 3 42.712216 46.142293 37.944064
5028 3 42.321245 44.775238 36.449695
5029 2 -3.994162 60.733884 55.278768
5030 3 -1.926727 62.420454 55.039025
5031 3 -4.032610 59.977365 53.421840
5032 2 18.291525 50.406867 56.141465
5033 3 17.260111 54.647986 56.639463
5034 3 18.443777 52.251137 54.597118
5035 2 -1.944060 68.124459 44.254676
5036 3 -2.077821 69.054455 41.468371
5037 3 -1.475115 71.176240 42.802982
5038 2 31.346887 22.272993 33.871507
5039 3 30.601523 24.056379 31.922860
5040 3 32.085478 22.380104 33.015429
5041 2 13.918450 40.515338 50.533988
5042 3 12.822636 41.001902 54.491103
5043 3 13.163413 44.356248 51.211988
5044 2 9.980230 35.907054 40.401252
5045 3 7.141741 35.616198 40.136957
5046 3 8.696428 35.930634 40.372216
5047 2 31.920889 56.732269 44.601114
5048 3 32.317550 57.331717 45.448772
5049 3 32.239348 52.696653 44.820285
5050 2 16.430416 37.080002 23.302186
5051 3 20.133638 35.983074 20.395287
5052 3 18.359199 36.150656 22.238513
5053 2 4.354078 53.655519 46.345592
5054 3 3.835287 56.766874 50.215968
5055 3 3.435058 56.857788 46.023425
5056 2 24.856617 45.807143 42.157651
5057 3 24.317597 46.265153 42.947823
5058 3 23.016412 45.900714 46.186963
5059 2 58.103292 6.267283 41.789262
5060 3 57.185301 4.415286 41.462983
5061 3 58.455221 4.543215 41.165677
5062 2 24.631767 37.721482 20.546320
5063 3 25.032343 38.311158 19.097769
5064 3 26.286768 35.718836 18.868431
5065 2 53.610114 33.678314 49.855671
5066 3 53.837411 33.268161 53.504935
5067 3 54.128836 32.309390 53.824433
5068 2 16.916643 32.833147 59.297867
5069 3 17.967191 30.901380 63.322368
5070 3 20.599753 34.059923 59.379299
5071 2 -3.585605 34.150491 36.125356
5072 3 -2.144100 32.786432 35.544942
5073 3 -2.926750 33.594775 33.318327
5074 2 17.446292 5.312144 69.111933
5075 3 17.879368 7.735751 69.321420
5076 3 16.570424 6.232328 70.371595
5077 2 34.904652 6.168957 57.474871
5078 3 34.956410 7.422888 55.422442
5079 3 34.391012 7.814529 53.142686
5080 2 27.458545 19.135409 50.152035
5081 3 27.403299 19.486913 48.580975
5082 3 25.887733 20.703137 49.758301
5083 2 6.170811 11.745432 40.114826
5084 3 5.051077 12.097653 44.078805
5085 3 6.011709 12.501609 43.739637
5086 2 23.922478 25.251422 42.484793
5087 3 23.264388 25.660657 42.679369
5088 3 22.243398 26.572044 39.764855
5089 2 40.932924 -5.669533 32.804100
5090 3 39.637318 -4.363586 35.927551
5091 3 39.102788 -6.871039 32.923814
5092 2 16.365546 20.371009 50.304105
5093 3 16.836699 23.828679 48.701587
5094 3 17.828316 21.740796 51.413845
5095 2 28.152585 29.061614 65.066826
5096 3 26.829949 27.744395 64.351979
5097 3 31.145501 26.533203 65.059339
5098 2 21.418382 -6.020262 33.064362
5099 3 22.748322 -8.792776 35.089467
5100 3 21.047893 -9.503273 34.228007
5101 2 51.411838 22.585949 53.824782
5102 3 51.364716 20.161414 59.819442
5103 3 52.562703 21.654560 58.780508
5104 2 40.217920 20.083648 52.313535
5105 3 41.754816 21.351737 52.389265
5106 3 40.889046 18.286710 52.225852
5107 2 12.859044 10.696944 59.574481
5108 3 12.233116 10.036665 59.390693
5109 3 13.395710 10.901452 59.003045
5110 2 0.745555 13.439478 75.892323
5111 3 0.238695 13.481435 77.081107
5112 3 0.255605 14.308920 75.868160
5113 2 1.316824 -1.278128 59.180131
5114 3 0.469298 -0.762351 61.295677
5115 3 0.289046 1.007829 56.436727
5116 2 31.982677 41.969426 41.914600
5117 3 30.908637 43.213591 43.611418
5118 3 30.306686 43.892831 42.622443
5119 2 34.983354 3.562702 39.384313
5120 3 35.191241 4.439787 35.875768
5121 3 35.311776 1.331566 35.575672
5122 2 35.636520 25.704574 56.948146
5123 3 35.491242 24.699350 54.359729
5124 3 35.938498 24.340811 57.342109
5125 2 45.789767 38.885040 46.774182
5126 3 46.155845 36.233116 45.127329
5127 3 45.178416 39.366981 46.756261
5128 2 34.935393 29.993113 62.867819
5129 3 34.687825 28.699253 60.764756
5130 3 34.923924 28.611161 63.245765
5131 2 13.799867 36.844670 51.550288
5132 3 14.171302 37.124397 50.555501
5133 3 14.161629 36.163269 51.475506
5134 2 22.320572 28.782011 34.330793
5135 3 20.433185 28.756545 31.117466
5136 3 20.475278 28.322422 33.608204
5137 2 42.438640 9.844838 67.452924
5138 3 43.210387 11.125352 66.891946
5139 3 41.469839 9.592093 66.782795
5140 2 24.345871 24.642004 55.958970
5141 3 23.961745 25.473017 59.194113
5142 3 23.804725 26.109548 58.036422
5143 2 37.901899 15.047778 46.115022
5144 3 38.617212 13.196167 45.336002
5145 3 37.549662 14.547546 45.853893
5146 2 6.017944 8.800133 41.958661
5147 3 8.414972 8.076756 39.102001
5148 3 7.657979 9.949758 41.215252
5149 2 6.245373 16.299984 66.112148
5150 3 4.479175 12.610436 68.197248
5151 3 2.263256 15.137928 66.166881
5152 2 -21.410027 24.809651 55.277758
5153 3 -20.212302 25.637382 53.948969
5154 3 -20.916717 23.698540 58.205147
5155 2 13.375132 16.393679 47.123418
5156 3 11.899921 16.344081 48.734595
5157 3 13.912365 19.179669 51.531484
5158 2 19.725033 23.633736 64.060557
5159 3 18.746907 19.656931 63.797583
5160 3 16.968691 22.681922 66.456088
5161 2 15.539315 40.838151 48.917968
5162 3 17.078626 41.993255 49.474795
5163 3 16.122597 41.835169 49.982035
5164 2 -7.592851 28.938500 42.911824
5165 3 -8.561505 27.511948 43.487132
5166 3 -7.245468 27.734715 40.447169
5167 2 27.531741 16.925862 52.707567
5168 3 30.697032 15.918500 54.051523
5169 3 28.934436 14.653143 53.074885
5170 2 9.872650 27.703573 55.000721
5171 3 8.847445 27.979528 53.243103
5172 3 9.927992 25.816261 53.991207
5173 2 25.613723 11.958581 45.091978
5174 3 25.828475 12.024086 46.716557
5175 3 25.708238 13.624854 45.719359
5176 2 26.977293 26.799042 62.541062
5177 3 27.695443 25.702489 60.885859
5178 3 26.843123 25.635928 60.884692
5179 2 23.723217 -4.009953 50.382347
5180 3 23.212179 -3.234225 51.214167
5181 3 25.068088 -4.966529 51.599649
5182 2 43.013811 19.941081 37.410628
5183 3 43.012002 20.751525 39.519816
5184 3 40.176139 22.336880 36.822064
5185 2 23.816383 8.924742 54.583498
5186 3 24.062244 6.619032 54.117110
5187 3 23.971777 9.347023 54.538974
5188 2 6.401900 37.841684 60.061358
5189 3 5.439405 37.832246 59.487011
5190 3 6.214853 38.495148 58.903697
5191 2 -10.879202 22.898962 62.017859
5192 3 -10.112280 23.001954 60.368118
5193 3 -9.648843 24.195432 60.026221
5194 2 2.441879 39.520731 47.275068
5195 3 3.906075 38.964339 45.800155
5196 3 2.646851 38.777832 44.604797
5197 2 28.623192 47.917099 38.520103
5198 3 28.606623 47.718679 38.221640
5199 3 29.562766 49.029148 37.373127
5200 2 -2.409483 43.492348 44.995166
5201 3 -5.627918 42.854059 44.748983
5202 3 -5.127351 44.860794 43.366518
5203 2 23.942920 16.308894 68.901325
5204 3 23.251021 15.959908 66.074175
5205 3 22.116478 15.931510 65.430311
5206 2 33.024455 10.919846 45.052736
5207 3 31.945384 9.893595 43.826381
5208 3 32.150462 11.246646 45.511436
5209 2 22.209328 15.257506 31.144960
5210 3 22.108863 15.372550 31.461923
5211 3 20.437945 14.625569 31.930725
5212 2 28.919522 36.437277 69.365561
5213 3 30.626389 35.651198 64.481971
5214 3 29.527254 35.025428 64.158282
5215 2 30.221065 18.547842 45.622469
5216 3 28.514143 19.050049 45.997106
5217 3 30.792831 16.475834 46.957941
5218 2 20.305008 15.694508 25.160942
5219 3 22.744948 17.041619 26.072647
5220 3 22.608624 16.873960 26.908957
5221 2 43.244220 8.986896 40.145154
5222 3 43.418431 7.720387 39.206787
5223 3 43.410016 9.654980 39.350844
5224 2 -5.047936 22.984332 45.530947
5225 3 -3.961563 24.183746 47.368826
5226 3 -5.555563 23.566611 47.070205
5227 2 2.546096 34.204741 51.744022
5228 3 3.456661 32.183291 49.851335
5229 3 1.439708 33.636926 50.278351
5230 2 27.115158 41.394374 58.386407
5231 3 29.174582 40.668434 58.363592
5232 3 27.369781 42.539098 57.852075
5233 2 34.333761 26.607091 39.242315
5234 3 34.517691 27.542070 41.033321
5235 3 33.622153 28.923800 42.240165
5236 2 35.235554 15.819580 32.950668
5237 3 36.422131 17.749270 33.540807
5238 3 35.561971 14.846336 32.285781
5239 2 30.469215 41.836189 46.354085
5240 3 30.955383 44.668295 43.481336
5241 3 30.656447 43.414107 46.422453
5242 2 15.793944 36.608821 45.148221
5243 3 15.608467 35.258058 43.867791
5244 3 13.622339 35.227813 42.003777
5245 2 33.715990 14.585040 46.880245
5246 3 33.901522 15.033392 47.855280
5247 3 32.565956 13.098655 45.085939
5248 2 41.588719 37.878812 35.577962
5249 3 43.485711 37.081699 38.411385
5250 3 43.199478 38.075944 36.870129
5251 2 5.395140 41.829509 49.796314
5252 3 6.171031 43.382033 50.955317
5253 3 6.076541 40.760566 49.459069
5254 2 14.752950 18.596773 30.586960
5255 3 13.917562 18.175432 30.215118
5256 3 14.162142 17.330521 30.710033
5257 2 32.525332 25.537694 38.153821
5258 3 33.538404 25.612140 32.946869
5259 3 33.464672 24.869562 36.408510
5260 2 56.288812 25.170283 28.527459
5261 3 56.678612 25.763532 26.830195
5262 3 56.544595 25.956233 25.562058
5263 2 24.938252 25.588615 39.894501
5264 3 24.035112 23.677038 40.342394
5265 3 23.272402 25.940027 40.276180
5266 2 12.366239 16.408812 52.584713
5267 3 12.478134 17.136045 47.964911
5268 3 13.365619 16.299767 48.362161
5269 2 10.935891 37.290528 57.362468
5270 3 11.328739 35.418810 56.556525
5271 3 9.837222 36.537850 58.787331
5272 2 28.237018 20.024766 29.742721
5273 3 29.831608 20.479691 27.493462
5274 3 30.364278 19.901111 28.094432
5275 2 20.675501 44.836008 66.994948
5276 3 22.311744 43.774437 65.478991
5277 3 23.094571 43.568601 67.768684
5278 2 8.571313 43.325631 31.037441
5279 3 9.927600 40.532671 29.922249
5280 3 7.522342 42.734637 31.879383
5281 2 38.658743 15.647932 45.124640
5282 3 38.352206 15.864119 43.080825
5283 3 38.941987 15.344698 43.998436
5284 2 24.732468 37.389683 51.274094
5285 3 23.912828 34.270622 53.582012
5286 3 25.441121 33.694961 51.518849
5287 2 27.050166 32.151074 53.217858
5288 3 23.516530 27.226566 52.749526
5289 3 24.531273 30.351922 53.281307
5290 2 55.998629 57.221581 37.577956
5291 3 55.855833 55.520024 39.969002
5292 3 53.626072 55.772917 36.812238
5293 2 -14.705385 34.176977 44.795583
5294 3 -13.554674 34.526492 50.944352
5295 3 -14.932691 32.907623 48.726404
5296 2 -10.242711 59.472875 55.901106
5297 3 -10.286280 61.067390 57.631743
5298 3 -12.426937 60.569351 52.888105
5299 2 19.611205 36.639601 70.674886
5300 3 16.778587 36.511989 72.910331
5301 3 18.298678 37.878448 69.320373
5302 2 5.025061 48.887455 41.587728
5303 3 3.748867 48.616199 41.307790
5304 3 5.415629 47.167813 42.128027
5305 2 -5.149088 30.688725 53.295713
5306 3 -9.739590 28.107473 54.388865
5307 3 -7.477309 28.344096 52.202407
5308 2 62.551506 25.311096 47.917412
5309 3 60.744571 24.201915 47.594144
5310 3 62.514342 24.658421 47.195530
5311 2 23.570219 6.432174 35.256714
5312 3 25.175593 10.801114 39.790613
5313 3 24.495006 6.272311 39.773292
5314 2 24.839328 24.906654 48.287390
5315 3 26.133234 25.640831 44.971437
5316 3 26.370825 26.751841 50.226504
5317 2 22.668070 26.178994 51.084080
5318 3 22.467591 26.372131 50.141795
5319 3 23.918853 24.604823 50.635671
5320 2 15.540433 22.089633 79.823730
5321 3 17.171352 22.019084 81.802308
5322 3 13.824234 21.014960 77.209365
5323 2 16.479330 49.676299 72.253846
5324 3 17.729649 50.276175 72.611878
5325 3 15.724231 51.341854 71.358813
5326 2 16.169649 41.698788 41.715130
5327 3 16.148315 45.247652 43.760520
5328 3 16.697920 42.212066 41.433086
5329 2 16.462800 28.882503 54.966323
5330 3 13.746435 24.788942 56.610706
5331 3 16.496063 25.352344 54.641515
5332 2 30.769671 46.901734 38.452557
5333 3 29.712742 47.863019 38.421741
5334 3 31.897396 49.084030 36.839638
5335 2 23.688847 18.958617 34.130833
5336 3 21.587286 21.126421 33.486458
5337 3 23.064724 20.737603 34.480746
5338 2 17.737498 30.477970 56.794197
5339 3 20.024612 30.685239 61.978962
5340 3 16.568922 30.933441 57.507930
5341 2 23.611541 39.933147 58.769050
5342 3 23.766952 42.623878 60.891344
5343 3 23.344885 40.814427 60.204580
5344 2 52.239458 51.617586 29.209757
5345 3 52.068638 51.688388 29.063694
5346 3 53.808919 52.173321 31.595482
5347 2 15.695541 35.044014 56.170365
5348 3 17.546261 35.795466 54.878465
5349 3 16.227346 35.665898 54.302755
5350 2 20.746438 43.448497 60.487666
5351 3 20.443701 42.237940 63.975337
5352 3 20.043291 44.112518 61.123674
5353 2 10.656352 33.170524 42.565978
5354 3 9.020850 31.969823 43.962871
5355 3 11.684472 32.286430 43.996467
5356 2 9.095428 27.742753 54.943551
5357 3 9.418213 26.340202 53.241214
5358 3 8.744521 25.709078 51.229415
5359 2 13.361408 38.382363 42.912347
5360 3 13.402835 41.819139 42.444485
5361 3 12.459946 41.182105 42.907977
5362 2 27.354044 48.042215 35.655006
5363 3 25.238926 49.766327 32.410746
5364 3 25.991142 48.364728 37.109228
5365 2 8.003454 48.276243 24.782527
5366 3 7.548533 48.549795 25.515637
5367 3 8.324315 50.500620 24.886929
5368 2 27.569971 19.541339 54.261428
5369 3 28.559190 20.289080 53.428955
5370 3 27.157085 17.960663 53.984377
5371 2 -13.731878 43.351039 61.511059
5372 3 -10.251517 44.007895 63.413492
5373 3 -12.209620 44.895318 63.978322
5374 2 20.462163 33.732055 46.575425
5375 3 21.891837 34.290937 46.048481
5376 3 22.332799 35.667643 46.168158
5377 2 15.406152 40.735196 45.266596
5378 3 15.224340 41.960790 47.684874
5379 3 14.549969 42.212999 46.558774
5380 2 38.128607 27.995090 43.164873
5381 3 37.819447 30.053193 39.117054
5382 3 38.258585 30.517009 41.575232
5383 2 51.627691 38.715829 11.439106
5384 3 52.016752 41.219104 10.779818
5385 3 53.462570 42.118459 12.799558
5386 2 12.668139 44.590772 48.998150
5387 3 8.984162 46.177805 48.050359
5388 3 10.823328 44.262000 49.393450
5389 2 0.483145 51.882600 50.717837
5390 3 -1.110209 51.784438 52.077154
5391 3 0.367555 49.458914 51.210479
5392 2 7.587488 33.514446 61.249552
5393 3 4.831720 32.949291 62.063859
5394 3 5.826397 34.024355 64.358690
5395 2 0.007512 48.356145 59.504111
5396 3 0.250570 45.936271 62.483174
5397 3 -1.779718 47.536205 62.988899
5398 2 24.526009 46.491486 43.696329
5399 3 25.932785 46.772309 44.370543
5400 3 25.652425 47.002690 44.486713
5401 2 23.068027 6.151806 35.635379
5402 3 21.708167 9.441687 35.083704
5403 3 22.374787 8.418509 36.238291
5404 2 9.999609 22.229729 43.900566
5405 3 10.529359 20.914149 44.724876
5406 3 9.404525 21.810393 46.538487
5407 2 34.947024 27.704195 40.987669
5408 3 35.305294 27.858393 41.276145
5409 3 35.673521 29.082745 39.718995
5410 2 12.325610 23.507409 53.206891
5411 3 13.738696 25.089054 56.063379
5412 3 11.252223 23.460281 54.202703
5413 2 23.487248 5.354792 45.232315
5414 3 23.311092 5.863305 44.988690
5415 3 24.644859 4.099977 46.210256
5416 2 20.392623 54.000397 24.769723
5417 3 19.680306 50.283419 24.359422
5418 3 18.331414 49.755012 26.278871
5419 2 21.804972 24.266893 30.289180
5420 3 20.615298 22.971238 30.073396
5421 3 23.105892 23.290894 30.138512
5422 2 32.680809 14.924267 44.322963
5423 3 32.801500 16.627641 43.588153
5424 3 35.215532 14.503345 43.856093
5425 2 4.517704 26.758699 48.075405
5426 3 3.008193 28.315491 48.056099
5427 3 5.266984 25.373498 45.138257
5428 2 13.851647 42.314269 45.488731
5429 3 14.472380 41.958006 42.499815
5430 3 14.196269 42.788528 41.078931
5431 2 11.394947 57.897039 25.302484
5432 3 11.112039 58.677874 28.121550
5433 3 9.218447 56.081697 27.674816
5434 2 21.046436 36.740624 39.470573
5435 3 21.233274 36.861595 41.320736
5436 3 18.908871 39.147686 41.601225
5437 2 19.356725 21.269599 55.774035
5438 3 21.229105 21.530391 54.151089
5439 3 20.506636 20.938103 54.470571
5440 2 14.873935 39.051787 57.827366
5441 3 14.689015 42.303443 58.892026
5442 3 15.097500 40.505282 58.998271
5443 2 45.134015 16.151395 50.180760
5444 3 42.637480 14.694098 53.113666
5445 3 43.157226 14.696045 52.568729
5446 2 -5.130571 49.470272 58.791829
5447 3 -4.768335 50.131006 57.070061
5448 3 -5.137379 49.814981 58.440044
5449 2 9.407393 43.136433 35.454285
5450 3 11.514025 43.625034 38.668638
5451 3 8.723272 44.846660 35.368310
5452 2 12.089787 30.306775 59.216481
5453 3 13.073355 31.048584 56.238516
5454 3 12.157148 32.954743 60.253496
5455 2 14.877272 14.292470 33.589608
5456 3 14.804161 14.476460 35.451770
5457 3 16.558922 16.638325 33.886547
5458 2 22.285010 24.906619 50.763002
5459 3 19.264668 25.134045 51.941366
5460 3 17.076829 26.803378 49.562104
5461 2 16.623620 32.423528 33.217087
5462 3 17.394169 36.468355 34.480136
5463 3 17.321979 35.310311 33.778374
5464 2 22.700135 48.337609 34.797541
5465 3 24.183196 48.024709 37.357397
5466 3 23.897906 50.811749 38.473276
5467 2 -2.655727 49.837339 53.165903
5468 3 -3.225397 47.568917 52.566958
5469 3 -1.849167 49.701036 53.576474
5470 2 12.332611 29.191208 62.475028
5471 3 9.087479 30.720767 64.032754
5472 3 10.619257 29.683309 61.326016
5473 2 25.205267 34.730483 56.874252
5474 3 23.135622 34.938556 56.696181
5475 3 27.251924 34.728839 55.941884
5476 2 21.352027 28.468425 54.035343
5477 3 22.362168 30.023974 54.640442
5478 3 22.681049 30.086083 52.480013
5479 2 4.449841 19.949188 44.330305
5480 3 1.755456 23.661957 46.023984
5481 3 4.491237 22.092843 45.204469
5482 2 24.425808 37.183969 48.228815
5483 3 23.942949 36.996076 49.744893
5484 3 24.784228 36.415296 50.590889
5485 2 30.996448 32.959350 52.097608
5486 3 32.489229 36.139201 50.153302
5487 3 31.085386 34.045021 52.789075
5488 2 21.701454 38.550893 18.249901
5489 3 21.600004 37.889925 20.394652
5490 3 21.647963 38.980388 20.952251
5491 2 34.940252 29.352685 55.325827
5492 3 36.300610 28.450034 56.791814
5493 3 35.431259 27.841787 54.741438
5494 2 27.356449 38.307300 67.664962
5495 3 26.354775 37.818174 65.008638
5496 3 27.240543 38.329175 63.482109
5497 2 45.966242 60.091686 20.274377
5498 3 44.462339 59.052420 22.498304
5499 3 45.869572 57.233087 19.059292
5500 2 0.138980 48.903944 9.133138
5501 3 0.564882 47.619239 12.309204
5502 3 -0.389092 49.798469 12.358660
5503 2 12.510997 37.777098 30.134739
5504 3 11.178140 36.502971 27.446001
5505 3 12.662392 37.245774 28.728471
5506 2 -4.597055 39.308310 53.817313
5507 3 -5.970786 40.513380 53.466064
5508 3 -5.019948 39.945324 55.668579
5509 2 26.309861 57.476781 44.092803
5510 3 28.160954 56.773670 44.801474
5511 3 26.725180 55.630281 47.315932
5512 2 12.483358 42.110634 56.395383
5513 3 11.987161 41.874930 58.393396
5514 3 12.216948 43.813082 58.409617
5515 2 13.264844 57.589300 56.288578
5516 3 13.816373 58.520418 55.883214
5517 3 14.650687 57.548009 56.526547
5518 2 27.114747 49.925216 75.263419
5519 3 27.520374 49.762772 79.637903
5520 3 27.473751 51.236426 76.291194
5521 2 2.130420 37.441575 55.479334
5522 3 1.979271 37.895376 53.922666
5523 3 1.877008 38.144083 52.759208
5524 2 37.629045 37.081960 34.950511
5525 3 36.585550 35.705790 33.313497
5526 3 38.012628 37.616056 34.414411
5527 2 25.827008 47.370596 30.435465
5528 3 27.596760 44.966850 28.715272
5529 3 27.628278 46.145606 32.151312
5530 2 35.313648 41.909865 47.810083
5531 3 34.586229 43.716068 47.718299
5532 3 32.323744 42.572255 48.376433
5533 2 53.831874 37.423049 51.212735
5534 3 52.717035 38.915408 53.824562
5535 3 53.250448 37.007362 53.828045
5536 2 47.197312 50.895867 36.742686
5537 3 46.704119 51.478100 36.954875
5538 3 49.688671 50.334588 37.517905
5539 2 21.510906 40.935590 49.583923
5540 3 22.625736 41.037309 48.292847
5541 3 21.904447 42.806145 49.069510
