20559
 Atoms. Timestep: 102000
C -3.22117 -18.904 -9.16292
C -2.35977 -19.141 -10.2613
C -2.98778 -19.8941 -11.2656
C -5.74896 -18.8654 -9.08407
C -5.64599 -17.5537 -8.4327
C -4.34718 -17.1087 -8.0817
C -3.1384 -17.7128 -8.44432
C -1.36684 -18.1773 -10.5995
C -1.29678 -16.9281 -9.78028
C -2.16641 -16.6843 -8.70194
C -2.77835 -19.53 -12.6617
C -1.84722 -18.4614 -12.967
C -6.90084 -18.6881 -10.0181
C -5.22294 -19.5873 -13.1312
C -3.95279 -19.4841 -13.5934
C -6.65218 -16.6597 -8.85921
C -7.50288 -17.3278 -9.78849
C -2.73752 -15.3787 -8.41812
C -4.15038 -15.6727 -8.07228
C -6.3224 -18.6545 -13.5881
C -7.17217 -18.4257 -12.4677
C -2.36049 -17.6831 -14.0817
C -3.69261 -18.3197 -14.3626
C -5.14771 -14.7309 -8.48725
C -6.42892 -15.2987 -8.90566
C -7.84747 -17.245 -12.261
C -7.95157 -16.6397 -10.9258
C -4.72189 -17.416 -14.9676
C -6.09262 -17.6664 -14.5758
C -1.31691 -15.6577 -13.192
C -2.0894 -16.359 -14.1702
C -1.63686 -14.4748 -10.5471
C -2.56249 -14.2706 -9.42213
C -7.03884 -14.5123 -9.94109
C -7.61433 -15.2266 -10.9875
C -2.0623 -13.7066 -11.7432
C -2.04484 -14.2719 -13.0239
C -3.24005 -15.528 -14.53
C -4.46132 -16.0143 -15.0344
C -6.67545 -16.3324 -14.3447
C -7.50788 -16.1907 -13.1871
C -5.67727 -15.345 -14.5318
C -3.20369 -14.2405 -13.9482
C -6.74624 -19.2087 -11.3019
C -5.49144 -19.9084 -11.7169
C -4.39543 -20.0022 -10.881
C -4.60694 -19.5072 -9.43277
C -1.2149 -17.7937 -11.9555
C -0.931276 -16.3702 -12.0369
C -1.00219 -15.7816 -10.6629
C -7.42411 -14.9191 -12.4144
C -5.67061 -14.1848 -13.7413
C -6.55573 -13.8462 -12.7129
C -6.02257 -13.5606 -10.3022
C -4.91232 -13.662 -9.42666
C -5.79833 -13.2131 -11.6133
C -3.60597 -13.391 -9.83561
C -3.39153 -13.0373 -11.2391
C -4.42458 -13.5707 -13.5259
C -4.45127 -13.0409 -12.2063
O -13.8565 -16.7767 24.6357
H -14.033 -17.0349 25.5404
H -14.1264 -15.8594 24.5909
O -21.4207 -15.1829 19.1459
H -21.3266 -14.2464 18.9721
H -22.3575 -15.3526 19.0459
O -20.7614 -26.9103 26.7565
H -19.9045 -26.5668 27.0095
H -21.3579 -26.5894 27.4329
O -26.8231 -0.223613 25.2441
H -26.5005 -0.661606 26.0317
H -27.5855 -0.737849 24.9787
O 27.1196 -1.72785 0.713383
H 26.9092 -2.62579 0.457112
H 27.5365 -1.34886 -0.0604223
O 20.6559 -10.7121 -18.7904
H 19.8855 -11.2685 -18.6756
H 21.3565 -11.1743 -18.3302
O -0.296774 23.6606 -2.52195
H -1.10374 23.3311 -2.12638
H 0.258864 22.8866 -2.61386
O -3.44116 9.66561 12.9674
H -4.14736 10.0193 13.5082
H -3.31537 10.3192 12.2795
O 20.724 0.352648 9.2915
H 21.3212 -0.19081 8.77747
H 21.2793 1.04301 9.65373
O 22.6747 -17.0387 -16.2065
H 23.1549 -17.2491 -15.4056
H 22.1625 -16.2618 -15.9821
O -23.1622 25.1147 5.76283
H -22.995 25.9063 5.2513
H -22.4986 24.4922 5.4655
O 17.1121 4.82318 16.1109
H 16.8386 5.22052 16.9377
H 17.8277 4.2351 16.3525
O 26.3512 -23.6486 24.3315
H 26.722 -23.7361 23.4534
H 25.4257 -23.868 24.2241
O 21.3231 5.37468 9.55161
H 21.9176 6.12449 9.57697
H 20.5666 5.6506 10.0691
O -20.8131 -28.2164 2.35355
H -21.3296 -28.7001 1.70901
H -20.8829 -27.3019 2.0796
O 26.8388 -28.4233 -29.2683
H 25.9874 -28.6313 -29.6533
H 26.7143 -27.5671 -28.859
O 0.21183 5.18116 -15.0028
H 0.608084 5.04724 -15.8638
H 0.270168 4.32629 -14.5762
O 14.5535 -29.9193 -28.8242
H 13.7459 -29.4533 -29.0406
H 15.0026 -29.3456 -28.2033
O 29.5657 -19.3946 -9.40292
H 29.3696 -19.1084 -10.2951
H -29.8019 -18.7533 -9.07873
O -15.4101 1.97256 28.7914
H -16.0641 2.44808 28.2792
H -15.0916 1.2906 28.2001
O -26.7587 20.4744 -25.6404
H -27.5564 21.0007 -25.6953
H -26.9054 19.8935 -24.8939
O 8.28179 -17.0852 20.5899
H 8.1593 -17.2447 19.654
H 8.29675 -16.1316 20.6709
O -13.113 -27.9327 13.203
H -13.0996 -28.4233 14.0248
H -12.2679 -27.4839 13.1776
O -11.4386 15.8238 -1.85683
H -10.9817 15.5749 -1.05339
H -12.3333 16.0145 -1.5749
O -15.3034 2.8049 11.7518
H -15.3027 1.89315 12.0433
H -15.0484 2.76244 10.8302
O 11.5197 -23.9859 -4.30887
H 12.2254 -24.2278 -4.90859
H 11.9586 -23.5193 -3.59757
O -17.3427 -13.6304 17.1976
H -16.6898 -13.0331 16.8327
H -18.0339 -13.0571 17.5289
O -19.1588 27.4217 28.4387
H -19.2716 27.2918 29.3803
H -18.2114 27.3955 28.3045
O -4.14035 -18.6364 5.76362
H -4.47339 -17.7392 5.74355
H -4.90054 -19.1694 5.99649
O 24.9564 7.77497 29.991
H 24.9388 7.2338 -29.2196
H 25.4156 8.57175 -29.7435
O -11.3437 -8.07215 3.74444
H -11.5416 -7.16168 3.96375
H -12.0518 -8.33698 3.15738
O -17.4496 -21.9211 -27.0801
H -18.092 -21.3672 -26.6364
H -17.9583 -22.6619 -27.4097
O 27.042 -28.1384 -19.3557
H 27.786 -28.7312 -19.2499
H 27.4358 -27.2685 -19.4224
O -1.61471 -27.9282 23.5091
H -1.06896 -28.4159 24.126
H -2.06181 -28.6033 22.9986
O -13.041 -28.8921 -11.0054
H -13.9875 -29.0297 -10.9671
H -12.6951 -29.3968 -10.2693
O 7.55026 -9.46028 -9.64691
H 6.73141 -8.96513 -9.67001
H 7.7744 -9.5102 -8.71766
O -26.463 22.956 16.943
H -26.2278 22.2994 17.5986
H -27.4192 22.9902 16.9699
O -27.5708 25.0762 -27.4978
H -27.873 25.8166 -28.0239
H -27.9678 24.3099 -27.9117
O -18.0159 1.45797 4.65833
H -17.3884 1.89589 4.08322
H -18.8363 1.46142 4.16527
O 17.9724 -3.15876 14.856
H 18.7305 -3.72372 15.0052
H 18.1895 -2.34209 15.3056
O -26.6647 -7.15183 -4.28353
H -25.8012 -6.80487 -4.05939
H -27.183 -6.37902 -4.50799
O -19.5364 -27.3941 -2.40511
H -19.1789 -27.3177 -1.52048
H -18.7693 -27.5165 -2.96429
O -9.24045 23.686 23.8368
H -9.25633 22.7853 23.5132
H -8.6552 24.1468 23.2357
O 19.6657 14.6431 -0.239586
H 18.8756 14.111 -0.332699
H 20.3756 14.0722 -0.533521
O 7.61956 20.8817 -23.7371
H 7.62022 20.2555 -23.013
H 8.15579 20.4674 -24.4131
O 2.65488 -20.3706 -26.0705
H 2.26138 -21.0061 -26.6685
H 3.54453 -20.2483 -26.4018
O 25.5461 -18.2375 -20.5711
H 25.5286 -17.8084 -19.7157
H 25.5915 -19.1722 -20.3698
O 2.06961 -2.44069 6.7794
H 2.14463 -1.74719 7.43488
H 2.60154 -3.15705 7.12598
O -8.06805 15.2898 -26.7723
H -7.18518 15.3295 -26.4046
H -8.4168 14.4515 -26.4692
O -6.08761 -2.13407 1.59525
H -6.67809 -1.7772 2.25872
H -5.48626 -1.41595 1.39795
O 2.42938 -25.2788 26.1363
H 2.15618 -24.7064 25.4194
H 1.68624 -25.2792 26.7396
O 5.74059 21.2385 10.3702
H 6.55258 20.8493 10.0456
H 5.97435 22.1432 10.5778
O 6.81937 -4.09541 -23.0075
H 7.18118 -3.25519 -23.2892
H 6.4643 -3.92351 -22.1354
O -24.5748 -5.7535 22.2548
H -24.9892 -6.00311 21.4288
H -24.304 -4.84496 22.1225
O -20.134 14.8195 15.1342
H -20.3236 14.3792 14.3057
H -20.2336 15.7513 14.939
O 13.1146 -23.2608 -18.54
H 13.9496 -23.1546 -18.9958
H 13.3078 -23.0358 -17.6299
O -5.27278 -23.1931 -9.06882
H -5.62819 -24.0728 -8.94259
H -5.38214 -23.022 -10.0042
O -23.8844 21.9834 -18.3015
H -23.9104 22.5269 -17.514
H -23.8611 22.61 -19.0248
O -14.8297 5.56838 -27.9953
H -15.3562 4.79607 -27.7891
H -14.4167 5.80596 -27.1652
O 4.51679 -15.7449 -14.5622
H 4.47992 -15.4216 -13.662
H 5.33693 -15.3944 -14.9097
O 25.2379 -6.02395 24.78
H 24.8796 -6.84985 25.1052
H 24.5182 -5.39898 24.868
O -23.68 -14.9165 29.6637
H -23.7053 -14.0703 29.217
H -22.8482 -15.3056 29.3938
O -10.9384 -14.9465 25.8364
H -11.3435 -14.9219 24.9695
H -11.288 -14.1775 26.2865
O 4.95412 0.779848 21.8285
H 4.45263 1.54813 21.5555
H 4.32753 0.0573815 21.7877
O 3.59653 18.1153 -5.50785
H 2.88586 18.7564 -5.52224
H 4.20738 18.4191 -6.17929
O 19.9648 -15.5991 16.7215
H 19.9194 -14.9382 16.0306
H 19.147 -16.0896 16.6384
O 16.4445 -8.84121 12.2779
H 16.2404 -9.77239 12.1913
H 15.9901 -8.42674 11.5444
O 22.1257 -11.8856 22.4729
H 21.5158 -11.4617 23.0767
H 21.6556 -12.6586 22.1603
O -15.9472 -4.9277 0.753211
H -15.3932 -5.19733 0.0206501
H -16.5439 -5.66415 0.886606
O 5.81311 10.729 17.4318
H 6.53805 10.2328 17.0517
H 6.23056 11.3266 18.0521
O 28.1082 -23.0109 -15.7243
H 27.7509 -22.3768 -15.1027
H 27.7038 -23.8427 -15.4777
O 23.9165 0.653369 -4.84731
H 23.1663 0.274199 -5.3052
H 23.6442 0.690754 -3.93042
O 16.9906 -0.735564 21.8646
H 16.2812 -0.227556 21.4709
H 16.5988 -1.13143 22.6431
O -8.7834 20.4631 18.6106
H -8.53656 21.3622 18.394
H -9.74056 20.4711 18.6138
O 18.4355 27.5939 -13.4336
H 19.3661 27.3777 -13.3756
H 18.4152 28.4596 -13.8416
O -4.80633 5.05141 -15.3579
H -5.22136 4.66247 -16.1278
H -4.93782 4.40653 -14.6629
O 8.97738 -18.9509 -5.14836
H 9.47238 -18.2545 -4.71674
H 9.28258 -19.7564 -4.73098
O 22.8993 -6.9974 -5.66045
H 23.5452 -6.9682 -4.95458
H 23.2444 -7.64522 -6.27484
O 24.5713 -2.76871 -22.3391
H 24.6389 -3.17394 -23.2036
H 24.1789 -3.44504 -21.787
O -22.4283 -10.3355 17.5705
H -22.316 -11.2017 17.1789
H -22.1525 -10.4459 18.4804
O -26.5971 -0.33763 -10.3041
H -26.8582 -0.772327 -9.49224
H -27.4179 -0.197996 -10.7763
O 29.5822 1.70835 -19.0554
H 29.2881 0.841371 -18.7759
H 29.4967 1.69503 -20.0087
O -9.50051 -12.3942 25.3338
H -8.80826 -12.3922 24.6727
H -9.74976 -13.3146 25.4175
O -25.0599 -20.7631 -11.1376
H -24.8073 -20.6795 -10.2182
H -25.0897 -21.7071 -11.2934
O -14.1644 20.1748 17.8251
H -14.6463 20.828 18.3324
H -14.734 19.9812 17.0805
O 24.4788 4.64678 -0.963554
H 23.5875 4.36019 -0.764291
H 24.4328 5.60273 -0.94715
O -8.37879 21.6241 -12.4434
H -7.74247 21.2984 -11.8068
H -7.97773 21.4489 -13.2947
O 13.2798 8.25508 -19.6542
H 13.0509 8.60686 -20.5145
H 14.1578 7.89164 -19.7694
O -3.35066 18.7559 7.76868
H -3.80503 19.4147 8.29385
H -3.49 19.033 6.86313
O -8.78383 -21.2963 1.05854
H -8.31665 -21.3566 1.89181
H -8.54386 -20.4376 0.7104
O -21.7306 7.6149 -21.2999
H -20.7982 7.82542 -21.35
H -22.1069 8.0024 -22.0901
O 0.240161 -6.6289 18.4821
H -0.67528 -6.42936 18.2861
H 0.655395 -6.71744 17.6242
O 23.5647 -3.75644 -7.09287
H 24.0015 -3.65427 -7.93841
H 24.2636 -3.6511 -6.44737
O 19.1286 22.8695 6.89198
H 18.4308 23.1434 6.29676
H 18.7017 22.7984 7.74574
O 15.8535 -15.7916 20.7023
H 16.4267 -15.3849 20.0525
H 16.403 -16.4488 21.1293
O -25.7564 -0.419745 -17.9812
H -26.3243 0.350694 -17.9959
H -25.5189 -0.560347 -18.8977
O 10.5922 0.485113 13.3032
H 9.99371 1.22565 13.2052
H 11.4644 0.879608 13.3018
O -3.81323 -16.3193 -20.918
H -3.82952 -15.8073 -20.1095
H -3.9416 -17.2237 -20.632
O -3.02751 1.03008 8.14907
H -3.25682 1.84631 8.59339
H -2.28368 0.687754 8.64481
O -5.78075 -7.12321 -10.1684
H -5.35237 -7.09674 -9.31281
H -5.91051 -6.20365 -10.4004
O 11.0815 9.07873 -24.2614
H 11.8367 9.5795 -23.9528
H 11.2349 8.19041 -23.9395
O -17.0293 -5.19987 5.70114
H -17.6904 -5.07292 5.02059
H -16.2579 -4.73586 5.37591
O 0.681735 -6.79278 -4.91639
H 1.53444 -7.20642 -5.05065
H 0.740428 -5.96282 -5.38963
O 20.5564 11.4964 28.1493
H 19.6429 11.7815 28.1276
H 20.6243 10.9687 28.945
O -3.0779 14.3345 -26.355
H -3.26717 14.0289 -27.2421
H -2.73087 13.5644 -25.9048
O 22.6771 -0.345362 19.1348
H 22.878 -0.760338 19.9737
H 22.0639 -0.945736 18.7108
O -16.1191 -7.81005 28.4182
H -16.7078 -7.86306 29.171
H -15.2411 -7.81198 28.7995
O -28.1984 -9.05927 25.0888
H -27.9691 -9.8544 24.6077
H -28.5387 -9.37496 25.9259
O -11.4754 -22.3652 -12.9497
H -11.8735 -21.9712 -12.1734
H -11.016 -21.6422 -13.3769
O -13.7717 -19.3244 -3.84408
H -14.2272 -19.165 -4.67074
H -13.275 -20.1286 -3.99493
O 6.62103 -4.07805 -1.59987
H 6.62678 -3.74525 -0.702404
H 6.09472 -4.87638 -1.55642
O 10.3701 7.74565 -26.7916
H 10.1974 8.07048 -25.9079
H 11.3148 7.59271 -26.8108
O 0.193985 -13.374 7.178
H -0.181856 -12.6275 6.71138
H -0.558017 -13.8095 7.57939
O -2.11141 -19.147 20.8552
H -2.63893 -19.3511 20.083
H -1.92805 -19.9984 21.2524
O -21.9929 -27.7089 20.0879
H -21.5802 -26.8458 20.0578
H -21.314 -28.2876 20.435
O -16.6836 -28.3806 -14.3514
H -16.5192 -27.5626 -14.8205
H -15.8977 -28.9058 -14.502
O 25.8157 -4.46988 -9.49902
H 25.3708 -4.51089 -10.3456
H 26.4718 -5.16572 -9.53876
O 17.0166 -11.8168 26.8118
H 17.3528 -10.9209 26.8348
H 16.4082 -11.8638 27.5493
O 2.10815 29.9014 -27.0334
H 2.71015 -29.9551 -27.7636
H 1.25382 29.7787 -27.4473
O -23.3308 -14.796 7.01757
H -24.0665 -14.2122 6.83252
H -22.8846 -14.3912 7.7614
O -18.546 -5.75299 25.6895
H -19.158 -5.039 25.5108
H -19.057 -6.54917 25.5437
O -22.9814 -18.0576 27.3931
H -22.3772 -18.7628 27.161
H -23.2666 -18.2687 28.2821
O -29.5853 -3.61135 -11.6726
H -28.8222 -3.93544 -11.1942
H -29.2331 -3.30925 -12.5098
O 8.70638 -20.488 -10.6977
H 8.22514 -19.6614 -10.7347
H 9.39937 -20.3337 -10.0556
O 25.561 -18.9737 9.4664
H 24.7501 -19.2141 9.01814
H 26.0628 -19.7877 9.50773
O -9.19219 -27.1436 -27.06
H -9.80437 -27.028 -26.3333
H -8.6385 -27.8773 -26.7929
O 13.5308 4.23302 9.06711
H 12.7887 4.58967 9.55526
H 14.2976 4.65736 9.45215
O 28.0519 -6.58362 -9.59808
H 27.8841 -5.95804 -10.3029
H 28.0833 -7.43468 -10.0351
O 15.3059 7.58533 15.0124
H 15.5837 6.86023 14.4527
H 14.8318 7.16615 15.7306
O 27.4262 16.95 25.5736
H 27.4101 17.2277 24.6576
H 26.6444 16.4069 25.6735
O -11.7943 5.83314 16.1226
H -10.9913 6.21038 16.4821
H -11.5427 5.51481 15.2557
O -8.14265 -5.33061 -7.45608
H -7.83212 -4.62545 -6.88814
H -7.37819 -5.89317 -7.58004
O 25.9217 -24.4333 28.3778
H 26.2393 -24.221 29.2555
H 25.0253 -24.7398 28.5145
O -7.03839 21.9802 2.56924
H -6.93266 22.4303 3.40735
H -6.5058 21.1892 2.65278
O 26.8726 1.68738 -21.0538
H 26.709 1.26387 -20.2111
H 27.3217 1.02116 -21.574
O -2.31563 -27.2747 -19.7302
H -1.71001 -27.8946 -20.1365
H -1.81341 -26.4633 -19.6542
O 23.309 -3.55973 25.6543
H 22.7371 -3.24046 26.3523
H 22.7505 -4.13388 25.1302
O 0.900798 -0.290539 25.8508
H 0.31714 -0.667863 26.509
H 1.60655 0.11088 26.3577
O -20.5956 -1.19275 18.6351
H -20.0821 -0.607511 18.0782
H -21.4927 -1.10441 18.3132
O 3.58147 -26.402 -22.5723
H 2.68527 -26.5096 -22.2537
H 3.74348 -27.1831 -23.1014
O 1.88275 -26.4625 -27.5565
H 2.77805 -26.3477 -27.238
H 1.91971 -27.2516 -28.0971
O -5.19072 -12.0128 -20.4151
H -6.08215 -11.7081 -20.2456
H -4.86233 -11.4269 -21.097
O -29.3465 -4.51012 -22.4953
H -29.2556 -4.43235 -23.445
H 29.7969 -4.12817 -22.3041
O 9.05462 -29.3113 -9.3843
H 8.86721 -28.6726 -8.69647
H 8.67865 29.8701 -9.06054
O -14.4326 -3.0509 -11.2569
H -13.5474 -3.06604 -10.8929
H -14.9368 -2.52078 -10.6397
O -24.0188 -13.4151 13.7064
H -24.9431 -13.6452 13.8006
H -23.8955 -13.2978 12.7644
O 14.8987 -7.21607 25.3586
H 15.6803 -7.49295 24.8804
H 14.2518 -7.03505 24.6767
O -17.0366 3.50342 27.1857
H -17.0428 4.45918 27.1337
H -17.9527 3.26482 27.3273
O -19.1812 7.39922 18.2217
H -18.4161 7.44932 18.7947
H -19.8334 6.92091 18.7336
O 12.0136 -14.1008 4.91352
H 12.5932 -14.1319 5.67467
H 11.4787 -13.3189 5.051
O -17.7289 -13.7172 0.903725
H -17.4966 -14.6409 0.808923
H -18.4973 -13.7203 1.47449
O 16.437 -26.8022 20.2078
H 16.9305 -25.9877 20.3042
H 16.6634 -27.3133 20.9848
O -2.89679 16.7169 -24.3881
H -3.15485 17.0964 -23.5481
H -3.58432 16.0809 -24.5854
O 0.68284 -14.4009 11.7856
H 1.54884 -14.6166 11.4395
H 0.723209 -14.6539 12.7079
O 29.7495 14.1803 5.3485
H 29.4553 15.0532 5.08808
H -29.8335 14.3118 6.20001
O 18.087 -24.9114 21.3233
H 18.9087 -24.8559 20.8355
H 18.321 -24.6606 22.2169
O -11.9314 18.9023 12.2753
H -11.6013 18.4986 13.0781
H -11.783 19.8397 12.3995
O -16.5022 -2.19612 0.0745672
H -15.6141 -1.8397 0.0511809
H -16.4112 -3.0379 0.521071
O -17.1721 27.0443 -14.3143
H -17.7493 26.3318 -14.5889
H -17.764 27.7705 -14.1181
O 15.1792 -4.40208 5.46387
H 14.485 -4.0752 6.03617
H 15.3628 -3.67446 4.86967
O 4.03117 -22.5398 -4.8844
H 4.21347 -23.3164 -5.41357
H 4.0304 -22.8591 -3.98202
O 14.6221 16.9932 12.8545
H 15.3468 17.2214 12.2723
H 14.5992 17.7013 13.4982
O 21.1703 -16.8873 25.0039
H 20.4302 -17.4364 25.2625
H 20.7847 -16.212 24.4458
O 1.29016 8.90687 27.3226
H 1.52116 8.23075 26.6856
H 0.337507 8.85091 27.3971
O -12.2438 -16.7745 -23.7839
H -12.8367 -16.899 -23.0428
H -12.7908 -16.9195 -24.5559
O -13.7453 -19.6507 -28.9653
H -14.1021 -20.4991 -28.7024
H -14.1394 -19.4793 -29.8206
O 18.2026 5.6928 22.1905
H 17.5717 4.97314 22.2071
H 18.4357 5.82891 23.1088
O 11.3384 -6.72685 11.1437
H 11.9264 -6.56729 11.8819
H 10.6804 -7.33127 11.4872
O -27.6191 -12.6529 -24.2109
H -28.0326 -13.4528 -23.8862
H -28.3315 -12.015 -24.2541
O 14.8311 -2.29833 -8.65153
H 15.3328 -3.11119 -8.71313
H 14.5858 -2.23709 -7.72833
O -19.7475 7.8206 2.29538
H -19.7791 8.53395 2.93285
H -19.0822 7.22308 2.63664
O -15.9868 22.6915 -18.894
H -15.553 21.9767 -19.3599
H -15.3121 23.3647 -18.8055
O -8.78721 1.48839 9.33297
H -9.34802 2.25841 9.23919
H -8.66892 1.16734 8.43901
O -24.5073 28.615 18.5452
H -24.7594 28.7054 17.6263
H -23.6183 28.2612 18.5165
O -21.6356 -5.70214 -17.0064
H -22.2925 -6.32708 -16.6997
H -21.3292 -6.06464 -17.8377
O 22.2372 23.0377 19.0617
H 21.6401 23.5221 19.6318
H 22.4529 23.6536 18.3615
O -23.3607 13.2433 7.12899
H -24.3163 13.2961 7.14831
H -23.1733 12.4909 6.56772
O 11.8924 5.24086 -14.8544
H 11.4281 4.52367 -14.4227
H 11.1992 5.82486 -15.1619
O -4.01705 29.424 24.5988
H -4.69912 29.9004 25.0722
H -4.18589 29.6164 23.6765
O -8.60494 10.0671 -6.14243
H -9.04271 9.48301 -5.52326
H -8.57293 10.9121 -5.69372
O 7.75533 14.8128 19.7164
H 7.91608 14.0503 20.2723
H 7.02802 15.2691 20.1395
O -7.99548 -1.30335 3.52152
H -8.83007 -1.27945 3.05341
H -7.99745 -2.14758 3.97265
O -17.5639 -3.46541 23.7124
H -18.4641 -3.71897 23.9163
H -17.625 -2.54346 23.4624
O -24.1164 -25.3843 12.3112
H -23.6341 -24.9289 13.0013
H -24.3364 -26.2341 12.6929
O 0.760903 -22.7048 29.9132
H 1.04226 -22.4005 -29.224
H 1.07008 -22.0304 29.3083
O 5.74366 7.22849 20.9941
H 4.92545 6.99525 20.5555
H 6.00679 6.42995 21.4516
O -17.1608 -3.30594 12.0463
H -16.469 -3.91434 11.7865
H -17.9571 -3.66796 11.6578
O 13.5756 -14.1009 12.7878
H 12.948 -14.7509 13.1039
H 14.2764 -14.6176 12.3901
O -11.206 -12.2065 15.3255
H -11.5206 -12.5833 14.5037
H -10.279 -12.0275 15.168
O 26.1311 -6.18028 -3.91926
H 26.5295 -5.80563 -4.70488
H 25.4582 -5.54814 -3.6666
O 0.306945 1.47788 29.9766
H 0.0815152 0.882692 -29.3085
H 0.0577417 2.34436 -29.702
O 3.58656 18.4308 6.34737
H 3.62556 18.3819 7.30252
H 4.09657 19.21 6.12593
O 17.6006 -4.27419 -25.6505
H 16.9221 -4.87766 -25.9535
H 17.6256 -4.39795 -24.7017
O -11.2782 28.1977 -12.5941
H -10.6353 27.6868 -13.0858
H -11.4164 28.9831 -13.1235
O -21.3964 -10.6504 -20.7133
H -21.9213 -11.4477 -20.6425
H -21.9808 -10.0141 -21.1254
O 1.69992 -19.1244 -6.37083
H 0.930743 -18.5818 -6.19706
H 2.01354 -18.8294 -7.22573
O 18.1529 -8.6796 -17.1269
H 18.9432 -8.2237 -17.4163
H 17.9314 -9.26118 -17.8542
O 20.1597 -1.47895 -25.7295
H 19.3483 -1.0476 -25.9972
H 20.003 -2.40872 -25.8944
O 8.85292 -15.2918 -4.34368
H 7.97842 -15.2934 -4.73288
H 8.69578 -15.246 -3.40058
O -1.59417 -17.7044 16.6706
H -2.02095 -16.983 17.1329
H -2.2635 -18.3868 16.6207
O 22.6035 8.37871 6.29314
H 21.6525 8.3262 6.38864
H 22.7366 8.78475 5.43661
O -19.8205 -1.44529 -11.5535
H -18.9881 -1.45609 -12.0259
H -19.8704 -0.567388 -11.1753
O -7.78447 18.28 9.20097
H -8.50081 18.9031 9.079
H -7.59001 18.3182 10.1374
O 9.06038 1.4116 6.4679
H 8.29649 1.81134 6.05207
H 9.69736 1.31743 5.75965
O 11.7306 -27.6326 -9.79837
H 11.0976 -27.6018 -10.5157
H 11.3642 -28.2668 -9.18209
O -4.86559 18.2304 -11.397
H -4.96909 17.6376 -10.6526
H -5.46281 18.9551 -11.2115
O 14.7237 16.0645 -21.7848
H 14.2455 15.2431 -21.8978
H 14.4332 16.3964 -20.9353
O 7.2824 -18.4761 13.6526
H 6.8392 -18.1572 12.8664
H 8.08627 -18.8813 13.3272
O -29.6283 23.0986 -6.7229
H -29.2383 23.5606 -7.46497
H -29.9328 23.7943 -6.14024
O 27.1208 4.34528 -21.6109
H 26.7434 4.40536 -22.4885
H 27.162 3.40601 -21.4312
O -29.0861 20.2062 -12.5816
H -29.2235 21.1471 -12.6914
H -28.4517 20.138 -11.868
O 4.93885 -9.12707 -12.1364
H 5.40675 -8.33628 -12.4046
H 4.83553 -9.63038 -12.944
O -15.055 -6.59759 -8.71157
H -15.989 -6.79608 -8.77901
H -14.9084 -5.90946 -9.36058
O -6.99717 10.3578 -11.9063
H -7.16479 11.2157 -12.2964
H -6.79689 9.79065 -12.651
O 0.55509 27.0788 25.1575
H 0.0770273 26.3518 24.7585
H -0.0551466 27.4447 25.7978
O 7.97564 -16.2158 28.4161
H 8.2966 -16.6151 29.2247
H 7.05928 -16.487 28.3618
O -2.10579 26.1976 15.1028
H -1.71301 26.581 15.887
H -2.79613 26.8126 14.855
O -5.60617 -4.45331 2.81482
H -4.96072 -4.63283 3.49849
H -5.4798 -3.52859 2.60233
O -8.00006 -18.6886 25.2689
H -8.15625 -19.506 24.7961
H -8.75058 -18.1368 25.0487
O 10.135 25.8464 -12.1486
H 9.55488 26.4402 -12.6252
H 9.58471 25.4757 -11.4587
O 10.6513 -11.3399 -25.0391
H 9.88884 -11.3484 -24.4605
H 10.5117 -12.0791 -25.631
O 22.1648 1.50522 -28.6576
H 21.5563 1.04335 -28.0808
H 21.609 2.08573 -29.1774
O 11.3574 29.1555 21.8072
H 10.7509 29.679 21.2834
H 10.8476 28.3894 22.0705
O 11.143 10.8223 23.565
H 10.6974 11.5838 23.9362
H 10.4698 10.1425 23.5327
O -17.5342 -7.44719 10.4627
H -17.4963 -6.63982 9.94991
H -17.4449 -7.15895 11.3711
O 23.8531 27.0488 6.24298
H 24.0716 26.9637 7.171
H 23.3854 26.2409 6.03146
O 28.3327 14.039 14.2539
H 28.0192 13.2804 13.7615
H 28.7125 13.6679 15.0503
O 28.3207 29.7204 -26.3671
H 28.3999 29.0928 -25.6487
H 29.0204 29.4797 -26.9743
O 19.9588 17.7967 21.2428
H 20.836 17.8435 21.623
H 20.0673 18.1206 20.3486
O -25.9731 -16.3529 -18.7915
H -26.5739 -15.7691 -19.2546
H -25.4619 -15.7727 -18.2273
O 16.9477 23.0636 29.1947
H 16.5687 23.0227 28.3167
H 17.8383 23.3862 29.0569
O -3.88204 28.3199 -26.5139
H -3.16439 28.5806 -25.9366
H -3.95673 27.3735 -26.3916
O 10.9404 -29.2181 -4.05752
H 11.6367 -29.775 -3.70919
H 10.1533 -29.761 -4.01155
O 6.904 6.15333 -5.41009
H 7.09229 5.39389 -4.8587
H 7.76005 6.43186 -5.73542
O -4.62562 -12.8841 17.6876
H -5.18138 -13.3208 18.3331
H -4.48157 -13.5438 17.0093
O -28.9688 -16.7146 -29.7419
H -29.6342 -17.147 -29.2065
H -28.1681 -16.7696 -29.2203
O 1.68394 12.4881 2.26579
H 1.1942 12.3557 3.0775
H 1.01787 12.4732 1.5785
O -0.164442 26.9713 16.8274
H 0.272128 27.5853 16.237
H -0.161488 27.4121 17.6771
O -29.3355 -6.81089 -8.09247
H -29.7859 -6.17648 -8.65007
H -29.9007 -6.89976 -7.32508
O -12.927 -17.7592 9.67819
H -12.9774 -18.6571 10.0062
H -12.3494 -17.8139 8.91686
O 11.5424 2.54588 -5.37253
H 11.4258 1.77754 -5.93135
H 11.1032 3.25407 -5.84354
O 12.5019 2.64673 12.3858
H 13.078 2.42985 11.6528
H 11.9774 3.3823 12.0693
O -8.0771 16.1779 28.4048
H -7.92355 16.9014 29.0124
H -7.28283 15.6464 28.4589
O 23.6549 -7.28032 18.3364
H 23.413 -6.82277 19.1416
H 22.895 -7.17642 17.7637
O 12.6572 -5.4032 -16.6652
H 13.4722 -4.9624 -16.9054
H 12.6886 -5.46221 -15.7104
O -25.2003 27.7055 22.3304
H -25.8053 28.4131 22.1077
H -25.587 26.9252 21.933
O 17.2149 -10.0155 -13.1044
H 16.3192 -9.70008 -12.9842
H 17.4778 -10.3272 -12.2384
O -19.0636 -11.7759 26.1319
H -18.3278 -11.8444 26.7404
H -19.561 -12.5828 26.265
O 27.7702 -0.55678 -18.5227
H 27.618 -1.14974 -17.7869
H 27.5975 -1.0889 -19.2994
O -14.0976 20.047 1.98897
H -13.8022 20.7991 2.50209
H -13.3079 19.5229 1.85503
O 0.612119 22.0906 -27.7706
H 1.06575 21.2567 -27.6478
H 0.404124 22.3836 -26.8835
O -25.5037 -14.7072 -13.6414
H -25.1344 -15.1023 -14.4312
H -25.9028 -13.8919 -13.945
O -7.40361 15.6542 8.46013
H -6.51936 15.7482 8.10588
H -7.74441 16.548 8.49519
O 0.0220177 -10.8568 -5.64086
H -0.113097 -11.7965 -5.51862
H 0.380084 -10.7788 -6.52514
O 3.09806 20.3339 8.28351
H 2.39379 20.2505 7.64065
H 3.19557 21.2775 8.4115
O 13.0172 5.01647 27.1929
H 12.2997 5.15121 27.8119
H 13.8104 5.134 27.7157
O -29.1891 -29.4367 17.0104
H -28.4796 -29.5137 16.3725
H -28.7587 -29.1446 17.8139
O 5.02074 -12.7288 -25.5027
H 4.50809 -12.6768 -26.3093
H 5.85689 -13.1078 -25.7738
O -13.5948 -25.9836 10.9393
H -14.1489 -25.3191 10.5299
H -12.7078 -25.63 10.874
O 17.3476 15.264 -15.4728
H 17.3449 14.3069 -15.4789
H 16.4269 15.5059 -15.3723
O -6.58871 -24.0157 -1.87035
H -6.61574 -23.4255 -2.62343
H -6.71779 -23.4446 -1.11309
O -19.4376 29.5861 24.9252
H -19.8527 28.7521 25.1453
H -19.5158 29.6492 23.9733
O 2.95955 4.31919 10.6087
H 3.06276 5.25118 10.4164
H 3.84431 3.9605 10.5397
O 0.072247 -7.35662 13.4339
H 0.0363118 -6.83969 12.6291
H -0.129815 -8.24964 13.1548
O -8.34326 6.8586 0.805503
H -8.03803 7.00837 -0.0892792
H -8.00449 7.60327 1.30243
O -12.9994 16.097 -27.897
H -12.9145 15.155 -27.7499
H -12.7822 16.4922 -27.0527
O 24.8928 8.5052 24.4444
H 25.6843 8.90714 24.8024
H 25.1671 8.14451 23.6013
O 12.0403 28.4815 4.14223
H 11.8845 29.1595 3.48479
H 11.2897 27.8928 4.06235
O 26.0495 10.8669 24.9466
H 25.1891 11.0611 25.3182
H 26.5206 11.6993 24.9841
O -0.0117322 -29.9245 -23.6061
H -0.357792 29.2395 -23.9184
H -0.608521 -29.2683 -23.9659
O 4.75853 -29.3171 -17.437
H 5.29375 -29.7012 -16.7426
H 4.13242 -28.7586 -16.9763
O -18.2988 24.7635 27.2504
H -18.1965 23.9121 26.8252
H -17.5877 24.7993 27.8902
O 6.65462 -21.3393 -12.5281
H 7.165 -21.5601 -11.749
H 5.78918 -21.1083 -12.1906
O -16.4556 17.4345 13.1349
H -16.8238 16.7012 12.6419
H -16.2873 17.0772 14.0068
O 21.5521 12.0531 -14.3102
H 21.5378 12.4142 -13.4238
H 21.8197 11.1414 -14.1935
O -19.6321 -3.27437 17.1455
H -19.8226 -2.42442 17.5424
H -18.6813 -3.27981 17.0348
O -1.31884 -10.6395 0.019071
H -0.91722 -10.8207 0.86882
H -0.800911 -11.1484 -0.604618
O 26.4735 -22.4432 -6.75953
H 27.052 -22.422 -7.52186
H 27.033 -22.7401 -6.04187
O -1.33869 13.8487 24.6079
H -0.913669 14.6934 24.7569
H -0.620576 13.2159 24.6054
O -2.30128 26.347 -4.91139
H -3.2487 26.2891 -4.78773
H -2.16372 27.2046 -5.31363
O -28.2195 -23.5463 16.2713
H -27.8004 -24.2883 15.8356
H -28.3853 -23.8537 17.1625
O -28.8677 -20.8084 -7.31592
H -28.8461 -21.2093 -6.44697
H -29.6761 -21.1353 -7.71089
O 22.4387 9.81468 3.74863
H 23.3108 10.2028 3.67719
H 22.5084 8.98083 3.28379
O -25.1928 29.2583 26.6883
H -24.8394 29.202 27.5761
H -24.5649 28.7775 26.1491
O -12.0724 -15.1011 -19.2637
H -12.9064 -15.3894 -19.6346
H -11.4554 -15.1498 -19.9939
O -12.3794 13.5321 -27.9759
H -13.0416 12.9386 -27.6217
H -11.6529 12.9603 -28.2241
O -7.13619 1.98447 -22.3947
H -7.1535 1.61807 -23.2788
H -6.95537 2.91547 -22.5242
O 0.255782 -3.66684 -3.43577
H 0.864186 -3.37307 -4.11383
H -0.367692 -2.94633 -3.34424
O -11.1228 22.171 25.7512
H -11.8761 22.6408 25.3934
H -11.484 21.6477 26.4667
O 21.8854 16.4395 -19.8801
H 22.3263 16.7509 -19.0896
H 21.2939 17.1523 -20.1216
O 25.2882 -1.16923 26.4799
H 25.08 -2.0693 26.2294
H 24.8421 -1.04398 27.3175
O 16.3977 8.63411 -24.9922
H 16.4337 7.682 -25.084
H 17.1353 8.95338 -25.512
O -19.6651 15.4287 -1.60354
H -20.2464 16.0715 -2.01004
H -19.638 15.6798 -0.680242
O 8.67201 10.4783 -22.2933
H 8.4579 10.0408 -23.1173
H 9.58216 10.2361 -22.1224
O 20.6271 -13.9757 21.8745
H 19.6904 -13.9381 22.0677
H 20.751 -14.8253 21.4513
O 5.92791 24.3402 -27.779
H 6.45151 24.9624 -28.2839
H 5.61173 24.8451 -27.0298
O -5.05807 -20.7248 16.2839
H -5.15994 -21.0862 15.4034
H -5.86182 -20.974 16.7401
O -22.9754 20.4796 12.0668
H -23.6741 20.7465 12.6642
H -23.4298 20.0457 11.3447
O -27.3229 23.3684 29.7561
H -27.0661 23.2847 28.8378
H -28.2284 23.0591 29.7812
O 16.5158 19.7745 28.3241
H 16.0077 19.9717 29.1109
H 17.303 19.3381 28.6499
O 16.3529 11.0747 -9.94533
H 16.1351 11.7313 -10.607
H 16.2932 10.2389 -10.408
O -28.4668 3.58797 -6.79247
H -28.0136 3.71487 -7.62594
H -29.3677 3.37829 -7.03872
O -4.71222 9.59193 21.4062
H -5.5696 9.43154 21.8004
H -4.37793 10.3631 21.8643
O 2.6268 13.219 27.6913
H 3.48233 13.3686 27.2889
H 2.80879 12.6461 28.4362
O 19.04 18.0111 15.1645
H 19.0579 17.9932 16.1214
H 19.6865 18.675 14.9247
O 25.3028 -29.2437 8.56824
H 24.3795 -29.3615 8.3449
H 25.5662 -28.456 8.09258
O -2.99526 1.39258 -9.27663
H -3.38262 2.14806 -8.83455
H -2.42995 0.991919 -8.61624
O -18.4577 25.3104 18.6104
H -19.3836 25.5008 18.7606
H -18.417 25.0206 17.699
O -17.095 23.6349 21.6141
H -16.639 23.5047 22.4455
H -16.4455 24.0499 21.0465
O 13.1142 -25.6442 -19.8546
H 13.1691 -26.3972 -19.2663
H 13.1485 -24.8834 -19.2747
O 10.6444 22.5558 -22.2901
H 9.89474 22.1442 -22.7201
H 11.0965 21.834 -21.8533
O -17.2489 21.7354 -8.51955
H -17.7577 21.6586 -7.7124
H -16.6437 22.4582 -8.35385
O 0.235301 -4.39544 14.4895
H 0.0691259 -3.93684 15.3131
H -0.417545 -5.09514 14.4685
O -22.7912 -21.598 25.7176
H -22.479 -21.6732 24.8159
H -23.1168 -22.4721 25.9325
O 29.299 17.3267 5.13827
H 29.5348 17.2856 4.21148
H 28.5012 17.8552 5.15975
O -2.67224 23.074 -0.808716
H -3.22338 22.5516 -0.22599
H -2.19483 23.6625 -0.223864
O 10.9393 25.3374 -28.9609
H 11.1174 24.9487 -28.1045
H 11.805 25.4907 -29.3395
O 5.69555 -21.4504 4.33079
H 6.43406 -21.9861 4.04131
H 4.92882 -22.0086 4.2015
O -28.7313 -13.034 -20.3204
H -28.3562 -12.4215 -20.9531
H -28.018 -13.2129 -19.7076
O -29.1581 20.1044 -7.45594
H -28.6128 20.8535 -7.69598
H 29.971 20.4763 -7.31655
O 16.8768 0.21013 -10.2986
H 17.107 1.13716 -10.2364
H 16.8953 0.0206657 -11.2366
O -20.7655 22.4499 -11.3174
H -19.974 22.7271 -10.8558
H -20.4573 22.1836 -12.1836
O 16.3097 -19.9638 -13.8579
H 15.4181 -20.3112 -13.8793
H 16.4568 -19.6259 -14.7414
O 27.1996 -11.8854 19.5281
H 27.4324 -11.7709 20.4495
H 27.7307 -12.6265 19.2367
O -0.903258 3.0987 -20.1278
H -0.639052 2.36081 -19.5783
H -0.984599 2.72686 -21.0061
O -23.2097 3.94568 -16.2097
H -22.6736 4.07772 -15.4278
H -23.9124 4.59083 -16.1306
O -9.18617 -15.3821 -20.715
H -9.44666 -16.2953 -20.8347
H -9.83072 -15.027 -20.1028
O 0.112309 -9.23364 -29.3079
H 0.878434 -9.47826 -28.7888
H 0.462077 -8.6792 29.9946
O -12.7063 23.1164 -3.51231
H -12.0693 22.4127 -3.63566
H -12.1745 23.9035 -3.39393
O 4.19518 6.24856 -25.2932
H 4.32034 5.3153 -25.1212
H 3.25391 6.3877 -25.1889
O -13.9048 4.40986 1.66262
H -14.7305 4.47189 1.18253
H -13.5063 3.59733 1.35075
O 11.9127 -28.1848 -0.73947
H 12.3074 -27.8237 0.0542745
H 11.8285 -27.4349 -1.32823
O 7.40382 29.0331 0.174301
H 7.10321 29.8842 -0.144188
H 8.33676 29.0129 -0.0389133
O -19.2989 26.1304 -25.3006
H -19.2969 27.0722 -25.1297
H -19.0774 25.7332 -24.4584
O -20.3741 -1.33775 29.0318
H -19.7354 -2.03728 28.8941
H -20.6961 -1.47853 29.9221
O -11.1098 -17.9039 20.2383
H -11.4678 -18.4152 20.9641
H -10.8142 -17.0881 20.6424
O 9.50747 -27.5638 -0.155846
H 10.4061 -27.7996 -0.386296
H 9.54588 -26.6257 0.030781
O 25.8437 -25.2616 1.95654
H 26.1844 -25.4605 1.08439
H 26.4763 -25.6562 2.55694
O 27.9804 -11.2726 -16.89
H 27.0799 -10.953 -16.9467
H 28.3783 -11.0176 -17.7224
O 19.6435 14.027 15.4421
H 19.5239 13.0976 15.6374
H 20.3793 14.0509 14.8303
O 4.79147 16.3221 17.3816
H 4.05661 16.7321 16.9254
H 5.48683 16.9794 17.3557
O 7.94428 -1.39026 29.6622
H 8.80168 -1.01118 29.4688
H 8.05786 -2.329 29.5135
O 27.9823 9.87628 -23.0771
H 27.827 8.96518 -22.8281
H 27.1071 10.2544 -23.162
O 8.00409 1.91027 12.7709
H 8.43315 1.88265 11.9157
H 7.45841 1.1241 12.7912
O -2.47182 10.0407 -15.8754
H -1.73899 9.86062 -16.4643
H -3.13133 9.38641 -16.106
O 10.2623 -28.7416 7.75863
H 9.33306 -28.5617 7.90168
H 10.6701 -27.8768 7.71415
O -2.03056 17.5844 18.553
H -1.1618 17.2054 18.6866
H -1.90894 18.221 17.8486
O -11.9658 9.98261 23.7723
H -11.9504 10.6169 24.489
H -11.1614 10.1542 23.2826
O -10.1782 -23.417 27.3703
H -9.77311 -23.7687 28.163
H -10.7136 -24.1362 27.0351
O -16.9205 19.4745 -21.8046
H -17.1116 19.0313 -22.6312
H -16.9207 18.7748 -21.1515
O 18.5409 15.4507 27.752
H 19.2252 15.6711 28.384
H 19.0159 15.1195 26.9898
O -4.77024 2.12609 -2.5056
H -3.85288 1.86255 -2.57792
H -5.25085 1.30234 -2.42384
O 3.26077 16.797 -24.1769
H 2.95851 17.2358 -23.3817
H 2.8695 15.9246 -24.1332
O 2.83043 -27.8329 -15.1029
H 1.95192 -27.5209 -15.32
H 3.39089 -27.0641 -15.208
O 24.2473 2.86827 27.1942
H 24.14 2.7381 28.1364
H 24.8985 2.2165 26.9345
O -23.3522 7.80246 -26.4727
H -22.8583 7.6216 -27.2724
H -23.4622 6.94598 -26.0597
O 6.28545 -9.41627 16.299
H 6.99942 -8.85439 16.6003
H 5.73171 -8.83938 15.7729
O -15.7732 21.1665 23.3126
H -16.3488 20.7997 22.6414
H -15.0258 20.5692 23.3402
O -15.227 -10.7888 -12.3501
H -15.4866 -10.3139 -11.5606
H -15.3728 -10.1669 -13.063
O -24.153 14.6395 -13.8347
H -23.2701 14.2744 -13.8935
H -24.0404 15.4652 -13.3637
O -24.7946 21.2261 -11.467
H -25.6635 21.6246 -11.5152
H -24.7562 20.8393 -10.5922
O -16.5558 6.04513 -12.6262
H -15.6365 6.30442 -12.688
H -17.0358 6.87202 -12.5806
O -17.0735 11.5844 -25.4585
H -17.3819 11.8057 -26.3372
H -16.6902 10.7122 -25.5513
O -9.65273 8.06349 -16.5005
H -9.87436 7.27592 -16.0036
H -10.3148 8.70462 -16.2418
O -11.7583 -23.375 15.8374
H -11.8632 -22.7856 16.5842
H -12.5965 -23.331 15.3773
O -16.6519 -26.9627 21.2198
H -17.4752 -27.4148 21.4039
H -16.4516 -26.4903 22.0279
O -11.5731 -20.372 -6.10885
H -10.6397 -20.5123 -5.94991
H -11.9324 -21.2521 -6.22118
O -14.7952 -7.76184 -21.1483
H -14.4959 -7.50758 -20.2754
H -13.9965 -8.01286 -21.6122
O -20.6678 11.0586 29.079
H -20.3023 10.2455 28.7305
H -19.9289 11.4889 29.5093
O 20.1498 -17.3877 -3.46249
H 19.617 -16.6879 -3.8402
H 20.3591 -17.9565 -4.20337
O -1.7294 12.0021 -25.2862
H -1.41383 11.6665 -26.1253
H -2.58792 11.5944 -25.1723
O 6.38141 12.8174 -24.4266
H 5.5761 13.3194 -24.5519
H 6.7397 13.1408 -23.6
O -13.9744 -0.539818 27.3689
H -13.1941 -1.05137 27.5827
H -14.018 -0.556807 26.4128
O -8.22041 -24.9126 24.7399
H -8.50792 -25.5133 25.4274
H -9.03041 -24.6232 24.3199
O 12.1353 17.5456 -16.299
H 11.5452 16.7972 -16.2097
H 11.7239 18.2385 -15.7824
O 16.1832 17.1194 -2.55458
H 16.4817 17.4073 -1.6919
H 15.5008 16.4742 -2.36941
O 8.83645 -12.9919 29.0281
H 9.73197 -12.9684 29.3654
H 8.50784 -13.855 29.2798
O -14.569 -27.8467 24.2822
H -15.0934 -28.6463 24.2393
H -15.0911 -27.1922 23.8181
O -28.7488 -8.49999 -2.92803
H -28.5099 -9.42616 -2.96513
H -28.0603 -8.05458 -3.42176
O 11.9737 -8.97839 -3.75035
H 11.5686 -8.56227 -4.51125
H 11.3263 -9.6179 -3.45351
O -9.38795 -29.1679 26.0452
H -9.97551 -28.4354 26.2308
H -8.59211 -28.968 26.5381
O -27.0727 -27.6255 25.1529
H -27.7833 -28.2289 25.37
H -27.4216 -26.7589 25.3617
O -9.1425 -10.5689 9.48221
H -9.40405 -11.0265 10.2812
H -8.3353 -11.0049 9.20917
O 17.3074 28.4818 -17.3878
H 16.8453 28.0596 -16.6636
H 18.0236 27.8824 -17.5975
O 25.6141 29.7166 13.8844
H 24.9622 29.4077 13.2552
H 25.1118 -29.7728 14.5193
O 8.6641 -25.8622 5.99446
H 8.07328 -26.0257 5.25931
H 9.46591 -26.3331 5.76724
O -27.6761 -15.111 14.7576
H -27.4821 -14.7635 15.6282
H -28.4288 -14.6012 14.458
O 2.7299 14.4855 24.178
H 2.40588 13.9767 23.4347
H 2.21357 14.1777 24.9229
O 13.757 19.6471 13.992
H 13.579 20.4951 14.3988
H 14.6 19.7635 13.5537
O -2.93874 19.6247 -6.35848
H -2.00327 19.6117 -6.56088
H -3.21333 18.7109 -6.43408
O -24.5893 -19.2639 13.207
H -23.6456 -19.375 13.3224
H -24.7034 -18.3262 13.0526
O -27.3475 -12.223 22.9087
H -27.2756 -12.6793 23.747
H -27.5074 -12.9179 22.2702
O 3.33377 -12.018 -12.3183
H 4.04277 -12.161 -12.9453
H 3.7673 -11.6612 -11.5431
O 5.38449 8.75896 -4.87008
H 4.61126 9.3229 -4.88826
H 5.03237 7.86888 -4.86811
O 13.0004 24.2774 -6.91689
H 13.8573 24.2269 -6.49337
H 12.3728 24.2194 -6.19644
O 21.0957 12.8452 23.3335
H 20.4134 13.1465 23.9334
H 21.0564 11.8903 23.3855
O -6.82351 19.7386 27.0173
H -7.0961 19.2432 26.245
H -6.1386 20.3254 26.6967
O 15.4206 3.2556 -25.81
H 15.718 3.40152 -24.9119
H 14.4702 3.16778 -25.7368
O 29.2065 -19.3208 23.3437
H 28.858 -18.7212 22.684
H 29.6324 -20.0129 22.8378
O 0.898658 11.7066 -29.6693
H 1.01619 12.6435 -29.5124
H -0.0135028 11.6223 -29.9469
O 0.352049 -25.4183 28.3731
H -0.282886 -25.928 27.8697
H -0.0540944 -24.557 28.4696
O -10.0517 -21.5944 5.83488
H -10.259 -22.254 6.49682
H -10.4571 -21.9237 5.03275
O -4.56703 1.77765 -17.3833
H -4.60187 2.05421 -18.299
H -5.48299 1.65135 -17.1357
O -23.2159 -18.4914 -29.2501
H -22.8285 -18.9727 -28.519
H -24.1102 -18.3022 -28.9658
O 17.022 -26.4611 -0.00824636
H 16.6257 -26.3135 -0.86695
H 16.9311 -25.6231 0.445289
O 11.2155 21.2598 20.797
H 10.8857 20.3912 21.0272
H 12.1473 21.2279 21.0137
O 21.9214 26.5684 23.9705
H 21.3338 27.3197 24.0503
H 22.5676 26.8374 23.3176
O 21.4581 3.62599 2.17672
H 21.5561 2.67832 2.26915
H 22.1517 3.88073 1.56818
O 11.1543 20.9688 28.1212
H 11.3672 21.3431 28.9761
H 10.2922 21.3272 27.9103
O 26.6788 1.98909 12.4934
H 27.1949 2.53588 13.0858
H 25.7865 2.3267 12.5713
O -1.02669 11.1558 -27.5871
H -0.666653 10.2928 -27.3826
H -0.269233 11.6732 -27.8607
O -10.8012 -20.5388 22.1215
H -10.1306 -20.4064 21.4515
H -11.4925 -21.0284 21.6757
O -18.7566 -10.2563 8.0531
H -19.3947 -10.2363 8.76631
H -19.2637 -10.5183 7.28469
O 15.8747 23.5857 -22.5778
H 16.6324 23.1279 -22.2135
H 16.0871 24.5142 -22.4832
O 24.2168 20.6451 -10.1583
H 23.5146 20.0975 -10.5094
H 24.0441 20.6829 -9.2176
O -23.0442 29.1196 -20.903
H -23.9642 28.8689 -20.8198
H -22.5923 28.3047 -21.1221
O -11.1054 20.2121 5.9822
H -10.5121 20.6748 5.39053
H -11.9767 20.5301 5.74539
O -21.306 24.7809 -13.5843
H -20.6415 24.8824 -12.9029
H -21.0016 24.0397 -14.108
O 24.9852 26.307 -29.8051
H 25.3041 25.4532 29.9024
H 25.7789 26.8162 -29.6406
O 18.1229 -16.0258 25.0105
H 18.337 -15.0998 25.1237
H 18.5836 -16.4676 25.7238
O 14.5199 -19.7678 10.0748
H 15.3228 -19.3027 9.84007
H 14.2715 -20.2352 9.27726
O 10.0585 -2.38581 -26.4027
H 9.31556 -2.65215 -25.861
H 10.7901 -2.31692 -25.7894
O 22.0335 -21.7515 -26.6057
H 21.8198 -21.4652 -25.7176
H 22.6502 -22.4733 -26.4832
O -13.4742 0.403819 19.1139
H -14.1793 -0.116361 18.7285
H -13.4714 0.156634 20.0386
O -16.3237 -10.5929 9.12353
H -17.0277 -10.3212 8.53468
H -15.8214 -9.79357 9.28189
O 12.9804 17.2767 -19.1024
H 13.1774 17.3096 -18.1663
H 13.6204 17.8648 -19.5032
O -12.1953 8.39157 -11.7168
H -11.4032 8.0749 -12.1511
H -12.0878 8.13135 -10.802
O 13.8417 17.656 -12.3799
H 14.4672 17.9306 -11.7094
H 13.1267 17.2505 -11.8894
O 22.5755 10.3162 -28.9362
H 21.8453 9.75846 -29.2045
H 23.3443 9.91781 -29.3442
O 20.3769 7.34377 -26.4295
H 19.5768 7.41093 -25.9085
H 20.6271 6.42193 -26.3674
O 17.4652 -19.7146 19.478
H 17.2424 -19.6974 18.5473
H 18.0344 -18.9552 19.6026
O -0.225786 -8.04382 24.1322
H 0.600047 -8.36534 23.7704
H -0.23417 -7.11075 23.9187
O 28.2351 25.6545 12.2822
H 28.7797 25.9742 13.0015
H 28.3042 24.7012 12.3341
O 2.97331 -15.8086 11.1068
H 3.02464 -16.075 10.1889
H 3.49484 -16.4602 11.5754
O -3.85546 -4.06103 25.2734
H -4.08536 -4.65019 25.9919
H -4.45934 -4.29506 24.5686
O 23.2519 6.21395 25.3021
H 22.3927 6.41167 24.9293
H 23.6977 7.06014 25.3395
O 20.27 -26.5248 -15.1618
H 21.1686 -26.7129 -14.8908
H 20.3227 -25.6712 -15.5918
O -26.7692 -12.7856 28.1555
H -26.9065 -13.3425 28.9218
H -27.4176 -13.0881 27.5197
O 19.9336 25.8168 -5.54496
H 20.7738 26.1469 -5.2267
H 19.3258 26.5453 -5.41807
O 14.132 -17.5281 -12.2229
H 13.5744 -17.2626 -12.9541
H 13.866 -18.4276 -12.0324
O 1.66176 -23.9607 -8.21709
H 1.53466 -24.9093 -8.20122
H 1.38091 -23.6664 -7.35064
O -24.1386 25.8033 -20.7603
H -24.8872 25.8168 -20.1638
H -24.4985 26.079 -21.6033
O 13.8874 21.6606 -22.4859
H 14.4645 22.2793 -22.9335
H 13.4166 22.1926 -21.8443
O -0.978016 15.5758 -28.4598
H -1.58647 14.8801 -28.7091
H -1.53595 16.2646 -28.0985
O -12.9308 -14.877 -13.0148
H -12.6662 -14.269 -12.3245
H -13.4998 -14.3599 -13.5849
O 18.5773 -7.7636 8.31975
H 17.8439 -8.09057 8.84077
H 18.6298 -8.36394 7.57607
O 17.8234 7.82343 12.7163
H 17.0812 8.27126 12.3102
H 17.9991 8.32415 13.513
O -29.7191 24.0558 -18.642
H -28.9063 23.8484 -19.1031
H 29.7152 24.438 -19.3128
O 20.3781 -21.8951 -5.76767
H 20.855 -21.1533 -5.39544
H 20.8038 -22.0559 -6.60976
O -12.8536 -7.50921 -16.413
H -11.9593 -7.2931 -16.6772
H -13.2358 -6.67136 -16.152
O 14.3491 -22.8997 -21.0687
H 14.0024 -23.5806 -21.6452
H 15.2995 -22.9994 -21.124
O -27.1291 4.92833 -1.72548
H -26.2416 4.7101 -2.01011
H -27.5495 4.08088 -1.57955
O -0.929032 19.0436 20.8022
H -0.670033 19.7453 20.2049
H -1.83411 18.8456 20.5617
O -25.9753 28.9907 -13.3579
H -26.9243 29.0685 -13.2602
H -25.7613 29.5684 -14.0905
O 17.6402 -11.4448 -10.9736
H 17.194 -12.2603 -10.7456
H 18.1677 -11.2362 -10.2026
O 25.4292 9.72863 -27.1631
H 26.2683 10.1415 -27.367
H 24.8205 10.4602 -27.0602
O -17.3182 -29.4391 -3.68362
H -16.507 -29.1892 -3.2412
H -17.5841 -28.6524 -4.15959
O 15.8016 -4.46956 -3.03943
H 15.7162 -4.5903 -3.98514
H 16.6379 -4.01711 -2.92974
O 21.713 26.419 20.333
H 21.0979 25.8773 20.8274
H 21.742 27.2472 20.8121
O -5.15664 -27.0332 -1.63035
H -5.36156 -27.3611 -0.754724
H -5.31423 -26.0906 -1.57659
O -16.2781 3.77589 -10.8858
H -16.5735 3.51819 -11.7591
H -17.0793 4.02537 -10.4253
O -29.3432 1.53684 21.4611
H -28.5569 1.58908 22.0044
H -29.143 0.861154 20.8134
O 2.79441 -23.5606 2.40811
H 3.54648 -24.1406 2.52727
H 2.07712 -24.001 2.86397
O 14.6047 14.9111 23.9125
H 13.6578 14.9025 23.7727
H 14.8756 15.7956 23.6666
O 22.6512 0.711726 -13.8005
H 23.2355 0.926801 -13.0735
H 22.2272 -0.104196 -13.5344
O -29.6423 29.8183 20.5563
H -28.8608 29.4462 20.1476
H -29.3701 -29.9746 21.4503
O -19.2478 -20.295 -9.1224
H -18.5839 -20.6669 -9.70302
H -20.0816 -20.5644 -9.50766
O 0.574934 -22.2458 -23.5123
H 0.779162 -22.7857 -24.2759
H -0.376532 -22.3036 -23.4251
O -25.5832 -20.2121 26.2396
H -24.7891 -20.3903 25.7357
H -25.8317 -21.0615 26.6043
O 6.65032 -8.90215 12.408
H 6.79703 -8.62579 11.5034
H 7.52826 -8.97235 12.7829
O -16.0942 5.83859 29.5145
H -15.986 5.78031 -29.5362
H -16.9172 6.31267 29.3955
O 15.306 15.1172 -11.9187
H 16.0641 15.1127 -11.3344
H 15.2435 16.0223 -12.2238
O 19.9434 9.67227 -29.9239
H 19.8251 8.74341 29.8775
H 19.3136 9.8504 -29.2254
O -29.2761 -1.46011 28.9902
H -28.7474 -2.14218 29.4043
H -29.5563 -1.84474 28.1597
O -7.10888 16.1114 1.47302
H -6.39176 15.4805 1.53555
H -6.84643 16.8307 2.04738
O -2.67089 -28.4579 -10.178
H -2.45425 -29.0355 -10.9099
H -3.02523 -27.6702 -10.5906
O 29.793 -10.7996 6.11232
H 29.5727 -11.7183 6.26672
H 29.5348 -10.6402 5.20448
O -29.696 9.24331 9.01022
H -29.2008 9.29369 9.82781
H 29.7869 8.44199 9.09188
O -12.6779 -26.8177 -26.0303
H -12.5627 -27.5063 -26.6852
H -13.389 -27.1333 -25.4727
O 1.29742 7.42255 -19.2062
H 2.0814 7.97172 -19.2014
H 1.06426 7.34518 -20.1313
O -13.4648 21.4731 -8.69544
H -13.8402 22.099 -9.31471
H -13.1714 20.7429 -9.24041
O -0.157465 15.08 18.7932
H -0.393007 15.1266 19.7198
H 0.0269042 14.1535 18.6387
O -6.3451 6.70767 -7.25497
H -5.99974 7.08515 -6.44598
H -6.55779 7.46439 -7.80122
O 29.812 -14.1238 -29.7132
H -29.9136 -15.035 -29.8163
H 29.1676 -13.9872 29.5923
O 28.0643 22.0415 -7.72992
H 27.4912 21.7017 -7.04271
H 28.9289 22.0852 -7.3215
O 24.2432 -19.4671 -25.1979
H 25.1188 -19.1305 -25.3887
H 24.1827 -19.4508 -24.2428
O -2.53958 -29.4385 21.3109
H -2.98474 -29.2108 20.4947
H -2.41404 29.6139 21.2595
O -26.2538 -11.0755 25.779
H -26.7992 -10.3622 26.1106
H -26.247 -11.7209 26.4859
O 16.082 -23.8756 -25.1658
H 16.8846 -23.405 -24.9406
H 15.6817 -23.3497 -25.8582
O -13.0564 16.1414 5.77046
H -13.7788 16.7464 5.60231
H -13.483 15.3217 6.02022
O 27.5502 -15.7685 -0.102764
H 27.2234 -15.4977 0.755181
H 27.2272 -16.6629 -0.211298
O -8.70746 -20.905 -19.3041
H -9.23882 -20.7382 -18.5256
H -7.95153 -21.3937 -18.9784
O 3.66422 -1.51573 -20.982
H 3.83207 -2.31673 -20.4855
H 2.71275 -1.49139 -21.0837
O -7.55227 -2.89343 -29.418
H -8.03376 -3.67373 -29.1432
H -6.92447 -2.73791 -28.7124
O -21.058 19.4422 16.1055
H -21.2476 18.5448 16.3795
H -20.3034 19.3606 15.5223
O 26.9428 22.7589 22.7018
H 27.0633 23.6659 22.983
H 27.642 22.61 22.0652
O 0.122585 -0.625395 21.2009
H 0.0399108 0.211497 21.658
H -0.298243 -0.478693 20.3537
O 19.3729 -16.821 -19.5317
H 18.7414 -16.4416 -20.1429
H 19.2483 -17.7665 -19.6139
O -24.8937 22.1439 13.8822
H -25.5264 22.6822 14.3578
H -24.1493 22.0652 14.4787
O 25.3998 -16.3824 -18.1526
H 26.094 -15.8692 -17.739
H 24.8378 -16.6546 -17.4271
O 1.34914 20.9473 16.87
H 2.04962 20.9624 17.5222
H 1.80478 20.9012 16.0295
O 25.0931 -4.48489 18.4997
H 24.254 -4.03192 18.4165
H 24.9139 -5.37807 18.2059
O -2.7491 -5.28183 -27.0647
H -3.41902 -5.07344 -27.7158
H -1.95494 -4.8613 -27.3944
O -20.5841 -22.5865 7.66648
H -20.8054 -23.3371 8.21773
H -19.9839 -22.0656 8.19997
O -25.2756 10.0748 16.1284
H -24.3585 9.87677 15.9389
H -25.7248 9.23363 16.0459
O 18.1927 19.9311 -26.9122
H 17.9733 20.5327 -26.2008
H 19.0769 19.6279 -26.706
O 2.99781 9.47441 -11.1349
H 3.64341 8.92006 -11.5732
H 2.41709 8.85883 -10.6876
O 18.2934 -29.5517 -18.8686
H 18.1496 29.9065 -19.6445
H 17.8841 29.9588 -18.155
O -18.7579 8.51487 22.8462
H -19.1505 8.32939 23.6992
H -18.889 9.45475 22.7209
O -22.7949 -17.6271 6.84243
H -22.7786 -18.1364 6.03213
H -23.3866 -16.8982 6.65591
O 24.5349 -9.34402 3.11409
H 25.0197 -8.67695 2.62808
H 25.1896 -10.0089 3.3273
O -28.128 -8.07224 10.3582
H -27.5431 -8.27305 9.62758
H -28.1423 -7.11599 10.3983
O 28.7222 -21.1341 -11.6246
H 28.9666 -21.1354 -10.6991
H 27.7948 -21.3712 -11.6282
O -16.0407 23.1278 2.5558
H -16.6053 22.5227 2.07495
H -15.5872 23.6251 1.87517
O -15.927 20.2032 -6.01845
H -15.1478 20.7565 -6.0716
H -16.1623 20.0318 -6.93032
O -16.9664 10.639 -11.6602
H -16.7416 9.70932 -11.6222
H -16.8141 10.8857 -12.5724
O 13.4918 -13.1809 -20.9777
H 13.1068 -12.7865 -20.1951
H 14.4332 -13.1878 -20.8047
O 19.7638 -22.3057 25.6628
H 20.5966 -22.0702 26.0717
H 19.3094 -22.8255 26.3258
O -27.8011 -14.528 -7.17428
H -27.0811 -15.0703 -7.49629
H -28.2357 -14.2112 -7.96613
O -19.535 -8.51635 25.8001
H -18.6483 -8.70184 26.1094
H -20.0273 -9.31499 25.9899
O 2.11111 28.7848 -29.8595
H 1.85617 29.6783 29.9102
H 1.54523 28.2283 29.6054
O -2.72458 -8.71777 -29.5827
H -2.60042 -9.61646 -29.8879
H -1.85593 -8.44129 -29.2907
O 25.4956 -6.48397 12.2128
H 25.4082 -6.32144 11.2736
H 24.9162 -7.2267 12.3828
O -11.5303 5.50655 7.98002
H -11.1185 5.86239 8.76742
H -11.6065 4.56806 8.15226
O -25.2954 -9.86071 -22.8525
H -25.1017 -9.77314 -23.7858
H -24.452 -10.0692 -22.4509
O 13.4492 -12.5887 -28.3516
H 13.144 -11.7457 -28.0162
H 13.1154 -12.6254 -29.248
O -14.0854 -3.35207 3.45029
H -13.5549 -3.56859 4.21704
H -13.8379 -4.0046 2.79518
O -9.97012 -10.3618 -26.5776
H -9.51335 -9.82899 -25.9267
H -10.8172 -10.5565 -26.1767
O 14.0421 -27.2053 -17.704
H 13.9176 -26.4366 -17.1473
H 13.4623 -27.8688 -17.3302
O -10.5808 -22.1663 -21.1396
H -10.1121 -22.0332 -20.3156
H -11.2666 -22.7989 -20.926
O 15.5123 -27.5271 -27.7937
H 14.6941 -27.2718 -27.3675
H 15.4613 -27.1349 -28.6654
O 18.5871 26.6269 17.8973
H 19.3765 26.871 17.414
H 17.869 26.8068 17.2906
O -15.9249 -4.66572 -18.2258
H -16.3879 -5.2285 -17.6052
H -16.6186 -4.26053 -18.7461
O 17.2393 -21.6238 12.526
H 16.3745 -21.8021 12.1566
H 17.0724 -21.013 13.2439
O 17.8061 19.7977 -13.4624
H 18.2082 19.3321 -12.7291
H 17.9535 20.7234 -13.2686
O -29.6597 1.80879 27.1402
H -28.9647 1.17778 27.3273
H -29.3325 2.63719 27.4908
O -1.33259 7.11207 24.7127
H -1.20582 8.06072 24.698
H -1.85377 6.92745 23.9314
O -12.4216 -15.3302 15.8685
H -12.766 -14.5194 16.2429
H -13.141 -15.9564 15.9491
O 15.1846 0.856565 20.5632
H 14.5626 1.30311 19.9889
H 14.742 0.815781 21.411
O -18.8404 4.32781 6.84376
H -18.7505 4.18793 7.78641
H -17.9408 4.40503 6.52583
O -23.0072 6.94585 14.5575
H -22.7343 6.63793 13.6932
H -22.6919 7.8486 14.6012
O 25.3945 -10.8888 21.5731
H 25.9279 -11.3584 22.2144
H 24.555 -11.3488 21.5763
O -6.56971 0.653205 20.2949
H -6.8307 -0.267723 20.2975
H -6.3501 0.842995 21.207
O 18.4647 15.6398 -6.43648
H 17.5221 15.4735 -6.44066
H 18.8384 14.8915 -5.97098
O -14.5899 10.7998 -20.2673
H -14.6886 10.646 -21.2069
H -15.4113 10.4899 -19.8858
O -18.1217 1.19926 10.2387
H -18.2553 0.300164 10.5387
H -18.3535 1.74092 10.993
O 12.9639 -9.81052 18.5604
H 12.4065 -10.5511 18.7993
H 13.1519 -9.37378 19.3912
O 24.4606 -12.5779 -11.3554
H 25.2441 -13.0388 -11.6553
H 24.0936 -12.1873 -12.1485
O -4.92972 12.2077 29.5986
H -5.04202 12.051 28.661
H -4.47953 11.4266 29.9202
O -24.5485 -4.70796 4.74582
H -24.1641 -3.972 4.26961
H -25.2933 -4.32897 5.21267
O 27.6277 11.2718 11.7019
H 28.0602 10.4179 11.6971
H 26.7202 11.0798 11.9384
O 13.0223 18.886 -8.73214
H 13.1668 18.0975 -8.20899
H 12.24 19.286 -8.3523
O 2.37128 10.2466 0.192878
H 2.85341 10.9212 -0.285359
H 2.6491 10.3525 1.10273
O 23.6077 3.92085 -28.3769
H 22.7258 3.6467 -28.1253
H 23.5859 3.95073 -29.3334
O 15.6615 11.2423 -3.21056
H 16.5963 11.1128 -3.0504
H 15.5262 10.9323 -4.10601
O -3.34519 0.32175 -5.67719
H -3.75993 -0.397408 -6.15368
H -2.83761 -0.10776 -4.98864
O -2.61122 -5.10292 -13.1274
H -2.89415 -5.84377 -13.6634
H -1.96478 -4.64872 -13.6678
O -25.2583 -2.99175 -5.15855
H -25.3747 -2.04864 -5.27358
H -24.7388 -3.07368 -4.3588
O -12.9627 -16.9646 -17.4938
H -13.7177 -16.4139 -17.7013
H -12.5445 -17.1269 -18.3394
O 16.4127 -26.3418 16.7476
H 16.55 -27.286 16.6717
H 16.7288 -26.123 17.6242
O 19.4221 22.9688 -4.12621
H 18.5989 22.4804 -4.12926
H 19.199 23.8175 -4.50855
O -26.0557 -25.4841 27.0328
H -26.7249 -24.9156 26.6519
H -26.1298 -26.3033 26.5432
O 8.15511 8.85535 27.7735
H 7.35986 9.33927 27.5507
H 8.0441 8.00368 27.351
O 11.5971 1.44579 27.7469
H 10.6425 1.51653 27.7487
H 11.7799 0.651916 28.2495
O -11.6869 -4.57806 -3.69558
H -11.3002 -4.23931 -2.88813
H -11.6406 -5.52965 -3.60302
O 17.2808 -13.6612 12.5296
H 16.8272 -13.0276 13.0854
H 17.9549 -13.1491 12.0827
O -14.375 -20.4343 -22.9248
H -15.2412 -20.659 -23.2646
H -13.7737 -20.6538 -23.6364
O -26.5278 -19.3632 -29.4649
H -27.3271 -19.8583 -29.6443
H -26.5927 -18.5909 29.9732
O -7.65941 25.2344 -0.834366
H -7.72495 26.1818 -0.714212
H -6.74427 25.0854 -1.07216
O 12.8315 6.08028 -7.17984
H 13.7539 6.23816 -6.97854
H 12.7311 6.3683 -8.08715
O 12.4798 29.6382 -14.6889
H 11.925 28.8693 -14.8205
H 12.0736 -29.895 -13.9586
O -25.6296 -3.66028 -16.5345
H -25.8338 -3.02818 -17.2237
H -24.951 -4.2185 -16.9142
O -28.3271 -11.0866 -27.4972
H -29.2259 -10.7613 -27.5486
H -28.2748 -11.5132 -26.642
O -18.2571 13.8238 1.28798
H -17.4332 13.3621 1.44363
H -18.5109 14.1584 2.14813
O 26.5015 17.38 -26.6444
H 26.525 17.2833 -27.5964
H 26.1864 18.2725 -26.5016
O -14.5438 8.88482 13.5941
H -15.3071 8.3315 13.4286
H -14.4111 8.83394 14.5407
O 20.5931 22.2413 -1.48788
H 20.0072 22.2739 -2.24413
H 20.0505 22.5237 -0.751615
O 2.59529 -23.9732 -16.0334
H 2.17778 -24.6845 -15.5477
H 3.13936 -23.5266 -15.3847
O 24.6852 -4.34078 -17.096
H 25.2198 -4.13164 -16.3301
H 24.5349 -5.28405 -17.0335
O -0.707091 4.11855 11.3954
H -0.158964 4.51816 12.0708
H -1.59546 4.16506 11.7488
O 7.50853 3.09391 -18.9103
H 7.93865 2.5734 -19.5887
H 8.22305 3.39189 -18.3473
O 14.3559 -4.18708 -18.3164
H 15.2679 -4.43194 -18.1595
H 14.2813 -3.30068 -17.9629
O -29.8011 14.3496 -18.1319
H 29.4014 14.3434 -17.6026
H -29.9733 13.7205 -18.8326
O -20.4539 -28.6984 22.9201
H -20.1398 -27.9679 23.4529
H -21.1648 -29.0819 23.4338
O -2.92893 8.54165 -25.7162
H -3.84122 8.73978 -25.9277
H -2.83175 7.61159 -25.9206
O -10.3968 -2.71418 -9.33427
H -10.3716 -2.85141 -8.38729
H -9.6163 -3.16068 -9.66235
O -27.1117 -4.65446 23.6944
H -26.2733 -4.99214 23.3794
H -27.1198 -4.86523 24.6281
O -13.0093 28.6993 14.388
H -12.883 28.2992 15.2484
H -13.273 27.9736 13.8223
O -23.1866 -27.8699 -7.91175
H -23.4846 -26.9968 -7.65663
H -23.8699 -28.195 -8.49794
O -17.4804 16.9064 -13.9729
H -18.4341 16.9024 -13.8907
H -17.1665 16.5485 -13.1425
O -10.6664 28.8659 3.83089
H -9.79271 28.8526 3.44004
H -10.639 28.185 4.50301
O -18.9788 6.92858 8.80935
H -18.4209 6.19161 8.56058
H -19.7364 6.52411 9.23212
O 4.35403 -26.3055 -16.7068
H 3.96766 -26.431 -17.5735
H 4.278 -25.3653 -16.5439
O 15.237 7.79223 9.36303
H 15.99 7.212 9.25039
H 14.5606 7.23551 9.74868
O 22.2418 3.92398 -13.093
H 21.9717 3.11453 -12.6593
H 22.7488 3.6326 -13.8508
O -21.5825 11.7844 22.7818
H -20.7178 11.8495 23.1873
H -22.125 12.4013 23.273
O -21.3557 14.0827 -14.2285
H -20.5051 13.7005 -14.4443
H -21.1492 14.958 -13.9005
O -18.759 -22.4195 18.6516
H -18.2499 -21.6141 18.5605
H -18.8104 -22.7728 17.7634
O -22.7469 10.1088 2.01325
H -21.9803 10.505 1.59903
H -23.4862 10.4031 1.48125
O -0.61981 -20.0364 1.24892
H -0.459436 -19.9134 0.313294
H -0.511651 -19.164 1.62765
O 27.069 1.4255 -6.74681
H 26.1768 1.71405 -6.55487
H 27.5596 2.23625 -6.88193
O 6.33614 -6.4325 -20.3552
H 6.72763 -6.11214 -19.5426
H 5.54845 -5.90049 -20.4682
O -27.0225 15.842 4.98824
H -26.8508 16.7413 5.26751
H -27.2947 15.9224 4.07409
O -22.7406 14.4981 -6.19418
H -22.9791 15.36 -6.53547
H -23.4411 13.919 -6.49413
O 14.0569 -7.55322 -10.8053
H 13.6721 -7.35347 -11.6587
H 13.3622 -7.35662 -10.1768
O 13.053 12.173 10.4109
H 12.7811 12.2032 9.4936
H 12.4916 11.5059 10.8058
O 8.72797 16.8109 -2.11878
H 9.39033 16.4652 -2.71708
H 8.63089 17.7287 -2.37271
O 10.8103 6.51362 -19.2206
H 10.1767 6.77312 -18.5517
H 11.6537 6.81326 -18.8814
O 9.57766 -29.6548 -17.8166
H 9.89268 29.9863 -18.6462
H 8.89032 29.7397 -17.5388
O -21.9263 19.2659 2.23051
H -22.5979 18.9896 1.60697
H -21.5181 20.0288 1.82115
O -0.249163 -9.05164 20.6988
H -0.959228 -9.02351 21.3401
H -0.599116 -8.59612 19.9331
O 24.4087 -6.48298 9.31206
H 24.0438 -6.74921 8.46812
H 23.774 -5.85721 9.66121
O -23.0019 -19.9025 -12.6627
H -22.8405 -18.959 -12.6592
H -23.6996 -20.0291 -12.0197
O -5.82344 -25.1294 -29.9819
H -5.65857 -24.8542 -29.08
H -5.24931 -24.5752 29.4894
O 15.9468 0.169563 -25.7559
H 16.588 -0.265857 -26.3177
H 16.1023 1.10394 -25.8939
O -18.0545 -4.00656 -20.2929
H -18.2733 -4.93813 -20.269
H -18.9017 -3.56102 -20.2919
O -9.74113 7.41751 -19.3383
H -9.56458 8.33505 -19.5461
H -10.3389 7.45128 -18.5915
O 13.67 3.86868 -9.79181
H 13.9239 4.7894 -9.72862
H 13.8633 3.50652 -8.92711
O 24.774 -17.6543 -3.88678
H 24.7005 -16.7033 -3.96651
H 25.7162 -17.8212 -3.86402
O 2.27084 -8.30478 -25.4627
H 1.6094 -8.11871 -24.7963
H 2.10658 -7.6597 -26.1506
O 19.7658 -21.5619 -19.4881
H 19.4752 -22.4155 -19.1668
H 19.4843 -20.9433 -18.814
O 7.47878 6.01602 -12.9578
H 6.60935 5.64158 -13.0997
H 8.07373 5.26804 -13.0105
O -8.30314 10.2396 15.521
H -9.04453 10.6652 15.0904
H -8.11861 9.47266 14.9788
O 4.03695 -28.1342 -11.282
H 4.39254 -27.7764 -10.4685
H 3.6247 -27.3857 -11.7133
O -4.80641 15.3125 6.72063
H -4.4774 14.55 6.24459
H -4.6338 16.052 6.13795
O 9.78248 21.8992 -29.3769
H 9.07187 22.4865 -29.1193
H 10.3823 21.9067 -28.6309
O 12.9739 -8.86692 8.93633
H 13.1545 -8.43495 9.77121
H 13.8374 -9.09764 8.59379
O 19.8963 -20.4157 28.7776
H 20.6624 -20.1269 28.2816
H 19.9621 -21.3706 28.7863
O 3.50492 28.9541 -24.6209
H 2.79989 28.3081 -24.5768
H 3.23927 29.552 -25.3195
O -19.2095 -14.823 -29.9323
H -19.7323 -14.484 29.3411
H -18.9433 -15.6977 29.7842
O -0.247448 -20.5738 -15.0448
H -0.337504 -19.8498 -15.6643
H 0.374592 -20.2544 -14.3911
O 17.4941 -1.61563 -6.58854
H 18.1834 -1.07307 -6.97166
H 16.6792 -1.17988 -6.83798
O 0.43572 9.39577 10.1975
H -0.241719 9.42204 10.8732
H -0.0211407 9.09718 9.41114
O -15.7613 -10.4925 -22.2994
H -16.7095 -10.5079 -22.4292
H -15.4568 -9.7635 -22.8398
O 0.26679 20.598 -4.08183
H 0.50797 20.6783 -3.159
H -0.676702 20.7586 -4.09815
O -18.1926 -1.80971 -22.1344
H -17.4224 -1.75088 -22.6998
H -18.2506 -0.949961 -21.7176
O -21.4031 10.7109 12.8948
H -21.4016 10.9577 11.9699
H -21.3704 9.75433 12.888
O 4.45057 24.6618 28.5501
H 4.42784 25.5052 29.0021
H 3.81019 24.1231 29.0148
O 6.2437 16.363 -8.1213
H 5.66505 15.8338 -8.67017
H 6.98083 15.7855 -7.92297
O 25.4192 4.74153 7.56015
H 25.3098 5.54217 7.04707
H 25.2857 5.01748 8.46694
O 7.10338 16.122 24.6828
H 6.22068 16.1885 25.047
H 6.96674 15.9987 23.7435
O -27.4948 -28.3756 29.0889
H -28.1776 -27.7141 28.9774
H -26.9327 -28.0262 29.7804
O 19.128 22.6831 0.997344
H 19.7694 22.3841 1.64187
H 18.6757 23.4086 1.42769
O 28.8425 -27.7073 9.00231
H 28.9733 -28.0375 8.11346
H 29.6891 -27.8311 9.43135
O 22.3807 -26.8779 9.03157
H 22.6422 -26.2907 8.32227
H 23.1755 -26.9941 9.55215
O -1.19439 -11.1596 -23.8024
H -0.358178 -11.2482 -24.2597
H -1.51611 -10.2944 -24.0559
O 28.3242 -1.32203 -12.7753
H 27.4481 -0.995416 -12.98
H 28.7487 -1.42084 -13.6276
O -11.2581 -20.9792 -16.7233
H -11.6997 -20.4543 -17.3908
H -11.4545 -20.5339 -15.8991
O 14.9975 10.1374 -18.8016
H 15.849 9.71795 -18.9253
H 14.3611 9.46293 -19.039
O 3.09438 3.96052 -15.0203
H 3.07125 3.06604 -15.3603
H 3.04935 4.51466 -15.7995
O -20.7432 -9.45987 -12.5438
H -20.6421 -8.96044 -13.3541
H -21.6505 -9.7644 -12.5612
O -18.0307 -27.2227 -5.02351
H -18.911 -27.5986 -5.03548
H -17.6983 -27.3618 -5.91028
O 6.83065 9.92296 -2.92062
H 7.68457 10.0362 -3.33804
H 6.19822 10.0739 -3.62311
O 19.3107 -13.4277 25.3699
H 18.6989 -12.8996 24.8571
H 19.1627 -13.1549 26.2754
O -7.71652 15.3667 -15.4188
H -7.32354 15.4363 -14.5488
H -7.98348 16.2604 -15.6339
O -6.93919 11.3832 1.50834
H -6.26201 10.7432 1.72743
H -7.45346 11.4726 2.31068
O -17.9096 24.7546 15.9983
H -17.5948 25.6512 16.1131
H -17.3063 24.3677 15.3639
O 26.9884 -21.9967 -23.1878
H 27.486 -22.7281 -23.5532
H 27.4995 -21.2204 -23.417
O -2.44766 -25.5124 7.92684
H -2.47919 -24.826 7.26044
H -1.60942 -25.379 8.36932
O 25.0181 -28.3389 -22.618
H 24.4494 -27.6111 -22.8693
H 24.5057 -28.8343 -21.979
O 27.6059 1.05108 2.42913
H 27.0611 0.73148 1.70986
H 28.0546 0.27102 2.75527
O 23.3349 5.78475 5.88252
H 23.1722 5.27073 6.67344
H 23.035 6.6665 6.10346
O -16.9538 22.2167 5.39647
H -16.4001 22.5919 4.71177
H -17.5892 21.6791 4.92358
O 19.9183 -2.35316 10.1604
H 20.3772 -1.79762 9.53023
H 20.5977 -2.92809 10.5127
O -25.0307 -24.6167 5.0583
H -24.577 -24.3559 4.2568
H -25.3105 -23.7916 5.45489
O -27.6389 9.60512 20.7873
H -28.2915 10.2188 20.4499
H -26.8645 9.75624 20.2454
O 29.0414 17.3304 19.7592
H 29.6349 17.3034 20.5097
H 28.2679 17.793 20.0815
O 11.8185 14.3291 24.9873
H 11.5813 14.7691 25.8036
H 11.3229 14.7925 24.3121
O 3.80843 5.18744 -17.4035
H 4.12675 5.97998 -17.8357
H 4.09725 4.47238 -17.9705
O 27.0432 18.8774 4.94871
H 27.5533 19.031 4.15346
H 27.0886 19.7055 5.42665
O -25.7789 -18.0672 22.6405
H -25.6099 -19.0049 22.5495
H -25.9415 -17.9423 23.5755
O 0.461093 21.1345 10.0219
H 0.111452 20.309 9.68649
H 0.916174 20.8924 10.8284
O -27.8288 -23.5033 7.29915
H -27.052 -23.5327 7.85761
H -27.84 -24.3531 6.85876
O -25.6037 17.589 27.9387
H -25.7111 16.9947 27.1961
H -26.233 18.2918 27.7767
O -12.3595 7.48475 -4.2753
H -12.8514 7.40713 -3.45787
H -12.4469 8.40561 -4.52147
O 20.4603 9.9805 25.2167
H 21.3745 10.1546 24.9928
H 20.4976 9.23356 25.8142
O -14.3063 24.9168 -4.58484
H -13.9254 24.2317 -4.03543
H -13.7764 24.9074 -5.38193
O -2.68786 12.5575 16.9506
H -2.38026 12.4222 16.0543
H -2.85187 13.4988 17.0084
O -4.51063 9.47148 8.1805
H -3.85778 8.95854 7.70414
H -5.20327 9.63274 7.53982
O 16.2908 27.9402 -10.8804
H 17.2424 28.0392 -10.8498
H 16.145 27.2046 -11.4751
O 24.104 -15.0291 6.56575
H 23.6636 -14.641 7.3218
H 24.2864 -14.2881 5.98784
O 2.69953 1.29065 23.9435
H 2.30788 1.55712 23.1118
H 2.16041 1.71654 24.61
O 10.9773 2.12615 -20.9259
H 10.5973 2.99107 -20.7718
H 11.9143 2.24462 -20.7708
O 15.6833 5.56868 -24.3096
H 15.7745 5.55193 -25.2623
H 14.7501 5.7208 -24.1605
O -28.4044 27.524 -23.8947
H -27.9547 28.2847 -24.2627
H -28.631 26.9883 -24.6549
O 16.7467 13.2419 16.3495
H 16.4545 14.1534 16.3402
H 17.4011 13.2068 17.0471
O -7.1075 10.3697 -8.52348
H -7.72987 10.2535 -7.80556
H -7.12158 9.53441 -8.99077
O -9.91563 -29.3844 -14.6076
H -10.807 -29.5304 -14.9245
H -9.43827 29.8258 -14.8618
O -27.4869 20.7718 -0.442518
H -27.2804 20.8443 0.489328
H -26.6359 20.8003 -0.879821
O 16.6018 -29.3019 -21.9237
H 15.7141 -29.2102 -22.2698
H 16.5929 29.8612 -21.4592
O 1.54059 6.85552 -25.3531
H 0.759768 7.33187 -25.6353
H 1.25505 5.94428 -25.2872
O -6.26304 17.7917 11.2107
H -6.16106 17.2256 11.9758
H -5.90136 17.2825 10.4854
O 11.7764 2.53179 -28.0414
H 11.5845 2.70831 -28.9624
H 12.4165 1.82039 -28.0618
O -19.6513 9.8997 -16.2294
H -19.0881 9.33157 -15.7037
H -20.4998 9.45683 -16.236
O -21.4334 -8.14282 -2.49368
H -20.8135 -7.77081 -3.12101
H -21.3924 -9.0868 -2.64678
O 15.6894 -10.8757 -22.7853
H 14.917 -10.3113 -22.8172
H 15.6897 -11.232 -21.8969
O 29.4254 -7.9837 -16.7309
H 28.5139 -8.09738 -16.462
H 29.5666 -7.03728 -16.7065
O -0.495497 5.76757 -6.16402
H -1.20355 5.12541 -6.21419
H 0.25764 5.32549 -6.55592
O 26.2344 -20.7832 19.3389
H 25.7338 -20.0128 19.6075
H 26.2947 -20.7101 18.3864
O 28.5856 -13.452 -11.1692
H 28.5409 -13.6129 -12.1117
H 27.8989 -14.0061 -10.7983
O 29.7058 -27.2114 -18.7992
H -29.7803 -28.004 -18.6445
H 29.264 -27.0455 -17.9664
O 16.5951 -26.1137 -6.81603
H 17.5332 -25.9538 -6.91872
H 16.3598 -26.6542 -7.57016
O 5.24271 1.21811 25.0466
H 4.33247 1.33053 24.7727
H 5.18584 0.948305 25.9633
O -26.2618 3.47058 12.2637
H -27.1846 3.21649 12.2547
H -26.1146 3.80871 13.147
O -16.0497 27.3036 14.1255
H -16.1648 28.1627 13.7195
H -15.334 26.9 13.6343
O -9.92769 -17.4559 5.3235
H -9.4133 -16.8229 4.82259
H -9.97722 -18.2263 4.75762
O 27.1535 -14.1514 -23.3812
H 26.7645 -14.3987 -24.2201
H 26.6466 -14.6359 -22.7296
O 9.73855 16.4121 29.5054
H 10.1152 16.3571 28.6272
H 10.2183 17.1245 29.9281
O -1.43414 20.3155 17.2411
H -1.62814 20.8403 18.0177
H -0.478133 20.2946 17.1982
O 29.5351 10.2144 23.4248
H 28.9811 9.74097 22.8042
H -29.9574 9.53135 23.8631
O -3.04547 27.8922 11.1497
H -2.14396 27.5706 11.1602
H -3.27387 27.9361 10.2212
O 29.3572 -24.7913 -0.9077
H 29.3853 -23.9305 -0.489867
H 29.5036 -24.612 -1.83651
O -6.82011 -8.02772 29.6188
H -6.87958 -8.8687 29.1656
H -5.89396 -7.9419 29.8449
O -9.33764 20.0041 -18.5113
H -10.2522 19.7223 -18.49
H -9.17004 20.2057 -19.4319
O -29.4025 -26.855 -27.9924
H -29.2033 -25.9801 -27.659
H -29.041 -26.8622 -28.8786
O 28.0878 18.6865 -11.6878
H 27.8096 19.5851 -11.5109
H 28.9387 18.6093 -11.2562
O 7.4015 -28.1622 -26.8111
H 7.47545 -28.1038 -25.8586
H 7.53862 -29.0893 -27.0061
O -4.84308 9.71399 -1.18986
H -4.19624 9.03951 -1.39702
H -4.43711 10.532 -1.47669
O 18.9346 25.3968 14.3087
H 18.3876 24.9027 14.9193
H 18.7021 26.3121 14.4648
O -24.6554 20.086 3.41654
H -24.7441 20.729 2.71309
H -23.7971 20.2665 3.79986
O -20.3556 -14.3357 -12.1255
H -20.7493 -13.7118 -11.5155
H -20.0729 -13.8005 -12.8671
O -0.781027 -11.477 -13.5193
H -1.3751 -10.7476 -13.3428
H -1.28591 -12.0679 -14.0781
O -26.7444 -2.88276 27.0544
H -25.8972 -3.16638 26.7108
H -27.0376 -3.61136 27.6015
O 3.06043 9.25625 -17.4105
H 3.39142 9.64302 -16.5999
H 2.13616 9.08158 -17.2332
O 13.1366 7.48559 4.65401
H 13.2685 8.24289 5.22438
H 13.8715 7.51565 4.04139
O 0.86817 -14.1946 20.575
H 1.2465 -13.4074 20.9668
H 0.518382 -14.6876 21.3172
O -2.96645 6.65386 22.2359
H -3.58854 6.42069 21.5467
H -2.28064 7.14533 21.7838
O -8.80523 -23.3804 -15.5609
H -8.93901 -23.4432 -16.5066
H -9.05274 -24.2422 -15.2258
O -14.7621 27.705 -15.2472
H -15.6516 27.3767 -15.1156
H -14.6725 28.4162 -14.6128
O -13.8186 9.84855 27.3724
H -13.4552 10.4182 28.0503
H -13.1134 9.23261 27.1732
O 25.3723 11.0003 -19.8936
H 24.8439 11.7837 -19.7407
H 24.741 10.2808 -19.8914
O -0.959329 26.2374 -26.6337
H -1.76299 25.7191 -26.5922
H -0.491049 25.8936 -27.3944
O -2.0412 29.9263 18.201
H -1.63212 -29.2419 18.4399
H -1.34674 29.2769 18.3114
O 0.231212 21.9738 28.0513
H 0.145298 22.0598 29.0008
H -0.563744 21.5155 27.779
O 17.6995 -22.564 -5.96385
H 18.1101 -23.422 -6.07047
H 18.2552 -22.1089 -5.3311
O 7.44721 -0.742631 6.43598
H 8.07513 -0.107163 6.77966
H 7.48426 -0.627209 5.48648
O -14.1497 23.356 -10.5738
H -13.7442 23.0225 -11.3742
H -15.0766 23.4473 -10.7944
O -19.4719 21.9345 3.81341
H -19.3977 22.3629 4.66613
H -20.2866 21.4347 3.86601
O 27.1172 -24.7522 -24.3367
H 26.8004 -25.0033 -23.469
H 27.7317 -25.4454 -24.5777
O -18.5531 6.12518 28.663
H -19.1905 6.83223 28.7631
H -18.1313 6.29966 27.8216
O -8.66536 12.5789 -26.5994
H -9.31415 11.8981 -26.4209
H -7.9781 12.1318 -27.0934
O -20.145 23.2774 16.1102
H -19.4873 23.8632 15.7354
H -20.101 23.4388 17.0527
O -9.90562 -22.6752 13.8341
H -10.6738 -22.5137 13.2864
H -10.2627 -22.8296 14.7087
O -12.6105 29.1388 23.3047
H -11.9043 29.7767 23.4072
H -12.4977 28.5356 24.0393
O 4.72263 -18.621 -14.8214
H 4.78901 -17.6662 -14.8406
H 4.97414 -18.8967 -15.7028
O 29.7052 19.3762 28.3804
H 29.4803 18.551 28.8102
H -29.5702 19.1529 27.7963
O 24.6193 -9.31256 6.55883
H 24.2492 -10.172 6.3574
H 25.4484 -9.50496 6.99692
O -11.5327 18.9861 19.9621
H -12.1411 19.434 19.3744
H -11.5427 19.5104 20.7629
O -24.8599 -4.87026 15.9259
H -24.1457 -5.22561 15.397
H -24.9994 -3.98882 15.5797
O 22.7637 14.5793 14.5324
H 22.673 14.5179 13.5815
H 23.7088 14.595 14.6828
O 1.9499 -23.7365 13.8977
H 2.05321 -24.4803 13.3041
H 1.85787 -24.1321 14.7644
O 23.9572 12.1029 -25.9804
H 24.363 12.8083 -25.4764
H 23.2393 12.5265 -26.4509
O 23.8598 -0.84239 28.7548
H 24.2256 -0.150259 29.3057
H 23.375 -1.40135 29.3621
O -13.384 -2.12249 23.2776
H -13.6374 -1.41065 22.69
H -12.4985 -1.8955 23.5616
O -2.97933 14.1975 4.93351
H -2.10383 13.9019 5.18322
H -2.90702 14.401 4.00099
O -14.5611 -29.1674 -3.02561
H -13.8141 -29.4043 -2.47594
H -14.2422 -29.2722 -3.92203
O -25.634 -20.9172 22.293
H -24.9505 -20.964 21.6246
H -26.0027 -21.8 22.3214
O -26.9072 -2.35252 -25.1178
H -26.5911 -2.32469 -26.0209
H -27.1212 -3.27317 -24.9667
O 24.545 23.5781 -0.0952405
H 24.4841 24.5134 -0.289563
H 24.8724 23.5405 0.803442
O 27.3959 27.9968 -28.9921
H 26.7431 28.524 -28.5316
H 28.1965 28.5202 -28.9553
O 19.4652 -19.3339 -17.5798
H 19.5158 -18.4642 -17.9765
H 20.2032 -19.3632 -16.971
O 5.2692 -13.9023 9.99705
H 4.81524 -13.1851 10.4396
H 6.07409 -13.5067 9.66254
O 25.0918 -3.77563 6.55141
H 24.7577 -4.3031 7.27692
H 25.2104 -2.90214 6.92448
O -19.2969 -10.9003 -25.1584
H -20.2337 -10.8027 -24.9877
H -19.2524 -11.3625 -25.9955
O -9.99613 9.34492 -29.1047
H -10.465 9.94357 -28.5233
H -9.26362 9.02401 -28.5787
O -15.5614 17.2437 25.2051
H -16.0434 16.8975 24.4542
H -14.9927 17.9187 24.8348
O 13.6253 18.4802 27.6909
H 13.7049 18.799 28.59
H 14.4873 18.1169 27.488
O 5.47305 8.00725 -29.2622
H 5.89011 8.81477 -28.9619
H 4.77292 7.84887 -28.629
O -6.95049 8.01639 11.3053
H -7.63384 7.63298 10.7555
H -6.16096 7.98288 10.7651
O 14.6607 -23.8753 -29.4385
H 13.9911 -24.2354 -28.857
H 14.347 -24.0773 29.68
O 15.618 -0.140263 -4.70456
H 16.3757 -0.7243 -4.67393
H 15.9562 0.672161 -5.08111
O 27.9565 -14.5022 22.191
H 28.0708 -14.4595 21.2416
H 27.9023 -13.5874 22.4676
O 24.5399 -21.931 -24.6661
H 25.3584 -21.9309 -24.1698
H 24.412 -21.0165 -24.9183
O 23.9963 14.0818 11.2679
H 24.4128 13.899 10.4257
H 24.724 14.2781 11.8579
O -0.855488 -21.6875 -17.5667
H -0.651817 -21.5784 -16.6378
H -1.61511 -21.1239 -17.7136
O -3.41914 8.45484 -11.1337
H -3.48826 9.1249 -11.8138
H -2.47794 8.35166 -10.9932
O -10.2366 12.5059 -22.2762
H -10.5274 12.6363 -21.3736
H -9.38306 12.9371 -22.3181
O -29.7224 -25.8573 -16.3982
H -28.8978 -26.2071 -16.7357
H -29.5823 -24.9113 -16.3557
O -16.9265 7.98455 19.9245
H -16.0162 7.92824 19.634
H -16.9511 8.75761 20.4884
O -7.90541 -23.2804 -21.3387
H -7.74785 -22.9126 -20.4691
H -8.78936 -22.9912 -21.565
O -27.6034 29.0228 3.44088
H -27.37 28.4255 2.73019
H -28.1795 29.6687 3.03212
O -5.72764 27.2995 26.1733
H -4.98795 27.7879 25.8119
H -6.33295 27.974 26.4814
O 21.1834 29.6447 7.25808
H 20.3922 29.1434 7.45561
H 21.8876 28.9964 7.27058
O 25.0285 -28.4553 21.3523
H 24.3197 -28.5698 21.9853
H 25.0094 -27.5229 21.1367
O -14.6207 28.6631 -12.435
H -13.7266 28.3268 -12.4958
H -14.5711 29.5449 -12.804
O -20.9622 2.41704 3.41649
H -20.7625 2.77582 4.28115
H -21.9183 2.41977 3.3705
O 6.88878 -11.3714 26.6903
H 7.19097 -10.8005 25.9839
H 7.11119 -10.899 27.4925
O -19.1862 -19.0757 3.69822
H -18.2356 -19.1677 3.63458
H -19.3196 -18.449 4.4093
O -26.5919 9.56741 -6.50497
H -26.0512 10.1513 -5.97312
H -27.449 9.99277 -6.53245
O 25.8772 -19.0506 2.14143
H 25.4719 -19.8273 2.52712
H 26.7707 -19.0506 2.48483
O -23.0148 -18.9754 21.6273
H -22.1215 -18.7119 21.4062
H -23.1648 -19.7693 21.114
O -0.537065 -24.0843 0.165123
H 0.267893 -23.5854 0.304353
H -1.2348 -23.4303 0.205677
O 28.8613 -28.759 27.1262
H 28.6239 -28.8471 26.2031
H 28.055 -28.4722 27.5551
O 10.2221 10.1362 -13.4678
H 10.852 10.6905 -13.0071
H 9.65688 10.752 -13.9344
O -24.1305 -10.8417 -15.7842
H -24.122 -10.737 -14.8328
H -23.206 -10.8604 -16.0318
O -17.2398 13.5607 -21.2124
H -17.2687 12.9792 -21.9722
H -16.3082 13.6443 -21.0095
O -26.1582 -10.5196 13.5501
H -25.7861 -11.0919 14.2211
H -27.0223 -10.284 13.8878
O 3.43651 19.3536 -2.74597
H 3.92937 18.7309 -3.28039
H 2.80254 18.8147 -2.27285
O 28.8636 15.649 -12.761
H 28.5044 15.9149 -11.9145
H 29.7474 15.3409 -12.5606
O -13.3852 17.4525 -18.2382
H -13.4699 16.6352 -17.7471
H -14.1898 17.9334 -18.0444
O 5.77112 -19.756 21.6803
H 6.03618 -20.5581 22.1304
H 5.25339 -19.2773 22.3277
O -24.8253 28.3168 -3.91296
H -25.5705 27.8007 -3.60549
H -24.8657 28.2519 -4.8671
O 9.87689 -28.5978 4.72033
H 10.12 -29.3489 4.17911
H 10.2002 -28.817 5.59419
O 27.6535 23.6051 25.7498
H 27.4052 23.6605 26.6726
H 27.1361 22.8771 25.4054
O -12.858 29.9634 19.0818
H -11.9788 29.8776 19.4503
H -12.7792 29.6221 18.191
O 16.4371 -12.2371 6.79407
H 16.2344 -12.9963 7.34065
H 15.8931 -12.3504 6.01467
O 7.11157 -3.1163 20.7581
H 6.72905 -3.7606 20.1625
H 6.51974 -2.36543 20.7116
O -5.28692 -16.091 26.3197
H -5.56983 -16.6359 27.0541
H -4.55808 -16.5735 25.9296
O -28.9597 0.20133 -13.0275
H -29.4714 -0.489079 -12.6059
H -29.1783 0.994657 -12.5386
O -0.385712 -5.46623 26.4315
H 0.322161 -4.82194 26.4382
H -0.937436 -5.22425 27.1754
O -3.03288 28.5822 -9.42103
H -2.54537 28.4618 -8.60612
H -2.90452 29.5043 -9.64349
O -24.697 4.44134 0.509669
H -24.6981 3.61716 0.996453
H -24.1322 4.27371 -0.244717
O -8.81885 -9.6295 -3.66592
H -8.81197 -9.51768 -4.61654
H -7.90444 -9.79624 -3.43726
O -26.3001 5.16395 -14.5422
H -25.8818 5.98149 -14.2721
H -26.6754 4.80885 -13.7364
O -16.3412 -4.82333 9.12232
H -15.7614 -4.101 9.36387
H -16.9303 -4.4494 8.46708
O -6.18102 -8.83668 25.0717
H -6.85097 -8.55255 24.4499
H -6.5776 -8.69798 25.9317
O -28.0894 -24.8606 3.09463
H -27.2597 -24.3954 3.201
H -28.2556 -24.8425 2.15214
O 14.2527 -25.1776 -23.1155
H 14.8555 -24.7679 -23.736
H 14.8214 -25.5981 -22.4705
O 23.1953 20.3603 -18.9432
H 23.6863 21.1539 -18.7305
H 23.7886 19.6435 -18.7186
O -0.669044 -1.77183 -28.6775
H -0.643324 -1.09177 -28.0044
H -1.17351 -2.48244 -28.2816
O 28.0605 1.84625 21.8669
H 29.016 1.89818 21.8424
H 27.8401 1.17409 21.2221
O 14.8726 -6.76325 22.0521
H 15.5128 -6.07972 22.2499
H 15.2932 -7.29849 21.3792
O -7.23267 8.67229 -17.4994
H -7.54394 9.17566 -18.2517
H -8.02465 8.28789 -17.1236
O -17.6529 12.7762 -27.9255
H -18.3432 12.2859 -28.3718
H -18.0081 13.6602 -27.8326
O -9.93623 -5.22042 3.13891
H -9.616 -4.42445 3.5633
H -9.22299 -5.85054 3.24128
O 14.5656 7.53472 0.453697
H 14.5077 8.15008 -0.277199
H 14.5736 6.67135 0.0404677
O 6.84643 18.1172 -22.7532
H 7.79524 18.0489 -22.8596
H 6.50025 18.0586 -23.6437
O 8.77004 -4.81726 9.89036
H 9.19876 -5.16341 9.10766
H 9.37557 -4.15444 10.2224
O 18.6872 -22.0835 -12.5915
H 17.7523 -22.1775 -12.4087
H 18.877 -21.1642 -12.4042
O 10.8828 -15.552 -15.8075
H 10.9001 -16.212 -15.1144
H 10.9642 -14.7173 -15.3462
O -12.4919 20.5876 27.3556
H -12.1475 19.7063 27.4999
H -13.4386 20.496 27.4639
O 28.8272 -23.993 -29.8439
H 29.4289 -23.6498 -29.1833
H 29.3457 -24.0239 29.3521
O -2.12478 -17.1686 22.7967
H -2.03265 -17.9403 22.2379
H -3.06343 -16.9811 22.794
O 16.3631 1.37653 -19.7176
H 16.9706 0.636984 -19.7013
H 16.7456 2.01464 -19.1153
O 12.2579 9.98486 16.5573
H 12.9973 9.46329 16.8695
H 12.4448 10.8728 16.8621
O 18.6889 5.20932 19.0937
H 19.5507 4.83918 19.2847
H 18.6593 6.02172 19.5991
O -28.1907 -18.8799 24.8564
H -27.6381 -18.5952 25.5843
H -28.7199 -18.1116 24.6421
O 7.95894 1.88924 -27.0949
H 8.07929 2.10916 -28.0186
H 7.98855 2.73187 -26.6417
O -11.5342 -14.8447 13.1347
H -12.1834 -15.1428 13.7719
H -12.0141 -14.2409 12.5678
O 25.1048 22.6893 10.8625
H 24.211 22.3801 11.0105
H 25.257 22.5452 9.92856
O -4.60615 -1.10255 -9.21168
H -4.04667 -1.58186 -9.8228
H -4.45598 -0.180733 -9.4213
O -8.13501 -10.21 -7.40864
H -8.60284 -10.2047 -8.2437
H -7.96995 -11.1361 -7.23188
O -9.43304 -22.6354 19.5424
H -8.71762 -22.4233 20.1419
H -10.001 -23.2203 20.0439
O 27.6654 -16.6476 -13.0412
H 28.1452 -16.3797 -12.2575
H 28.2898 -17.1793 -13.5349
O 15.8229 25.5064 -6.7373
H 16.4511 25.6966 -6.04055
H 15.0976 26.1104 -6.57795
O 8.15424 -3.02068 -13.4052
H 8.51454 -2.19798 -13.0742
H 7.6629 -3.38165 -12.6673
O -21.1461 0.170022 -6.54984
H -20.8757 0.938627 -6.0475
H -21.4174 0.520962 -7.39808
O 28.177 -11.0804 10.9052
H 27.8157 -10.5322 10.2086
H 28.8064 -10.5153 11.3533
O -12.3204 7.34509 22.8549
H -12.9905 7.16097 22.1967
H -12.6655 8.09024 23.3468
O -5.32556 27.2768 0.513908
H -5.61499 28.1891 0.499393
H -4.89163 27.1493 -0.3297
O -8.52223 -23.026 3.78392
H -7.58795 -22.8331 3.86197
H -8.59227 -23.5562 2.99
O -25.3674 -23.9847 -11.154
H -24.8629 -24.7659 -11.3805
H -25.175 -23.8348 -10.2284
O -29.638 -16.0421 27.254
H -29.1958 -16.5269 27.9508
H 29.4389 -16.0462 27.5072
O 29.4926 17.6924 -14.5542
H 29.7098 18.4334 -13.9885
H 29.1554 17.025 -13.9567
O -6.64365 20.4617 -10.7387
H -6.36336 20.8926 -9.93129
H -7.57606 20.2894 -10.6076
O 24.7236 -3.49712 -1.75897
H 24.0722 -2.93111 -1.34467
H 25.181 -3.9119 -1.02759
O -7.04764 20.773 -14.4235
H -6.4981 20.0503 -14.1204
H -6.45931 21.5277 -14.4487
O 16.8697 -15.6828 -29.8136
H 17.8098 -15.8632 -29.8147
H 16.6442 -15.5904 -28.888
O -5.57426 26.484 -15.3571
H -6.24264 27.1412 -15.5513
H -5.46256 26.0054 -16.1785
O -12.5709 21.7979 -15.1455
H -12.0042 21.1627 -14.7078
H -12.7101 22.4847 -14.4935
O -18.0344 20.5697 -18.6097
H -17.442 21.2518 -18.9261
H -17.7491 19.7756 -19.0616
O 8.4011 25.2759 -9.69673
H 8.258 25.1944 -8.7538
H 7.71571 24.7364 -10.091
O 28.3055 27.7312 3.67591
H 28.9304 27.0911 4.01634
H 27.8104 28.0154 4.44428
O -19.1169 -18.7163 27.1112
H -19.3412 -19.5008 27.6117
H -19.8302 -18.6222 26.4799
O -18.9155 21.2914 17.372
H -18.9698 20.4461 16.9262
H -19.4436 21.8809 16.8337
O 18.0349 -7.41919 -20.0941
H 18.8052 -7.24794 -19.5524
H 18.3736 -7.45436 -20.9887
O 4.76659 14.3462 15.6829
H 4.53415 15.0229 16.3187
H 5.71036 14.4472 15.5591
O 17.333 -5.61757 6.54807
H 17.9457 -6.31666 6.77618
H 16.8082 -5.98158 5.83509
O -26.3042 -7.58778 -12.4103
H -25.7414 -7.59044 -11.636
H -25.7147 -7.37822 -13.1347
O 0.70504 -13.7125 -14.6445
H 0.0986018 -13.7871 -15.3813
H 0.842404 -12.7709 -14.5411
O -12.2104 -13.1817 -10.8332
H -12.0247 -12.2456 -10.7596
H -12.3503 -13.4703 -9.93134
O -20.252 10.5337 -4.87255
H -19.3292 10.7859 -4.90398
H -20.5127 10.4625 -5.7908
O 18.5033 22.1396 -28.4142
H 17.6077 22.2579 -28.7307
H 18.4932 21.2875 -27.9783
O 29.2739 -25.381 -20.9668
H 29.5165 -26.1472 -20.447
H 28.6801 -24.8861 -20.4023
O 15.2267 -10.1906 28.8522
H 16.1148 -10.2697 29.2003
H 14.7166 -9.82768 29.5763
O -12.0258 27.9673 1.66248
H -12.5235 28.57 1.10996
H -11.6182 28.528 2.32258
O -21.4802 -14.3292 24.6134
H -21.4357 -13.9259 23.7464
H -21.8924 -15.1796 24.4616
O -14.7621 -2.95705 10.3826
H -14.248 -2.42657 9.77385
H -15.4983 -2.39626 10.6269
O -21.9701 26.7016 -15.4528
H -21.7642 26.4745 -14.546
H -21.5745 26.001 -15.9714
O 23.7278 -2.24495 13.9022
H 23.9987 -1.52165 13.3368
H 23.6378 -2.99167 13.3101
O 1.93984 -27.7646 0.107946
H 1.1787 -27.5515 -0.431968
H 1.68673 -28.56 0.576337
O -29.9425 -13.6303 -23.0882
H 29.1228 -13.7551 -22.9236
H -29.5478 -13.5973 -22.2168
O -10.8115 21.5501 -27.8822
H -11.3845 21.2506 -27.1764
H -10.0125 21.0335 -27.7783
O -26.5809 14.929 -26.2305
H -25.6678 14.6684 -26.3511
H -26.5598 15.886 -26.2334
O 6.21173 -12.2113 20.1744
H 6.98516 -12.3158 20.7286
H 6.44548 -12.6424 19.3524
O -6.86833 13.6397 15.9921
H -7.43385 12.981 15.5891
H -6.04337 13.1817 16.1531
O -9.38196 -18.1925 -19.6168
H -8.57922 -18.7138 -19.6208
H -9.19537 -17.4691 -19.0183
O 16.7811 23.6483 11.1976
H 16.6121 23.4468 12.118
H 17.7291 23.7718 11.1492
O -27.6573 1.94535 -18.5553
H -28.5692 1.83565 -18.825
H -27.3699 2.74296 -18.9997
O 2.01084 11.1116 -7.25988
H 2.6215 11.8095 -7.49699
H 1.14883 11.4587 -7.48941
O -12.6745 27.036 25.2167
H -12.2191 26.1941 25.2283
H -12.7063 27.3043 26.135
O 13.2591 12.1741 -2.68279
H 14.1673 11.8962 -2.56369
H 13.3151 12.9376 -3.2574
O -16.1173 -10.6693 11.8555
H -15.7904 -11.2322 11.1538
H -15.5576 -9.89352 11.8212
O -25.6046 13.7677 -19.9981
H -24.6657 13.8278 -20.1744
H -25.9759 13.3974 -20.7989
O 8.36789 12.5377 -11.9351
H 7.65309 12.1768 -12.4595
H 9.1631 12.2124 -12.3571
O 18.2936 11.3066 -2.85963
H 18.782 11.1986 -3.6757
H 18.8703 10.9473 -2.18541
O -14.9733 -22.1793 7.39207
H -14.0666 -22.2537 7.68981
H -15.077 -21.2547 7.16737
O -17.3307 -11.4022 -5.43598
H -18.0169 -10.8601 -5.04694
H -17.7323 -11.7691 -6.22363
O -11.4969 -2.45897 -1.84579
H -10.7042 -2.55054 -1.31705
H -12.0399 -1.83914 -1.35881
O -27.8622 22.4857 7.18047
H -27.4451 23.0247 7.85258
H -27.1334 22.1269 6.67418
O -15.5818 -22.173 -29.3143
H -15.5699 -21.9609 -28.381
H -15.6703 -21.3262 -29.7518
O -25.1745 5.17222 10.6573
H -24.662 5.69393 11.2749
H -25.5997 4.50772 11.1994
O 18.8333 27.3168 0.0824913
H 18.3212 28.0996 -0.120353
H 18.7246 27.1967 1.02588
O 15.48 -20.8715 -0.0250593
H 15.8271 -20.6836 -0.897123
H 15.7593 -21.7689 0.156179
O 28.5517 6.28238 14.6357
H 29.0967 6.96105 14.2373
H 29.0732 5.95531 15.3686
O -25.6687 4.29301 -25.3337
H -26.1838 3.81673 -25.9849
H -26.1374 5.11904 -25.2144
O -9.07942 6.00676 -26.4956
H -9.15847 5.79472 -27.4257
H -9.20042 5.16964 -26.0475
O 22.0076 15.5082 27.5802
H 22.1722 15.011 28.3814
H 22.2532 16.4067 27.8006
O -14.5439 20.5494 -16.492
H -13.807 21.0497 -16.1412
H -15.3135 21.0805 -16.2875
O 25.3438 23.6992 -10.7784
H 24.949 22.8504 -10.5783
H 25.8482 23.9198 -9.9953
O 24.2155 10.4616 -10.8087
H 23.8285 11.168 -10.2914
H 24.1323 10.7552 -11.716
O 16.8031 29.6457 25.126
H 16.5045 28.7392 25.0523
H 17.5032 29.6155 25.778
O 6.69136 -28.2545 -19.2549
H 5.86672 -28.5036 -18.8376
H 7.36275 -28.7211 -18.7572
O -9.37561 7.87393 -11.442
H -8.78381 7.141 -11.2723
H -8.81414 8.64844 -11.4087
O 19.422 7.63078 -0.265644
H 19.3974 8.58535 -0.332118
H 19.1766 7.44694 0.641117
O -27.4708 19.7099 7.592
H -27.5461 19.6923 6.63794
H -27.6319 20.6234 7.82857
O -10.9391 4.10735 5.49613
H -11.4338 4.53269 4.79573
H -10.8649 4.77556 6.17747
O -11.6728 24.8349 19.638
H -11.7514 25.6636 20.1105
H -12.4399 24.8111 19.066
O -2.46851 -9.1109 22.7261
H -3.026 -9.74291 23.1799
H -1.7947 -8.88205 23.3662
O -10.806 0.286976 11.1469
H -11.2066 1.0319 11.595
H -11.0032 -0.464142 11.7064
O -7.10012 25.7407 -28.8916
H -7.87172 25.7837 -29.4564
H -7.08361 26.5862 -28.4432
O -24.9606 28.748 15.6968
H -24.7446 27.8167 15.7442
H -24.2796 29.1242 15.1391
O 14.5349 -15.3981 -5.33233
H 13.5992 -15.2619 -5.18379
H 14.6046 -16.3147 -5.59937
O 11.1418 15.2022 -15.994
H 11.7149 15.3459 -15.2409
H 11.7294 14.9086 -16.6902
O 5.76723 23.0219 3.68406
H 6.52633 22.6934 4.16583
H 5.93441 23.9589 3.58272
O 29.1504 -19.277 -6.19995
H 29.5992 -18.4482 -6.03273
H 29.8469 -19.878 -6.46432
O -0.292527 2.72505 18.5893
H -1.14144 2.35257 18.351
H -0.506501 3.46963 19.1515
O -11.9773 -14.3761 23.2567
H -11.8526 -13.5528 22.7847
H -12.3684 -14.9655 22.6118
O 3.53251 -5.02901 -25.1927
H 3.03625 -5.51639 -24.5351
H 4.44048 -5.30041 -25.0579
O 23.2291 25.085 9.08757
H 22.5554 24.6115 8.59956
H 23.1078 26.0008 8.83715
O 25.1569 -14.6942 15.9962
H 25.2965 -14.1309 16.7574
H 24.2769 -14.4723 15.6916
O -21.8169 26.0707 7.89871
H -22.3783 25.8991 7.14268
H -22.3969 25.9776 8.65443
O 16.5669 -17.4948 2.58439
H 16.9536 -17.7411 1.74409
H 15.6232 -17.5803 2.44859
O -0.881373 21.5905 22.8504
H 0.0728305 21.6092 22.777
H -1.19382 21.849 21.9833
O 4.75355 3.03097 1.66551
H 3.86962 3.35195 1.48701
H 4.64303 2.41252 2.38768
O -19.0961 29.0217 -6.39569
H -18.4759 29.4388 -6.99362
H -19.1383 28.1118 -6.68996
O 19.0669 -8.55107 -28.0549
H 19.5805 -9.3545 -27.9713
H 19.7126 -7.84664 -27.9995
O -27.1436 -4.65223 -11.0653
H -26.9604 -3.73882 -10.8454
H -26.2811 -5.04306 -11.2052
O -23.0539 27.6704 5.17114
H -22.935 27.9973 6.0629
H -22.6161 28.3174 4.61799
O -8.00016 -22.5695 -9.09745
H -7.10746 -22.4512 -8.7729
H -8.16158 -23.5097 -9.01854
O -9.37388 -2.89392 -17.0167
H -10.0917 -2.75717 -17.6349
H -8.7444 -2.20303 -17.2232
O -29.4019 3.43434 11.9054
H -29.8085 3.43722 12.7719
H 29.8613 3.41787 11.2946
O 12.1957 17.0889 23.3849
H 12.7908 17.6199 23.9142
H 11.3375 17.4942 23.5091
O 28.6402 17.5765 -25.2116
H 27.8904 17.6145 -25.8053
H 29.4026 17.5454 -25.7895
O -1.24279 -8.44149 -13.7161
H -1.00639 -7.8127 -13.0342
H -0.946073 -8.03526 -14.5304
O 5.9563 24.7916 -10.7761
H 6.50165 24.1747 -11.2641
H 5.50482 24.2517 -10.1273
O 10.7001 -14.377 12.7622
H 10.6602 -13.8654 11.9542
H 9.78893 -14.4474 13.0469
O 23.3804 -5.21597 -3.07601
H 22.4591 -5.19726 -2.81722
H 23.8211 -4.65817 -2.43501
O 23.7221 -3.9005 -11.6281
H 23.6519 -4.74951 -11.1916
H 23.811 -3.26991 -10.9134
O 18.1357 -9.0986 29.3707
H 17.5291 -8.38385 29.1773
H 18.1665 -9.13518 -29.6733
O -22.0196 12.4025 -16.3099
H -21.8589 13.0547 -15.628
H -21.9694 12.8946 -17.1293
O 19.557 14.7912 -17.4374
H 19.6771 14.9322 -18.3765
H 18.8227 14.18 -17.3785
O 5.77686 -4.24238 -14.414
H 5.71962 -4.44754 -15.3472
H 6.46719 -3.58189 -14.3554
O -21.9333 -1.74002 -28.6684
H -22.4381 -1.1209 -28.1411
H -22.5851 -2.35301 -29.0084
O 25.9396 22.0917 7.97228
H 25.5958 21.4286 8.57091
H 25.455 21.9544 7.15826
O 9.39902 19.7926 -11.7769
H 9.16982 19.2648 -12.5419
H 10.2053 20.2427 -12.0288
O -15.4972 -2.74714 -27.0238
H -14.5729 -2.64445 -27.2501
H -15.8439 -3.33766 -27.6927
O 11.6799 13.4258 -13.2027
H 12.1741 13.2067 -12.4127
H 12.182 13.0327 -13.9166
O 19.0765 -27.6507 1.20606
H 18.429 -26.9882 0.965039
H 18.662 -28.1453 1.91306
O -24.2904 26.9098 1.40417
H -24.2791 26.2779 2.1231
H -25.1382 26.7761 0.980412
O -14.0079 -5.8114 15.9447
H -13.7546 -6.29261 16.7324
H -13.3177 -6.00771 15.3112
O -13.2784 14.5726 8.81085
H -13.762 15.3132 8.4449
H -12.5299 14.9708 9.25528
O 21.1341 -26.8248 6.06974
H 20.8797 -26.0058 5.64459
H 20.6754 -27.5043 5.57561
O 1.36585 -5.28439 -1.16309
H 1.02287 -4.61343 -1.75335
H 1.49488 -4.82892 -0.331149
O 28.8328 22.9561 20.4713
H 28.1219 23.5969 20.4853
H 29.5745 23.4117 20.8693
O -17.5471 3.65395 -13.6649
H -17.0204 3.45707 -14.4396
H -17.361 4.57363 -13.4756
O -22.3028 -10.0182 20.5156
H -23.1872 -9.70851 20.3201
H -21.7388 -9.26792 20.328
O -1.83242 11.9225 -13.2719
H -1.59099 11.3353 -13.9882
H -2.47749 12.5166 -13.6556
O -7.48569 14.4655 -10.6106
H -6.56309 14.4579 -10.3557
H -7.80274 13.5896 -10.3906
O -23.4755 -28.4584 -23.0265
H -23.8855 -27.701 -22.6087
H -23.2013 -29.0152 -22.2977
O 17.159 24.3222 16.2175
H 17.5769 24.5451 17.0494
H 16.3351 23.9039 16.4674
O 29.572 0.635626 5.74777
H -29.7514 0.0678322 5.37895
H 28.7546 0.158342 5.6057
O -29.0711 11.0577 12.5471
H -28.942 11.7294 13.2167
H -29.8049 10.5348 12.8701
O 0.270948 -26.9938 -6.78288
H 0.633867 -27.0058 -5.89723
H 0.562416 -27.818 -7.1728
O 14.0104 19.2843 19.2833
H 13.0762 19.0987 19.1882
H 14.4341 18.4296 19.2048
O 5.39433 0.875152 -28.1776
H 5.76416 1.68088 -27.8167
H 5.95606 0.179318 -27.8363
O -12.7189 -0.699109 -15.3416
H -12.3588 -1.27892 -14.6705
H -12.4394 0.177225 -15.0768
O -21.0749 -16.6568 -13.4117
H -21.1275 -16.0017 -12.7157
H -21.0435 -17.4949 -12.9504
O 28.745 20.5467 -25.9848
H 28.1583 20.7598 -26.7105
H 28.4593 19.6815 -25.6914
O -0.31028 -3.22691 -21.1009
H 0.190992 -3.30319 -20.2891
H 0.0282781 -2.43492 -21.5185
O -23.442 24.8206 -8.78513
H -23.4666 24.7034 -9.7348
H -22.7705 24.208 -8.48497
O 25.3577 -26.1819 -11.1264
H 24.7696 -26.9325 -11.2099
H 25.6974 -26.0436 -12.0106
O 1.17908 7.92763 -22.1793
H 0.608829 7.16133 -22.1174
H 0.635602 8.59844 -22.5927
O -28.7107 -4.12522 -29.8845
H -29.5901 -4.27955 29.7704
H -28.6447 -4.70681 -29.1271
O -12.1372 5.78477 -0.0182901
H -11.4498 5.17868 0.258195
H -12.9463 5.39957 0.318039
O -15.2597 -0.896277 -9.37533
H -14.3629 -0.569691 -9.30291
H -15.4414 -1.29005 -8.522
O 0.422778 16.9097 -11.5906
H -0.49599 16.6896 -11.7444
H 0.894999 16.0921 -11.7479
O 8.73152 -14.6142 0.567569
H 9.63828 -14.3096 0.602559
H 8.31519 -14.0539 -0.087307
O 14.7067 29.2227 -16.523
H 14.1254 29.3872 -17.2655
H 14.196 29.4825 -15.7563
O -7.51856 13.0567 -21.161
H -7.52342 12.1046 -21.2589
H -7.5325 13.2008 -20.2148
O 6.76759 16.524 -29.9795
H 6.69884 15.7554 -29.4131
H 7.70891 16.653 29.9043
O 23.2919 -11.0832 -29.318
H 23.1057 -12.0021 -29.5113
H 23.478 -10.6915 29.8287
O -11.8367 -14.7581 -15.9613
H -12.1865 -15.4506 -16.5219
H -12.558 -14.1354 -15.8708
O 10.0342 22.3447 -13.9684
H 9.17878 22.4231 -14.3907
H 10.5131 21.7182 -14.5109
O -4.84015 -23.636 -16.5733
H -4.25138 -24.1629 -16.0329
H -5.15977 -22.9528 -15.984
O -4.4733 -9.04162 28.2319
H -3.87855 -9.06237 27.4821
H -3.94082 -8.70235 28.9513
O 24.8162 14.5568 25.9544
H 24.6422 14.2339 26.8385
H 25.6961 14.2392 25.7517
O 9.84853 29.5942 -1.00819
H 10.0178 -29.5103 -1.30094
H 10.4519 29.4627 -0.276823
O 17.2482 -14.4993 -7.1795
H 17.1567 -15.071 -6.41729
H 18.1922 -14.4498 -7.3304
O -6.61252 28.107 -20.8931
H -6.1 27.3117 -21.0384
H -6.11144 28.7979 -21.3265
O 5.48116 14.2464 -2.16264
H 5.2422 13.3806 -2.49353
H 4.89079 14.3922 -1.42342
O -5.46817 -28.5296 4.44274
H -5.09364 -29.3304 4.07564
H -6.35604 -28.4949 4.08678
O -6.32304 -10.2188 1.89428
H -7.00676 -9.72891 2.35123
H -6.78087 -10.6583 1.17771
O 4.75527 0.262654 13.4043
H 5.19874 -0.583953 13.3512
H 5.09808 0.760151 12.6619
O 21.7988 29.307 11.5499
H 21.6621 29.9975 10.9013
H 21.4826 29.6833 12.3713
O -7.34385 -13.0691 28.6082
H -7.55231 -13.4602 29.4566
H -7.81626 -12.2366 28.6051
O 9.82706 -19.0389 -18.3464
H 10.7193 -19.2001 -18.6533
H 9.83511 -19.3146 -17.4298
O 9.95767 0.547068 -24.7425
H 9.51129 0.457543 -25.5845
H 10.461 1.35728 -24.8227
O -20.5227 4.11851 -23.2468
H -21.0143 3.29926 -23.3054
H -20.038 4.16701 -24.0707
O -1.85326 1.57893 24.0742
H -2.31428 1.9334 24.8345
H -1.7424 2.32878 23.4897
O 3.61379 14.1421 0.485358
H 3.33687 14.8008 1.12232
H 3.46975 13.3054 0.92734
O -20.8345 -25.2556 21.3991
H -20.6568 -25.4212 22.325
H -19.9722 -25.2672 20.9835
O -13.0555 29.3896 5.66622
H -12.8293 -29.7082 5.44005
H -14.0065 29.4006 5.77463
O -19.8773 -7.12425 -23.845
H -20.5661 -6.62641 -23.4046
H -19.5543 -6.53542 -24.527
O 10.1725 22.7135 -8.85207
H 9.94294 22.7305 -9.78118
H 10.9012 22.0954 -8.79621
O -25.3097 -16.4968 12.6707
H -24.6165 -16.0561 12.1792
H -26.0446 -15.8838 12.6514
O 3.84137 25.5957 -20.9707
H 3.65467 24.6795 -21.1757
H 3.17323 26.0891 -21.4465
O 8.0299 -26.3261 -23.7556
H 8.78947 -25.7576 -23.6289
H 7.49134 -25.8671 -24.4001
O 24.4102 4.68935 10.3836
H 24.9879 4.98352 11.0879
H 23.5986 5.17841 10.5189
O -12.8721 -2.56221 -24.7278
H -12.1303 -3.11307 -24.4777
H -12.4729 -1.75519 -25.0528
O -27.4865 -23.8016 29.4219
H -26.8793 -24.4037 28.9918
H -26.9409 -23.3064 -29.9671
O 9.95145 22.5102 11.9411
H 9.50834 22.0254 11.2447
H 10.1273 23.3705 11.56
O -6.87989 -10.1649 17.7312
H -6.1311 -9.62591 17.9862
H -7.02215 -10.7467 18.4779
O -7.96648 -3.70695 4.53884
H -7.43592 -4.26548 3.97071
H -7.45507 -3.62906 5.34421
O 17.4216 19.6588 -9.02764
H 17.7047 18.7477 -9.10532
H 16.5865 19.6912 -9.49432
O -4.02289 -2.88731 13.3273
H -3.76973 -2.39441 12.5467
H -4.79068 -2.42554 13.6641
O 27.2732 22.6622 -12.4631
H 27.202 23.151 -11.6431
H 26.9538 21.7858 -12.2486
O -13.0587 -1.42542 8.85024
H -12.4207 -0.978224 8.29418
H -13.7535 -0.78089 8.98451
O -18.8248 13.0719 5.7993
H -19.1966 13.5955 5.08948
H -19.584 12.6845 6.23487
O -9.2457 12.1284 -4.17601
H -8.63916 12.3149 -3.45938
H -9.97699 12.7294 -4.03406
O -14.8098 -23.2239 10.6955
H -15.5058 -22.6843 11.0706
H -14.3361 -22.6323 10.1109
O -6.07249 20.7447 12.6323
H -5.79194 21.5959 12.2963
H -6.16497 20.1975 11.8524
O 29.3141 5.62224 -12.8472
H 29.2203 5.45884 -11.9087
H 29.8432 4.89124 -13.1664
O 3.92756 13.8261 -24.5833
H 3.4742 13.7441 -23.7442
H 3.23962 13.7156 -25.2396
O 28.04 21.9231 10.502
H 27.0896 22.0231 10.5557
H 28.3454 22.0453 11.4009
O 1.01626 -18.4835 20.0927
H 1.01722 -18.7414 19.1709
H 1.37571 -17.5963 20.0941
O -26.7497 21.6961 -16.6725
H -27.0276 21.3256 -17.5102
H -27.5665 21.9161 -16.2246
O 13.9564 -19.747 16.7989
H 13.6214 -19.1007 16.1773
H 13.9066 -19.3105 17.6493
O -18.8295 18.0382 -16.3088
H -18.2533 18.0664 -17.0726
H -18.933 18.9545 -16.0523
O 9.62826 7.94885 -4.79243
H 9.5486 8.72374 -4.23617
H 10.5716 7.82314 -4.89519
O 19.6267 -18.1769 11.2564
H 18.7065 -18.1342 10.9963
H 19.7665 -17.3848 11.7753
O -28.7084 5.99755 -27.2703
H -28.7785 5.76008 -28.195
H -27.8018 6.28595 -27.1646
O -11.9714 -1.47824 -22.0833
H -12.6169 -1.21737 -22.7402
H -12.0194 -2.43408 -22.0661
O -3.13849 19.3158 2.43042
H -3.78306 19.9662 2.70927
H -2.51288 19.8098 1.90052
O 11.4208 -8.20736 -6.57104
H 12.2264 -7.78713 -6.87212
H 11.4321 -9.07115 -6.98331
O 9.65218 -14.64 18.8392
H 10.0118 -15.0492 19.6262
H 9.53504 -15.3641 18.2243
O -3.82024 13.6094 -13.8577
H -3.07955 13.9173 -14.38
H -4.28405 13.0018 -14.4338
O 0.700389 14.8747 22.1042
H 0.309744 14.0035 22.036
H 0.0201641 15.4116 22.5108
O 10.516 -6.41013 -17.9508
H 10.5217 -5.57 -18.4095
H 11.4041 -6.50093 -17.6053
O 23.0255 -15.2249 -19.5765
H 23.9011 -15.6114 -19.5641
H 22.4435 -15.9556 -19.7852
O -4.26408 3.00078 -19.7838
H -3.32347 2.91476 -19.6286
H -4.43195 3.94132 -19.7253
O 7.53029 -12.8142 17.3094
H 8.1597 -13.525 17.4311
H 6.9481 -13.1252 16.6162
O 18.4391 -25.8382 8.31828
H 19.1229 -26.4956 8.44692
H 18.1733 -25.5919 9.20423
O -14.2452 -29.3648 -14.5789
H -13.9304 -29.2536 -15.476
H -14.2026 -28.4872 -14.1991
O 20.3891 -16.4774 21.1782
H 20.0896 -17.3618 21.3891
H 20.877 -16.5778 20.3609
O 2.08802 24.6414 -14.1551
H 1.74754 25.4326 -13.7377
H 1.31985 24.2288 -14.55
O -15.6454 19.7956 27.32
H -16.1332 19.1986 26.7527
H -16.2269 19.9478 28.0649
O 19.0178 21.0711 25.4509
H 18.634 20.4992 24.7861
H 19.3109 20.475 26.1401
O 5.35535 23.9967 -1.11568
H 5.20236 23.0911 -1.38544
H 5.17867 24.5142 -1.90128
O 15.3028 23.8243 -17.3085
H 16.2405 23.7225 -17.1455
H 15.0575 24.6082 -16.817
O -21.6313 -26.8295 -17.5741
H -22.4732 -26.6577 -17.9959
H -20.9961 -26.8114 -18.2899
O 17.0678 25.1732 -3.75704
H 17.1656 24.3373 -4.21301
H 17.5551 25.0599 -2.941
O 15.5809 7.12509 -7.07848
H 16.399 6.87869 -6.64692
H 15.2519 7.86335 -6.56566
O 21.8663 28.8553 21.9017
H 22.6654 29.3805 21.9447
H 21.4467 29.1232 21.0841
O -10.2977 -24.5418 -4.11924
H -9.82264 -24.7372 -4.92695
H -10.2345 -25.3455 -3.60321
O -7.91629 27.8525 23.7421
H -7.3404 27.0891 23.7841
H -7.49783 28.4342 23.1075
O 27.1471 29.2033 -23.2501
H 27.0808 -29.9018 -22.9172
H 26.4621 29.1436 -23.9161
O -20.5042 19.3024 -28.8428
H -20.6829 19.9301 -28.1425
H -20.1943 19.8388 -29.5725
O 9.54672 -1.13469 -0.47752
H 8.81931 -0.544383 -0.280924
H 9.98758 -1.26042 0.362756
O -6.49803 10.5514 -15.3032
H -7.29429 11.0727 -15.4056
H -6.73283 9.68614 -15.6385
O -17.3751 10.8775 -4.31036
H -16.9962 10.0682 -4.65348
H -17.0599 11.5601 -4.90267
O 24.7339 -10.4979 -6.00541
H 25.144 -10.0332 -5.27595
H 25.4668 -10.8742 -6.49271
O -14.0572 17.0982 11.8586
H -14.8241 17.4156 12.3355
H -13.3844 17.76 12.0184
O -12.1155 25.5516 -10.6271
H -11.3455 25.2388 -10.1523
H -12.0351 26.5053 -10.6131
O -2.62367 23.8423 -20.0464
H -2.24809 23.2869 -20.7295
H -2.45323 23.3693 -19.2319
O 7.5087 28.4796 -10.7414
H 7.22003 27.8544 -10.0766
H 7.50203 27.9812 -11.5586
O -26.0529 17.7718 14.6425
H -26.122 17.2031 15.4093
H -26.0449 17.1705 13.8978
O -29.2471 3.49122 24.0675
H -29.1267 4.20006 23.4356
H -29.1685 2.69094 23.5482
O 14.8119 10.4773 21.3166
H 14.6346 10.5153 20.3768
H 14.3536 11.236 21.6781
O 27.4981 4.53142 -27.5044
H 27.7883 4.03749 -28.2712
H 27.0036 3.89819 -26.9841
O -16.8832 -1.36181 -12.2641
H -16.4892 -1.41677 -13.1347
H -16.1924 -1.65325 -11.6691
O -26.7248 23.3425 9.70697
H -26.8941 23.1182 10.622
H -27.1133 24.2104 9.59678
O -29.0917 3.53486 -13.806
H -28.8397 3.17478 -14.6564
H -29.558 2.82063 -13.3716
O -5.52292 -19.6998 20.4077
H -4.98937 -19.0519 19.9476
H -4.97217 -20.4819 20.4443
O -21.4061 7.70374 -18.6942
H -21.6264 7.50843 -19.605
H -21.8416 8.53719 -18.5154
O 7.52734 -27.5273 7.89012
H 6.70906 -27.0505 8.02887
H 8.0252 -26.9785 7.28423
O -22.2917 -21.4078 -14.9422
H -21.4318 -21.8266 -14.9818
H -22.2334 -20.8102 -14.1967
O -24.4859 -0.130479 28.8559
H -25.2301 0.115813 28.3065
H -24.0272 -0.802398 28.3515
O -27.1233 26.0499 6.44233
H -26.8746 26.3244 5.55969
H -27.1268 25.0935 6.40422
O -5.58502 -22.9119 -11.7534
H -5.09107 -23.56 -12.2555
H -6.49933 -23.0746 -11.9853
O -5.89778 15.089 -17.688
H -6.44864 15.1927 -16.9121
H -5.11173 14.6471 -17.3669
O 21.3542 -19.3111 -5.2642
H 22.2857 -19.4368 -5.08316
H 21.3332 -18.7003 -6.00089
O 3.64909 -20.6419 19.6193
H 4.24972 -20.5251 20.3554
H 3.28473 -21.5183 19.7436
O -19.5478 -1.73269 9.78032
H -19.0972 -1.68058 10.6232
H -19.7965 -0.82926 9.58488
O -3.38434 14.5768 -19.4341
H -2.64032 15.1645 -19.5658
H -3.11249 14.0021 -18.7186
O 0.743663 0.685502 -14.3176
H 0.579254 -0.0911715 -13.7828
H 1.69753 0.737929 -14.3777
O 10.2997 -14.4613 -26.502
H 10.0995 -15.3224 -26.8691
H 9.52751 -14.2362 -25.9831
O -10.7571 -18.8098 -29.6979
H -10.1049 -18.8252 29.6017
H -10.613 -17.974 -29.254
O -16.4765 9.11061 -23.9966
H -16.626 8.52965 -24.7425
H -15.5671 9.39374 -24.0914
O -5.1041 -6.31354 -20.7038
H -5.47902 -6.1583 -21.5707
H -4.43272 -5.63801 -20.6082
O -22.3899 -1.41822 10.2005
H -22.2404 -2.09138 9.53662
H -21.6876 -1.54916 10.8375
O -1.9833 -12.0595 29.977
H -1.33884 -11.7244 29.3536
H -2.4231 -12.7694 29.5092
O 24.9779 23.2526 -19.7632
H 25.3175 23.7683 -20.4947
H 25.5545 23.4675 -19.03
O 17.4149 20.5528 21.6602
H 18.1415 21.158 21.8081
H 17.6185 20.133 20.8244
O 4.19198 -29.2983 -2.79863
H 3.38106 -29.032 -2.36536
H 4.52819 -28.494 -3.19392
O 21.9665 29.006 -13.8771
H 22.6493 29.3631 -13.3092
H 22.4183 28.7998 -14.6953
O -10.158 12.9548 5.08947
H -10.325 13.3902 5.92538
H -9.61692 13.5744 4.60004
O -7.23782 4.20188 24.4146
H -6.41912 4.67163 24.5737
H -7.8383 4.53328 25.0824
O -19.4743 21.8746 -27.092
H -19.2626 22.7459 -27.4271
H -18.6868 21.3561 -27.2571
O 20.3036 -24.1033 -16.6432
H 21.0834 -23.5652 -16.7795
H 19.8326 -24.0584 -17.4752
O -6.7192 -8.40784 21.7367
H -5.87254 -8.84068 21.8464
H -6.70185 -8.07031 20.8411
O -8.22358 4.64833 -7.43917
H -7.76049 5.47284 -7.29096
H -8.05074 4.13123 -6.65242
O 8.87242 21.9381 15.5045
H 8.72103 22.7346 14.9958
H 8.2018 21.3272 15.199
O -20.0999 -20.0369 12.3558
H -19.7692 -19.745 13.2054
H -19.3715 -20.5223 11.9686
O 23.4819 26.3401 -21.5809
H 23.0552 26.6568 -20.7847
H 23.7656 25.452 -21.3641
O 27.3272 -5.36267 -20.2697
H 27.5452 -4.49732 -19.9234
H 28.126 -5.87665 -20.1515
O 10.1765 8.43856 -20.9719
H 9.27741 8.34377 -21.2862
H 10.3814 7.59333 -20.5721
O -8.24693 -18.4204 11.1048
H -7.38222 -18.5461 10.714
H -8.85374 -18.8097 10.4752
O 23.1081 3.50499 -6.63371
H 23.4195 2.77499 -6.09855
H 22.3321 3.16318 -7.07771
O -2.86378 -16.3607 -25.2606
H -3.52174 -15.8415 -25.723
H -3.21488 -16.4599 -24.3757
O 3.20814 -20.5587 -29.0777
H 2.85088 -19.676 -29.1756
H 4.15388 -20.4284 -29.0081
O 5.26168 -9.33111 28.9843
H 5.5011 -9.07752 28.0929
H 4.30667 -9.39366 28.9677
O -27.7373 21.5095 -10.3434
H -27.0553 21.4506 -9.67427
H -28.5571 21.5264 -9.84962
O -13.9981 6.93866 8.14255
H -13.4885 7.70524 8.40519
H -13.3993 6.42752 7.59812
O 14.8823 -23.8017 14.93
H 15.4593 -24.5628 14.8667
H 14.2312 -24.0481 15.587
O 3.01128 -1.59611 23.9191
H 2.17007 -2.05271 23.9082
H 2.78878 -0.68802 24.1243
O -22.2989 18.4683 -3.75624
H -21.5353 18.9241 -3.40213
H -21.9868 18.0742 -4.5708
O 9.31689 13.0827 -28.8962
H 9.62647 13.8401 -29.393
H 8.84099 13.4595 -28.156
O 26.0833 -17.0399 6.50635
H 25.6291 -16.2059 6.6264
H 26.9482 -16.8998 6.89176
O 14.1268 -15.0002 -11.0566
H 13.4944 -14.877 -11.7645
H 14.2903 -15.9432 -11.0423
O 9.6496 -20.5475 4.8606
H 9.30022 -19.8173 4.34979
H 9.27187 -21.3274 4.45388
O -10.4666 -29.8127 -9.58322
H -10.0296 29.365 -9.80474
H -9.98961 -29.1465 -10.0782
O 18.4509 15.3932 -26.9174
H 19.2434 15.2356 -27.4306
H 17.7673 14.904 -27.3752
O -25.1547 -26.8346 16.626
H -25.6928 -27.5811 16.8898
H -24.5414 -26.7129 17.3507
O -27.461 11.6738 0.758776
H -27.7532 10.8662 0.336043
H -27.5888 12.3518 0.0952825
O 0.0834378 5.54336 19.0259
H 0.0192853 6.29638 18.4385
H 1.01978 5.34848 19.0649
O -27.0746 17.5198 0.564729
H -26.1866 17.6699 0.888945
H -27.1246 18.0305 -0.243306
O 15.4448 21.8247 -12.5651
H 14.9923 22.6323 -12.8088
H 16.1231 22.1057 -11.951
O 16.2971 -6.8771 -15.8987
H 16.4752 -6.44382 -16.7334
H 16.6344 -7.76562 -16.0127
O -5.92981 -4.26135 -16.7564
H -5.04153 -3.97433 -16.968
H -6.17881 -3.73222 -15.9986
O -23.9948 -0.758187 -24.4539
H -23.9238 -0.615352 -25.3977
H -23.972 0.120856 -24.0757
O -21.024 -25.3583 -15.1071
H -21.1409 -26.3071 -15.1556
H -21.338 -25.0344 -15.9514
O -25.967 4.56156 5.18757
H -25.917 5.19985 5.89914
H -26.2542 5.06979 4.42899
O -7.47541 21.298 -26.5181
H -7.52709 22.1902 -26.1753
H -6.80699 21.342 -27.2019
O 14.3137 -1.95406 3.74499
H 14.0678 -1.42007 4.50037
H 14.3075 -1.34388 3.00751
O 29.8413 21.6267 -23.4409
H 29.6002 21.3852 -22.5466
H 29.2337 21.1358 -23.9942
O 4.17399 -21.7016 14.932
H 4.76619 -21.387 15.615
H 3.87193 -22.5526 15.2495
O -4.2346 20.9701 -22.4977
H -3.36461 20.6251 -22.6985
H -4.39292 20.7088 -21.5906
O -9.38493 -7.52819 5.71544
H -9.90451 -7.76686 4.94777
H -9.82302 -7.96375 6.4466
O 1.77776 22.5355 21.2427
H 1.71807 23.01 20.4136
H 1.9304 21.6255 20.9881
O -13.5247 25.7189 -29.0945
H -13.5802 26.6743 -29.0758
H -13.9563 25.4376 -28.2878
O 7.27634 17.5258 3.23545
H 7.37151 17.6885 4.17392
H 6.38336 17.8047 3.03289
O 9.68383 7.03287 2.88491
H 9.60983 7.40549 3.76349
H 10.5792 6.69722 2.84122
O 21.4773 29.8178 -21.3275
H 21.9332 29.4427 -22.0809
H 20.94 29.1007 -20.9907
O -11.8801 -11.1147 -23.3939
H -12.4927 -10.5521 -22.9201
H -12.3765 -11.4262 -24.1508
O 24.3272 -27.631 -14.7022
H 23.9325 -28.3734 -15.1597
H 24.3486 -26.9309 -15.3546
O -26.4605 4.67041 -4.64667
H -25.8821 5.43192 -4.60513
H -27.1037 4.81948 -3.95355
O 21.936 16.2294 -3.64208
H 21.1271 16.0528 -3.16177
H 21.8866 17.1597 -3.86168
O 11.8287 -15.4011 -4.98431
H 10.9161 -15.2972 -5.25393
H 12.1465 -14.5063 -4.86326
O -22.0596 -11.8027 26.6967
H -21.1522 -11.9012 26.4086
H -22.5755 -12.2387 26.0184
O 23.3147 -11.709 6.5451
H 23.1131 -12.1377 5.71335
H 23.1417 -12.3776 7.20784
O -18.515 19.9874 -13.0959
H -17.9854 19.4126 -12.5434
H -19.1083 19.3956 -13.5586
O 19.1974 16.3477 -3.20607
H 18.5202 15.7888 -2.82497
H 19.2393 16.0816 -4.12459
O -21.986 5.17654 -13.349
H -22.681 5.61583 -12.8588
H -21.7308 4.43898 -12.7948
O -9.82905 -12.5454 -9.40203
H -9.58452 -13.1597 -8.70989
H -9.76348 -13.0552 -10.2095
O -26.7806 13.2247 -22.3934
H -27.5447 12.9895 -21.867
H -26.9198 14.1439 -22.6212
O -6.24889 -0.0596835 -2.83196
H -6.59203 -0.723253 -2.23349
H -6.9909 0.16326 -3.39405
O 26.0022 6.21316 -25.8462
H 26.6292 5.83481 -26.4626
H 26.2976 7.11581 -25.7271
O -1.34067 8.67786 15.2507
H -0.928332 8.26984 16.0121
H -2.03951 9.21935 15.6176
O -21.1133 9.55357 -25.3359
H -21.641 9.84081 -24.5907
H -21.7455 9.17162 -25.9447
O -25.8868 17.8255 -29.4398
H -25.0282 17.7348 -29.0264
H -25.7406 17.579 29.6469
O -26.8704 -7.21273 -16.5914
H -26.1913 -7.25674 -15.9183
H -27.5904 -6.73882 -16.1753
O -16.9065 -4.39126 -13.7631
H -17.0965 -4.08907 -14.6512
H -16.3915 -3.68433 -13.3741
O 28.0272 -18.0092 11.8478
H 27.5545 -17.2157 11.5964
H 28.5316 -17.7535 12.6202
O 1.66076 -6.05655 -18.5612
H 1.78162 -6.55156 -17.7509
H 0.711928 -5.96304 -18.6461
O 9.43517 -15.2409 -19.7407
H 9.13584 -14.8099 -20.5412
H 9.28113 -16.1725 -19.8977
O -7.4654 4.54826 3.74305
H -6.7224 3.9456 3.77453
H -7.57826 4.74167 2.81241
O -21.0969 -26.5068 -11.3306
H -21.9346 -26.9665 -11.275
H -21.3324 -25.6038 -11.5436
O 28.4251 -17.8678 -18.9782
H 27.7389 -17.2213 -18.813
H 28.8762 -17.9588 -18.1389
O 19.8551 -8.23009 -10.3478
H 19.5604 -7.36254 -10.0707
H 20.7549 -8.09444 -10.6448
O 26.213 0.321982 -3.3937
H 26.8805 0.598796 -4.02144
H 25.4102 0.255589 -3.91069
O -25.2399 -12.2877 -6.76689
H -25.6439 -13.1189 -6.51771
H -24.8685 -11.9478 -5.95279
O -2.88671 -19.4692 -27.218
H -2.67453 -19.0744 -26.3722
H -2.78969 -18.7546 -27.8474
O -24.8125 3.8248 -10.7476
H -25.6369 4.13182 -11.1248
H -24.7618 2.90281 -10.9997
O 14.3524 12.4815 14.7755
H 14.3031 12.9199 15.625
H 15.0435 12.9474 14.3048
O -14.817 13.1119 -4.40338
H -14.1185 12.4669 -4.29277
H -15.438 12.9158 -3.70183
O -0.387002 -14.6608 -24.2124
H -0.842152 -15.3837 -24.6442
H -0.951503 -14.4279 -23.4753
O -0.517922 -1.07646 18.4991
H -1.40228 -0.850689 18.2108
H -0.459633 -2.02382 18.3753
O 25.317 -1.97244 -19.8793
H 24.4873 -1.49996 -19.8108
H 25.5563 -1.90411 -20.8036
O 10.4207 -5.5798 -27.227
H 11.0174 -4.85601 -27.4175
H 9.94233 -5.29756 -26.4474
O 0.112361 -5.80126 21.6706
H 0.15815 -6.05214 20.748
H -0.804841 -5.93391 21.9101
O 14.8203 -29.7113 7.84865
H 15.3157 29.5299 8.15683
H 14.7758 -29.1295 8.6074
O 8.19816 6.07985 -20.2843
H 8.74893 5.74323 -19.5775
H 8.66325 5.84019 -21.0858
O 28.1981 -8.94772 20.7122
H 29.1042 -9.13143 20.4643
H 27.8043 -8.57506 19.9233
O -9.95853 17.6186 -7.22756
H -10.094 18.4762 -7.63054
H -9.99545 17.0015 -7.95836
O 7.8711 -16.0484 10.3958
H 7.56216 -15.561 11.1595
H 8.01815 -15.3792 9.72742
O -20.7095 12.6622 -25.357
H -20.8826 12.8465 -24.4338
H -20.4473 11.7418 -25.3729
O 28.042 -3.55641 -22.7437
H 27.4313 -2.96373 -22.3055
H 28.2828 -3.09987 -23.5498
O 15.4455 -9.78973 4.84929
H 14.9546 -10.5095 4.453
H 15.2015 -9.81353 5.77455
O -27.3663 7.90007 29.7728
H -27.1502 7.43227 -29.4206
H -27.6315 7.21344 29.1609
O 3.08012 1.22179 -15.4048
H 3.95384 0.962356 -15.1123
H 2.98891 0.82396 -16.2706
O 13.9692 -10.5753 21.1317
H 14.7618 -10.3189 20.6601
H 13.3025 -10.6629 20.4505
O -8.46686 -28.8171 4.21268
H -8.99252 -28.2401 3.65862
H -8.62878 -29.6948 3.86685
O 5.8996 -2.9033 12.1844
H 5.83347 -3.08329 11.2466
H 5.25708 -3.48765 12.5868
O -6.41812 1.77298 3.76855
H -6.24619 1.18195 3.03551
H -7.35737 1.68635 3.93148
O -6.36537 21.2598 24.374
H -5.99237 20.4877 23.9488
H -7.08947 20.9185 24.8988
O -8.51299 2.21938 18.5262
H -9.09297 1.54816 18.8858
H -7.65812 2.03021 18.913
O 3.62222 -9.74376 -19.404
H 4.29384 -10.276 -19.8304
H 2.91417 -9.69127 -20.0459
O 9.45185 0.469222 19.637
H 9.00859 -0.00554497 20.3401
H 10.3599 0.169627 19.6805
O 0.989435 10.6518 4.60422
H 1.85856 10.4427 4.94646
H 0.492018 10.9372 5.3706
O -24.4974 -9.43403 -2.45029
H -24.0334 -9.31749 -1.62121
H -23.8843 -9.11943 -3.11468
O 10.0814 5.90738 21.7047
H 10.0957 5.07544 22.1779
H 10.9701 6.00414 21.3626
O 10.3173 -12.4059 -28.5303
H 10.4954 -13.0714 -27.8658
H 9.363 -12.3341 -28.5484
O 11.8192 -0.856612 29.5522
H 11.3169 -1.57978 29.1768
H 11.2775 -0.537226 -29.7262
O 5.57622 -3.73373 29.7104
H 5.14611 -4.15169 -29.5436
H 5.36544 -4.29675 28.9656
O -17.4537 22.3585 -23.938
H -17.5715 22.8099 -24.7739
H -16.5454 22.5372 -23.6947
O 16.3172 2.39979 3.28524
H 16.2396 2.13978 2.3673
H 17.1484 2.87224 3.33145
O -3.238 26.7745 -1.51965
H -2.29169 26.6562 -1.43756
H -3.46642 26.3245 -2.33303
O -14.8905 -9.03428 2.01785
H -14.7483 -8.1767 2.41855
H -14.0099 -9.36928 1.84896
O 23.4879 6.44135 -27.2957
H 23.2917 5.53641 -27.5383
H 24.396 6.41741 -26.9939
O 14.7931 -3.70416 24.6667
H 14.3917 -3.81371 25.5288
H 14.2265 -4.19758 24.0737
O 1.04691 -13.3259 24.6106
H 1.54068 -12.6539 24.1407
H 0.704361 -13.8969 23.9229
O 28.0427 28.8749 8.11028
H 27.3717 28.216 7.93201
H 28.5772 28.894 7.31641
O -15.0081 8.33559 -12.6987
H -14.1383 8.73514 -12.7022
H -15.5793 9.00061 -13.0831
O -27.5358 -15.2076 8.38569
H -28.299 -15.5271 8.86706
H -27.6489 -14.2574 8.35992
O 15.7923 -22.1279 -27.4082
H 15.1464 -22.5958 -27.9376
H 16.4533 -21.8381 -28.0369
O 17.5524 21.0326 -22.7368
H 18.1407 20.3313 -22.4569
H 16.7798 20.9341 -22.1804
O -3.96245 6.32877 17.2892
H -4.80444 6.05261 16.9272
H -4.14436 7.17229 17.7035
O -20.461 3.47881 -26.1619
H -21.1896 4.06621 -26.3625
H -20.4555 2.84849 -26.8822
O 18.0085 -27.7813 -13.6091
H 18.3112 -28.6705 -13.7934
H 18.7413 -27.3682 -13.1525
O 25.0817 -15.5324 -21.7039
H 24.1803 -15.2249 -21.7997
H 25.057 -16.4433 -21.9969
O -17.6437 -6.19899 -1.26937
H -17.0388 -5.64323 -1.76067
H -18.3493 -5.60929 -1.00347
O 14.362 9.90395 18.5476
H 15.1675 9.39613 18.4506
H 14.5467 10.7334 18.107
O -3.91118 -21.7508 19.5045
H -3.3264 -21.4676 18.8015
H -4.58523 -22.2671 19.0625
O -25.1619 -13.727 0.0435359
H -25.8721 -14.2893 0.352856
H -25.5349 -13.2579 -0.702844
O 3.70889 4.3678 -28.3195
H 3.57694 3.4551 -28.576
H 4.52661 4.36144 -27.822
O -0.948308 9.12133 -23.7922
H -0.975306 10.0512 -23.5666
H -1.62197 9.01778 -24.4643
O -19.6132 -22.6297 23.259
H -19.526 -22.3278 22.3548
H -20.2548 -23.3387 23.2144
O 19.7596 8.06809 2.9441
H 19.0352 7.46473 2.77851
H 20.4659 7.51104 3.27144
O -20.4579 -12.4656 18.9698
H -20.3517 -11.854 19.6984
H -20.16 -11.978 18.2019
O -10.6819 -17.2807 -13.1802
H -9.86687 -17.4619 -12.7121
H -10.5509 -16.4133 -13.5632
O 22.5429 -27.1702 -22.9044
H 22.7794 -26.2486 -23.0089
H 21.7139 -27.1525 -22.4262
O -6.27741 -6.8685 -15.8391
H -6.10473 -6.16728 -16.4674
H -5.44559 -7.33664 -15.7674
O -0.575306 -15.0678 15.3187
H -0.0438683 -14.3017 15.1023
H -0.0853082 -15.5121 16.0106
O -9.84255 -3.79527 9.24169
H -10.6374 -3.82434 9.77423
H -9.413 -2.97855 9.49603
O -27.7994 2.4453 15.9858
H -27.4396 1.70342 15.4996
H -27.6943 2.203 16.9058
O 22.4408 -14.8352 -22.5
H 21.4889 -14.7526 -22.4434
H 22.5835 -15.5336 -23.1389
O -9.03812 22.3714 -5.40979
H -9.3361 21.768 -4.7291
H -9.44401 22.0461 -6.21332
O 21.8384 -17.5154 -20.4125
H 21.0775 -17.0589 -20.0534
H 21.5624 -18.4298 -20.4746
O -10.3769 -15.7298 -7.07575
H -10.7738 -16.1699 -7.82741
H -9.43436 -15.8316 -7.20827
O 20.8157 -22.6337 20.075
H 21.6182 -22.1864 20.3436
H 20.8559 -22.6452 19.1187
O 11.0266 -17.2009 4.23137
H 11.1212 -16.3041 3.91027
H 10.3725 -17.5948 3.65408
O 10.9341 -0.676059 -21.4142
H 10.9836 0.268625 -21.268
H 10.2134 -0.967821 -20.8558
O 23.5531 -19.316 0.549174
H 23.7721 -19.6064 -0.33623
H 22.8448 -19.8981 0.824338
O -4.84735 -27.9468 -26.6943
H -4.88715 -27.9488 -25.7379
H -5.57597 -27.3875 -26.9636
O -26.6055 -1.88413 10.0625
H -26.0938 -1.18939 9.64795
H -27.4463 -1.47437 10.2655
O -6.75398 7.59108 -10.0535
H -7.1485 6.72943 -10.1882
H -5.90073 7.53422 -10.4836
O -17.404 -0.79433 26.0588
H -16.7768 -1.51117 26.1536
H -16.917 -0.107991 25.6028
O 6.56758 9.77025 2.49458
H 5.68174 10.1249 2.41865
H 7.09594 10.5077 2.79999
O -3.27387 11.9406 -1.59308
H -3.05408 12.8608 -1.4472
H -3.0563 11.7847 -2.51209
O -12.3087 14.7542 -11.1111
H -13.1504 15.1151 -11.3898
H -12.0822 14.1204 -11.7918
O -29.2094 23.1474 25.4265
H -29.7602 23.0372 24.6515
H -29.3133 24.0684 25.6658
O -24.1141 7.16442 -12.6735
H -24.6634 7.86199 -12.316
H -23.9635 7.4201 -13.5836
O -20.6523 19.2314 -6.61176
H -20.8282 18.382 -6.20717
H -20.7623 19.0777 -7.55012
O 4.05961 -13.3644 21.7309
H 4.82822 -13.2506 21.1718
H 4.31302 -14.0481 22.351
O -1.15494 -1.14771 -3.7279
H -1.97513 -1.10829 -3.23601
H -0.493475 -0.820721 -3.11816
O 9.17646 13.503 -5.89552
H 8.40345 14.043 -5.73081
H 8.93157 12.9543 -6.6406
O 26.0669 6.63329 -16.467
H 26.4243 7.15824 -15.7508
H 26.7532 6.63856 -17.1342
O 24.2327 1.69185 17.5956
H 23.9074 1.05146 18.2283
H 25.181 1.56184 17.5886
O -21.2537 24.6641 27.7691
H -20.7405 25.3882 27.4106
H -20.609 23.981 27.9531
O -29.9462 -12.5503 21.4326
H 29.465 -13.2101 21.7991
H -29.3154 -12.3769 22.1314
O 1.41521 5.58221 -29.6979
H 2.1547 5.13696 -29.2842
H 1.62126 6.51363 -29.6191
O -29.1073 10.9979 16.606
H -29.2839 10.4137 15.8686
H -29.9731 11.2773 16.9036
O -25.7975 -24.5977 -24.2588
H -26.1154 -25.4679 -24.0179
H -24.939 -24.756 -24.6513
O 19.2814 -10.2556 -15.1396
H 18.9808 -9.54035 -15.7002
H 18.6616 -10.2657 -14.4103
O 20.3984 26.0365 28.3823
H 21.185 26.3337 28.8397
H 19.9934 25.411 28.9831
O -9.03679 -19.1195 18.5833
H -8.57655 -18.4428 18.0869
H -9.63996 -18.6352 19.1471
O -27.3371 3.38497 7.7086
H -28.0839 2.78644 7.72109
H -26.5737 2.81439 7.61908
O -1.69848 -16.0116 19.976
H -0.894329 -16.5246 20.0561
H -1.48842 -15.335 19.3323
O -25.5749 -17.2174 -15.5471
H -25.9871 -17.9404 -16.0199
H -24.6597 -17.482 -15.4544
O -13.7609 5.08836 10.2032
H -13.5698 4.36857 9.60185
H -13.7277 5.87323 9.65626
O -6.73441 19.6054 21.8993
H -6.4647 20.4972 21.6797
H -7.23171 19.3104 21.1365
O 6.97677 -22.7355 -26.7739
H 7.00368 -23.4937 -27.3575
H 6.11499 -22.7818 -26.3599
O 9.47883 -17.865 -23.4159
H 9.00155 -18.5781 -23.8402
H 9.73488 -17.2867 -24.1343
O 22.6491 -13.4535 16.508
H 22.5368 -12.9186 17.2938
H 22.0941 -13.0339 15.8507
O -1.2933 7.59804 28.23
H -2.06982 7.61131 27.6705
H -1.20464 6.68277 28.4958
O -13.416 8.17145 11.0561
H -13.5556 8.53761 11.9294
H -12.8764 8.82188 10.6066
O -1.43439 6.89029 -28.9367
H -2.23048 7.09466 -29.4273
H -0.871128 7.6536 -29.0645
O -28.5327 -0.726619 -6.08144
H -29.125 -1.35896 -6.48825
H -27.6672 -1.12951 -6.15079
O 6.70678 25.7802 3.76354
H 7.3481 26.4816 3.6493
H 6.58184 25.7212 4.71071
O -29.6036 -13.1993 -14.087
H 29.6012 -12.731 -14.3413
H -29.7361 -14.0904 -14.4105
O 7.55457 -10.308 -26.109
H 6.82969 -10.4179 -26.7244
H 8.02333 -9.53585 -26.4258
O 23.4601 -21.1501 16.6668
H 23.3101 -21.3765 15.749
H 23.5938 -21.9917 17.1028
O -12.8033 -13.6159 5.51603
H -13.5379 -14.1261 5.85716
H -13.1245 -12.7144 5.49912
O -11.1007 -29.5756 -20.5882
H -11.9244 -29.1715 -20.3153
H -11.2643 -29.8727 -21.4833
O -4.61117 6.33831 2.57562
H -3.80041 6.7484 2.27442
H -5.26687 7.03341 2.51969
O 29.8577 -25.1294 -11.6965
H 28.9745 -24.9632 -11.3669
H -29.7575 -24.2592 -11.8012
O 24.6292 -2.0381 -5.28191
H 23.9789 -2.18609 -4.59527
H 24.4364 -1.15971 -5.60976
O 14.9481 -0.668161 -21.0183
H 14.9021 0.10466 -20.4554
H 14.2736 -1.25485 -20.676
O -15.6839 -14.2673 19.7036
H -14.935 -14.8271 19.9086
H -15.6597 -14.1732 18.7514
O -8.489 -5.05871 -27.4622
H -9.16567 -4.40373 -27.6335
H -7.94177 -4.66617 -26.782
O 5.84589 -6.63689 -16.6548
H 5.03368 -6.3642 -17.0816
H 5.62231 -7.45732 -16.2153
O 29.4116 21.5889 -3.93265
H 29.5915 20.8553 -3.34467
H -29.8052 21.6563 -4.47879
O 15.2867 -12.1314 -7.55265
H 14.8282 -12.9628 -7.67462
H 16.1643 -12.3816 -7.26369
O 14.0468 -3.19028 -1.56747
H 14.7058 -3.59057 -2.13465
H 13.2343 -3.64797 -1.78346
O 21.8428 -1.35552 0.0219504
H 21.6443 -1.16884 0.939544
H 21.8058 -2.30985 -0.042264
O -8.80151 -4.66774 -14.9476
H -8.3332 -5.22226 -15.5717
H -8.98222 -3.86176 -15.4313
O -23.1734 17.8584 -27.0052
H -23.0164 17.6662 -26.0807
H -23.762 18.6132 -26.9968
O 23.0726 -9.34247 -3.25135
H 23.471 -10.2125 -3.22693
H 22.1346 -9.50519 -3.15239
O 13.7356 -9.18498 -15.6534
H 13.1172 -8.54402 -16.004
H 13.8935 -8.89901 -14.7537
O 18.5142 18.6733 27.1078
H 17.6634 19.03 26.8526
H 18.3034 17.937 27.6819
O -13.4185 -18.1291 5.31062
H -13.1409 -17.4395 4.70765
H -13.7512 -17.6595 6.07548
O -16.2124 1.82465 -4.43993
H -15.8289 2.70045 -4.3943
H -15.9615 1.49745 -5.30376
O -22.3167 8.08166 -7.29764
H -21.4457 7.77632 -7.04395
H -22.1579 8.90805 -7.75382
O 27.6658 -0.222367 10.8267
H 28.1866 -0.655306 10.1502
H 27.5241 0.662653 10.4907
O -16.7433 15.6708 8.79068
H -17.2598 16.281 8.26433
H -16.9403 14.8096 8.42218
O -3.32735 6.82647 12.4325
H -3.66648 7.5651 12.9381
H -3.49698 7.06196 11.5204
O 3.76699 -4.33826 13.0729
H 3.43251 -3.48042 12.8113
H 3.76171 -4.31623 14.0299
O -27.5173 -26.8788 -10.6141
H -27.0062 -27.092 -9.83337
H -28.4057 -26.7359 -10.2878
O -15.6961 -12.2834 -19.8872
H -16.6077 -12.2169 -19.6031
H -15.6303 -11.6788 -20.6264
O 5.05745 21.5967 -26.4601
H 5.36432 20.691 -26.5026
H 5.85785 22.1217 -26.4626
O 14.0115 -7.55141 -18.4725
H 14.4907 -7.58088 -19.3006
H 13.9624 -6.62017 -18.2566
O -1.96596 -10.1745 -16.8505
H -1.26465 -9.6417 -17.2254
H -2.7723 -9.76419 -17.1631
O -21.8066 -7.22002 28.2217
H -21.6022 -7.76901 27.4647
H -22.0132 -7.84132 28.92
O -20.0644 26.8619 -28.4434
H -19.5647 26.0612 -28.2843
H -19.4633 27.5699 -28.2118
O -28.9853 5.36625 15.733
H -28.9654 5.42834 16.688
H -28.7757 4.45086 15.5476
O 5.18107 -2.2927 4.24636
H 4.30759 -1.92002 4.36626
H 5.33278 -2.80833 5.03841
O 7.62968 20.6728 4.21341
H 6.92995 20.2246 4.68859
H 8.11969 21.1387 4.89093
O 20.8621 5.22717 -2.7573
H 19.9797 5.45582 -2.46529
H 21.4151 5.37719 -1.99051
O 6.58522 7.67082 -1.68964
H 6.53876 8.12973 -0.850908
H 6.63448 8.36888 -2.34273
O -24.3485 -6.01563 -19.5183
H -23.8055 -5.24632 -19.3464
H -23.8491 -6.52392 -20.1574
O 21.2964 7.51139 14.3421
H 20.8379 8.10807 13.7505
H 20.8055 7.56244 15.1623
O 13.6817 9.3158 7.7474
H 14.1953 10.0038 7.32424
H 14.2803 8.92733 8.38533
O -19.9728 13.9757 21.4554
H -19.6081 13.0935 21.5261
H -20.8321 13.8486 21.0532
O -16.6242 -9.25024 -19.1034
H -16.4193 -9.02463 -20.0108
H -15.7939 -9.55693 -18.739
O 1.75039 -29.9357 21.287
H 1.27362 -29.1181 21.1438
H 1.26971 29.6261 21.9893
O -14.0565 2.69526 -17.4949
H -14.2205 2.9096 -16.5765
H -14.6407 1.95935 -17.6776
O 27.903 -16.4196 29.9496
H 28.1634 -17.2837 -29.7315
H 27.5214 -15.9869 -29.2866
O -3.2685 -28.7018 2.07097
H -2.58544 -28.9479 2.69473
H -3.4975 -27.8031 2.30806
O 3.68821 22.183 15.2365
H 3.53019 22.5547 14.3687
H 3.87084 21.258 15.0718
O -8.12841 -7.14887 26.8188
H -8.97522 -6.71286 26.9139
H -8.34158 -8.01287 26.4663
O 22.3951 -5.31377 0.967366
H 22.7034 -4.58946 1.5119
H 21.9736 -5.91394 1.58249
O 27.2463 8.58581 2.54384
H 28.1725 8.59483 2.78504
H 27.2165 9.0171 1.68982
O 18.6447 -3.93014 -16.8975
H 18.0888 -3.21464 -17.2062
H 18.7701 -3.75168 -15.9655
O -1.28438 -5.26968 -8.55385
H -1.89351 -6.00292 -8.64084
H -0.430315 -5.68147 -8.42258
O -22.6939 9.59759 15.4712
H -21.9443 10.0244 15.8863
H -22.8319 10.0892 14.6616
O -14.3317 23.945 18.0095
H -14.6152 24.4383 17.2398
H -14.5377 23.0341 17.8
O -1.71196 -5.01416 -5.19383
H -1.70632 -4.72485 -4.28141
H -1.27357 -5.86494 -5.17854
O -6.74602 -24.6505 -24.0149
H -5.96404 -24.2643 -24.4093
H -7.20031 -23.9118 -23.6098
O -8.75878 -4.69926 12.3262
H -8.43049 -4.87973 11.4453
H -8.02357 -4.90579 12.9033
O -26.214 25.8735 -8.78625
H -25.3302 25.5934 -9.02404
H -26.7041 25.058 -8.68116
O -22.8796 -27.9879 -25.6314
H -22.3939 -28.6446 -26.1304
H -23.0098 -28.3878 -24.7715
O 25.3004 -29.388 -8.83508
H 25.7202 -28.7903 -8.21646
H 25.6176 -29.1069 -9.69332
O 1.32183 -25.3855 6.11876
H 1.87525 -26.1389 6.3246
H 1.91319 -24.6341 6.1629
O -12.6938 27.6383 -26.4236
H -11.9327 27.5527 -26.9978
H -13.3871 27.9728 -26.9925
O -28.7641 -8.17502 28.9639
H -28.5883 -9.10249 29.1224
H -28.2051 -7.71443 29.5897
O -21.5392 22.3191 -15.1208
H -21.5999 21.3657 -15.0611
H -22.0795 22.547 -15.8774
O -13.8324 -23.4452 -16.9273
H -13.0042 -22.9987 -16.7514
H -13.6076 -24.1275 -17.5598
O 0.461572 -19.5451 8.60736
H 1.04336 -18.8771 8.97003
H 0.488338 -19.3989 7.66177
O -29.0213 -19.0916 -0.463927
H -29.176 -18.4557 0.234641
H -29.8833 -19.2319 -0.855802
O -15.7129 28.7136 6.05995
H -15.7914 28.0326 6.72804
H -16.4752 28.5851 5.49548
O 0.493333 -20.7928 -3.25887
H -0.149119 -20.5567 -2.58972
H 1.12979 -21.3395 -2.79824
O 1.60219 3.68855 0.635465
H 1.98997 4.21726 -0.0619088
H 1.2813 4.32808 1.27128
O -22.0046 21.2618 -8.70852
H -21.5555 21.5291 -9.51043
H -21.8187 21.9631 -8.08417
O 29.7127 -2.584 26.4031
H -29.7306 -2.44425 25.6371
H 28.8283 -2.66321 26.0458
O 16.6877 26.3846 -28.4455
H 16.8512 26.6303 -29.3561
H 17.473 25.9053 -28.1815
O 8.65606 -8.33441 -20.1119
H 9.40779 -8.61268 -19.5887
H 7.95363 -8.20747 -19.4742
O 29.324 -9.84814 -27.756
H 28.4465 -9.99858 -28.1075
H 29.403 -8.89544 -27.7075
O -28.563 -13.2324 26.0196
H -29.1675 -13.6044 26.6618
H -28.1037 -13.9893 25.6557
O 26.8406 -16.0619 10.0758
H 25.9603 -16.3193 9.80183
H 27.4218 -16.6687 9.61711
O -13.7262 4.82289 -4.0238
H -13.4721 5.73089 -4.18873
H -14.6821 4.82814 -4.07477
O -14.8601 -14.546 27.6151
H -14.449 -14.5256 26.7509
H -15.7998 -14.563 27.4334
O 9.46998 -8.49716 12.3622
H 9.72301 -8.08466 13.1881
H 9.62899 -9.43071 12.5016
O -26.5407 9.92551 26.0278
H -26.9061 9.98417 25.145
H -25.8798 10.6171 26.0604
O -24.7371 -25.463 19.1664
H -24.9897 -26.0248 19.899
H -25.0153 -24.5858 19.4296
O -10.275 -21.1935 9.78609
H -10.0306 -20.3873 9.33155
H -9.48442 -21.4505 10.2606
O -6.88063 9.57127 -3.05923
H -7.54055 9.67036 -2.37298
H -6.07439 9.90654 -2.66707
O 11.347 5.96291 17.9087
H 10.3991 6.08021 17.9717
H 11.4582 5.22578 17.3082
O 16.4093 -17.3463 -9.22577
H 16.8769 -17.4714 -8.39996
H 17.1006 -17.234 -9.87831
O 10.7289 13.9983 10.9894
H 11.4573 13.3947 10.8434
H 10.0271 13.448 11.3372
O 16.3706 -28.8882 22.221
H 16.6661 -29.7245 21.8612
H 16.5849 -28.9386 23.1525
O 19.0016 24.9383 -1.62365
H 19.7182 24.3892 -1.30563
H 18.9306 25.6392 -0.975639
O -2.50549 -13.2149 24.5659
H -1.96846 -12.5872 24.0823
H -2.08028 -13.2862 25.4205
O -11.5468 20.3231 -3.42554
H -12.3276 20.4418 -2.88472
H -11.1124 19.555 -3.05462
O 22.9335 -12.0064 -23.3461
H 23.854 -11.933 -23.5981
H 22.8933 -12.8 -22.8124
O 4.95355 -19.5122 12.9026
H 5.86806 -19.2836 13.0687
H 4.88488 -20.4309 13.1624
O 28.5236 22.8704 12.9869
H 27.6112 23.1474 13.0719
H 28.6452 22.2273 13.6854
O 15.7168 -25.4934 25.7774
H 15.5021 -25.3606 24.854
H 15.6143 -26.4351 25.9146
O -23.8935 -10.7258 -13.1168
H -23.9034 -11.5876 -12.7002
H -24.1099 -10.1159 -12.4115
O 13.6393 21.378 -4.49742
H 14.2242 21.278 -3.74631
H 13.7976 20.5987 -5.03025
O 9.03303 13.499 -9.45319
H 9.23423 12.7533 -8.88772
H 8.75443 13.105 -10.2799
O 9.60948 0.426521 -18.8341
H 8.90684 -0.159111 -19.1162
H 9.79613 0.965174 -19.603
O 28.4028 28.5436 27.8501
H 28.501 28.1701 26.9743
H 29.0919 29.2056 27.9073
O 29.8425 26.7984 -11.0236
H 28.8998 26.7849 -10.8581
H 29.9217 26.6798 -11.9701
O -19.5977 -11.0012 16.8832
H -20.442 -10.5508 16.8597
H -18.9522 -10.3084 16.743
O 13.2967 -23.4372 -26.4015
H 12.6226 -23.9598 -26.836
H 12.8506 -23.047 -25.6499
O 2.13216 -2.95368 -29.8329
H 2.76666 -2.28049 29.9213
H 1.5709 -2.52897 -29.1841
O 10.5024 -7.15982 28.3846
H 11.1118 -7.6049 27.7957
H 9.97122 -6.60955 27.8091
O 7.48 2.40898 21.3443
H 8.00013 1.65165 21.0757
H 6.69527 2.03219 21.7423
O 4.60119 0.744584 6.72943
H 4.49043 0.115781 6.01628
H 3.75487 0.751873 7.17655
O 13.5323 1.7281 18.6013
H 14.0362 1.90694 17.8073
H 13.4965 2.56896 19.0572
O -0.0483261 16.8231 11.0162
H 0.761374 16.9057 11.52
H -0.0411053 15.921 10.6964
O 4.12084 -25.3919 -10.8665
H 3.66827 -24.5626 -11.0205
H 4.64019 -25.2389 -10.0772
O 7.90491 3.06052 -24.5659
H 7.68991 3.99269 -24.5983
H 7.13543 2.62389 -24.9313
O -4.18883 -6.85318 -17.9863
H -4.82567 -6.59815 -18.6539
H -4.3163 -7.79597 -17.8808
O 27.1962 -27.6533 4.16495
H 28.0366 -27.8024 4.59831
H 27.4214 -27.52 3.2442
O 9.1205 8.13908 -11.4711
H 9.49431 8.65077 -12.1885
H 8.47166 7.57472 -11.8915
O -23.1483 23.1608 0.369579
H -23.4748 23.9532 -0.0567513
H -22.4344 23.4661 0.929223
O -21.3389 23.5069 -23.3675
H -20.5211 23.5992 -22.8787
H -22.0007 23.3348 -22.6978
O -20.3329 -23.6174 -1.19884
H -19.4914 -23.7172 -0.753594
H -20.9156 -23.2539 -0.532075
O -10.9407 -21.8044 -8.92945
H -10.0702 -22.1995 -8.97806
H -10.789 -20.9345 -8.56005
O 16.913 2.33179 -17.0825
H 17.7369 1.89282 -16.871
H 16.2832 1.61958 -17.1932
O -28.8059 -21.2265 25.9106
H -29.7242 -21.2185 25.6407
H -28.3728 -20.6241 25.3058
O -9.23473 -17.6522 -25.7203
H -8.57079 -17.1737 -25.2239
H -8.94784 -17.5855 -26.631
O -11.0966 8.31072 -25.6794
H -10.274 7.84861 -25.8408
H -11.74 7.85108 -26.2188
O 10.1195 3.88055 8.22699
H 9.30958 3.75613 7.73227
H 10.8163 3.70325 7.59512
O 29.2018 24.4203 -21.0344
H 28.6165 23.9459 -21.6247
H -29.947 24.3985 -21.4718
O 18.6324 13.0913 11.723
H 18.0001 13.7296 12.0531
H 18.7188 13.2982 10.7925
O -10.8941 19.3099 15.7497
H -10.0217 19.6156 15.9982
H -11.0494 18.548 16.3079
O 28.3229 7.57224 -15.2851
H 28.7051 6.71696 -15.0884
H 28.9909 8.01985 -15.8044
O -18.0614 22.0808 28.5793
H -17.5421 22.044 29.3825
H -18.9694 22.0325 28.8781
O 1.33754 -7.36294 7.74325
H 0.536282 -6.86627 7.90918
H 1.3691 -8.00997 8.44794
O -6.37579 29.8333 25.7887
H -6.57679 -29.2708 25.5181
H -6.78342 29.7457 26.6503
O 27.8523 -1.27683 4.31313
H 27.3845 -1.90181 4.86703
H 28.7716 -1.53366 4.38499
O -3.4115 -12.0074 10.6849
H -2.62802 -12.5359 10.837
H -3.59174 -11.5967 11.5305
O -22.3592 -23.7494 14.3341
H -21.9822 -23.718 13.4548
H -23.2892 -23.5645 14.2032
O 6.82384 13.3977 17.4721
H 5.8892 13.553 17.6083
H 7.25762 14.081 17.9832
O 25.5511 10.6173 19.5217
H 24.6026 10.4932 19.4866
H 25.8598 9.9388 20.1222
O -15.2936 26.2155 9.11934
H -14.6847 25.5054 8.91635
H -16.1612 25.8231 9.02125
O -7.80424 12.7313 21.1797
H -7.71828 13.55 20.6912
H -7.76831 12.0477 20.5106
O -10.0643 -5.71423 27.6585
H -10.3654 -6.24302 28.3973
H -9.8034 -4.88079 28.0503
O -18.809 26.9553 7.67364
H -19.4419 26.272 7.45297
H -17.9794 26.4894 7.77819
O -18.5447 -0.992706 23.2429
H -18.5918 -1.25119 24.1633
H -18.5759 -0.036173 23.2603
O 17.137 -26.1318 -26.1751
H 16.7133 -25.3961 -25.7331
H 16.4347 -26.5484 -26.6746
O -2.33281 -4.77419 -16.3656
H -2.04917 -3.99801 -16.8486
H -2.38327 -5.4637 -17.0276
O -6.09494 12.02 -18.1158
H -6.88225 12.0885 -17.5757
H -5.37114 12.1429 -17.5016
O 2.95204 13.9462 12.2572
H 2.88843 13.1514 12.787
H 2.05604 14.1113 11.9637
O 10.6409 28.6055 16.1004
H 10.2179 28.4067 16.9357
H 11.5762 28.4979 16.2734
O 1.67872 28.0802 3.56533
H 1.25722 27.3925 3.04982
H 2.59154 27.8011 3.63681
O -9.465 3.28503 -25.9895
H -10.1793 3.38978 -25.361
H -9.67908 2.48202 -26.4645
O -22.0837 20.2452 8.17304
H -21.7561 19.7315 8.91126
H -22.436 19.5948 7.56557
O -24.7078 -21.9193 13.9845
H -25.6207 -22.2034 14.0289
H -24.7502 -20.965 14.0462
O -2.102 23.4934 -5.06563
H -1.5003 23.5527 -4.32356
H -2.41467 24.3891 -5.19326
O 16.9862 -28.9919 17.4799
H 16.7576 -29.4092 18.3104
H 17.9262 -28.8238 17.5464
O 19.3816 22.1343 -12.8584
H 19.9671 22.7169 -13.3422
H 19.0932 22.6533 -12.1076
O -10.9835 18.7383 -15.0357
H -10.9421 17.7856 -14.9535
H -10.9324 18.9004 -15.9776
O 7.8757 -2.98405 -8.58554
H 8.32585 -2.34035 -8.03851
H 8.45677 -3.10976 -9.33573
O -2.63586 -17.8837 0.776009
H -3.29803 -17.3751 1.24414
H -2.57053 -17.4617 -0.0806822
O 6.26937 28.8483 -3.5416
H 6.5676 28.8806 -2.63262
H 5.45998 29.3593 -3.54687
O -23.4674 -16.4834 20.2265
H -22.9245 -17.2695 20.2862
H -24.3665 -16.8116 20.2321
O -20.5617 -7.93899 -19.2813
H -20.8546 -8.52098 -19.9825
H -19.6259 -7.81994 -19.4434
O -12.0453 10.8178 20.6061
H -11.7807 11.7373 20.6346
H -11.2573 10.3335 20.8523
O -15.4303 -15.1018 -10.9111
H -15.0173 -15.2366 -11.764
H -16.2075 -15.6601 -10.9298
O 3.94913 28.2113 13.3306
H 3.8579 28.4456 12.407
H 3.16688 28.5718 13.7481
O -10.736 -13.7595 -2.5797
H -11.0987 -13.1086 -3.18048
H -11.2669 -14.5426 -2.72527
O 17.2908 -10.1847 -19.4154
H 16.4091 -9.84081 -19.272
H 17.4565 -10.0393 -20.3468
O 1.34356 -18.6594 12.2215
H 0.832806 -18.5381 13.0219
H 0.790601 -18.3009 11.5273
O 24.8882 18.6807 -12.7876
H 24.1895 18.9064 -12.1735
H 24.6098 19.0641 -13.6193
O -29.1222 24.2115 15.2343
H -29.7723 23.9143 15.8709
H -29.4678 25.0425 14.9084
O -23.5876 17.0082 -21.1333
H -24.1549 17.4141 -20.4778
H -22.714 17.0331 -20.7431
O 22.1757 -15.9307 4.40888
H 22.7442 -15.4602 5.01863
H 21.3065 -15.5573 4.55437
O 16.8859 20.468 -17.3871
H 17.7243 20.0174 -17.2848
H 16.5208 20.4989 -16.5028
O -4.38317 -10.7105 20.8166
H -4.7271 -11.5498 20.5107
H -3.66422 -10.9453 21.4033
O -5.73072 -18.3783 -27.2321
H -4.93732 -18.5175 -26.715
H -5.42707 -17.9304 -28.0217
O 18.2311 -18.4852 27.3016
H 18.2754 -18.4337 28.2564
H 18.745 -19.2614 27.079
O -0.502495 22.8627 -10.7235
H -0.80085 21.9797 -10.5057
H -0.914119 23.0541 -11.5662
O 2.69467 23.588 -25.7699
H 3.45099 24.129 -25.5429
H 3.02921 22.9673 -26.4173
O -12.0078 -1.33216 -12.2979
H -11.0732 -1.49715 -12.1735
H -12.3129 -2.06805 -12.8286
O -2.03188 -3.1999 2.38339
H -1.40618 -3.77247 1.93967
H -2.41193 -2.67063 1.68221
O -8.03613 -11.4109 19.9375
H -8.31956 -10.5762 19.5643
H -8.31434 -12.0665 19.2981
O 26.865 -2.89331 12.2088
H 26.0966 -2.56359 11.7429
H 26.6054 -3.76224 12.515
O 16.7987 -25.9517 -21.584
H 16.6465 -26.8372 -21.9141
H 17.0069 -25.4373 -22.3639
O 28.8724 -8.02686 -19.5729
H 29.7637 -8.0399 -19.9217
H 28.9679 -7.68781 -18.6828
O -7.39765 6.65755 29.8823
H -7.97144 5.92703 29.6513
H -6.76374 6.70045 29.1663
O -23.8517 2.87825 3.84289
H -23.4958 3.64352 3.39134
H -24.3111 3.23914 4.60117
O 12.6574 -25.7317 -12.5575
H 13.4392 -25.9221 -13.0759
H 11.9549 -26.2095 -12.9985
O -6.09436 18.0003 -25.4144
H -5.63245 17.4669 -24.7676
H -5.86868 17.6052 -26.2566
O 9.63616 -16.0227 -9.89786
H 10.3589 -16.254 -9.31445
H 9.3644 -16.8549 -10.2849
O -13.9556 10.8862 17.1571
H -14.2114 10.0318 16.8098
H -13.3267 11.2256 16.5203
O -24.4125 -18.6284 -19.9615
H -24.82 -19.1203 -19.2487
H -25.1483 -18.3082 -20.4834
O 25.9102 10.2223 7.39707
H 25.0791 10.5683 7.72237
H 26.5781 10.7027 7.88637
O -16.0359 -0.749417 9.44295
H -16.3247 0.147119 9.27252
H -16.6404 -1.29584 8.94072
O -20.0216 25.8101 4.75318
H -19.3891 25.3812 4.17671
H -19.9565 25.3311 5.5794
O -22.9037 -9.78946 0.611718
H -22.3317 -9.20012 1.10338
H -22.7113 -10.6589 0.962777
O -9.26734 11.2187 7.3257
H -9.21546 12.1096 7.67172
H -9.4284 11.3339 6.38921
O -10.8317 17.6716 6.80278
H -11.5627 17.0828 6.61536
H -11.1004 18.5128 6.43347
O 1.18436 -14.8233 28.8167
H 1.33901 -14.1314 29.4599
H 1.72559 -14.5785 28.0661
O -0.237754 10.1222 1.4767
H 0.532797 9.9029 0.952891
H 0.0789728 10.1251 2.37998
O -14.355 28.7678 -29.7812
H -14.784 29.5771 -29.5034
H -14.9244 28.4172 29.5339
O 11.3577 28.1014 8.15064
H 10.4339 27.8974 8.29601
H 11.5359 28.8375 8.73591
O -10.1728 -28.8748 17.3601
H -10.9679 -29.0595 17.86
H -10.2137 -27.9351 17.1826
O 22.0145 13.8497 3.14916
H 21.4223 13.8572 3.90119
H 21.8654 14.6912 2.71797
O -17.1917 -10.5332 2.23892
H -16.4274 -10.1818 1.78213
H -16.8495 -11.2664 2.75028
O -11.3367 11.1287 -18.1903
H -11.9049 11.8807 -18.0234
H -11.8937 10.3669 -18.0304
O 25.4389 -8.9056 23.4406
H 25.4649 -9.46715 22.6658
H 25.7721 -8.0614 23.1364
O -4.00349 -27.3379 -22.8928
H -3.84684 -27.0353 -21.9983
H -4.92618 -27.1412 -23.0546
O 18.9166 11.634 17.5904
H 19.7344 11.8315 18.0469
H 19.0049 10.7185 17.3252
O 21.105 23.7468 24.0412
H 21.0529 24.6888 23.8793
H 20.2652 23.404 23.7353
O 17.8602 -0.655093 -16.9337
H 18.7223 -0.620985 -16.5192
H 17.2416 -0.621922 -16.204
O 12.548 6.78297 1.9899
H 12.1689 7.56538 2.39032
H 13.2904 7.10934 1.48141
O 28.808 -16.5154 7.84529
H 29.3916 -15.8807 7.42959
H 29.3948 -17.1157 8.30521
O -9.68505 -18.9788 13.7697
H -9.81 -19.3971 14.6215
H -8.9162 -19.4126 13.3997
O 15.9188 21.446 8.354
H 15.508 22.3035 8.24343
H 15.2668 20.9264 8.82428
O -10.7344 19.591 25.0594
H -10.2372 19.4785 24.2493
H -10.8442 20.5381 25.144
O -20.7608 6.73868 -26.737
H -20.4578 6.33393 -27.5498
H -20.0048 7.2316 -26.4181
O -13.0215 -23.03 22.4653
H -13.4402 -22.4462 21.8328
H -12.8967 -23.8506 21.9884
O -29.6161 -5.50063 -17.363
H -28.9804 -5.69191 -18.0526
H 29.671 -5.04715 -17.8128
O -1.43064 -25.3472 -5.39205
H -0.810062 -24.6193 -5.428
H -1.01208 -26.0446 -5.89674
O 11.3718 -16.7217 19.5954
H 11.6391 -17.6254 19.7629
H 12.0258 -16.3878 18.9814
O 15.899 -21.0791 21.1775
H 16.5581 -21.5428 21.694
H 16.386 -20.7146 20.4384
O -9.35541 -12.5875 17.6703
H -9.97447 -13.2229 18.0299
H -9.90659 -11.8923 17.311
O -19.7517 -20.3271 1.15753
H -18.95 -20.8123 1.3528
H -19.8969 -19.7823 1.93106
O 13.7837 27.7779 -6.23048
H 14.5086 28.1979 -5.76762
H 13.8453 28.1111 -7.12569
O -22.1651 -24.4966 5.03288
H -23.0469 -24.1912 5.24573
H -21.7128 -23.7174 4.70947
O 12.3852 -25.0115 -8.19649
H 11.558 -24.7521 -7.79048
H 12.3361 -25.9658 -8.25256
O 22.9669 -11.7542 19.638
H 22.5585 -12.0033 20.4671
H 22.4456 -11.0143 19.3265
O 2.22525 -19.7987 0.593453
H 1.69218 -19.4997 -0.143213
H 1.88671 -20.6708 0.796318
O -21.4013 2.69229 -12.3352
H -22.2893 2.42264 -12.5699
H -20.8335 2.15598 -12.8886
O 5.33215 -12.5995 -7.51247
H 5.59484 -12.6627 -8.43075
H 6.06334 -12.1548 -7.08376
O -21.136 -27.6507 -20.5459
H -21.1099 -28.5445 -20.2045
H -20.7507 -27.7162 -21.4197
O 1.35423 19.356 29.3883
H 2.24737 19.696 29.3338
H 0.813608 20.0364 28.9869
O -29.9125 -6.87344 -27.7543
H -28.993 -6.81773 -27.494
H 29.6064 -6.49586 -27.018
O 15.812 -24.1142 -16.6837
H 16.6141 -24.5409 -16.3823
H 15.1615 -24.3257 -16.0141
O -14.2002 -13.353 -15.7454
H -14.2712 -13.678 -16.643
H -15.0865 -13.0686 -15.5223
O -3.52647 -1.3132 -25.7784
H -3.23668 -0.519082 -26.2275
H -3.95542 -0.996441 -24.9835
O 9.46396 20.2427 6.28491
H 8.86691 19.5111 6.12822
H 10.0429 20.2475 5.52262
O 10.9732 3.18101 22.7659
H 10.2225 2.58743 22.7449
H 11.1603 3.29833 23.6973
O 25.9856 -14.9662 -7.09242
H 25.1929 -15.5028 -7.09037
H 26.4191 -15.1754 -6.26505
O -8.14399 3.76965 -19.566
H -7.87167 3.86969 -18.6538
H -8.46162 2.86856 -19.6242
O 8.85974 21.6436 -18.9001
H 9.39161 22.4328 -19.0024
H 8.72009 21.569 -17.9561
O -14.1594 14.0275 -20.3732
H -13.2277 14.0832 -20.5854
H -14.3686 13.0969 -20.4537
O 2.83215 -17.5379 -27.2871
H 3.61453 -17.3743 -26.7604
H 2.40678 -18.2817 -26.8603
O -20.5504 16.6666 -4.97585
H -20.8281 15.7654 -4.8117
H -19.5983 16.6458 -4.87885
O 4.06847 -4.0056 -17.7414
H 3.19393 -4.37859 -17.6305
H 4.44947 -4.49904 -18.4678
O 29.2904 -6.69111 -23.6889
H 28.5945 -7.2077 -23.2826
H 29.5075 -6.02548 -23.0362
O 5.83842 16.2436 9.77021
H 5.69559 17.1793 9.62769
H 5.53136 16.0873 10.6632
O 0.604402 -26.8685 -10.2925
H 0.0669195 -27.3555 -9.66794
H 1.32881 -27.4595 -10.4978
O 23.5875 -20.1897 25.7016
H 24.2645 -19.7002 25.2345
H 24.0724 -20.8055 26.251
O 18.0441 -0.085736 -0.150197
H 18.2671 0.359458 0.667303
H 17.8275 0.621795 -0.75741
O -13.5525 -12.9963 11.5029
H -14.1026 -13.2844 12.2313
H -14.089 -13.1437 10.724
O -23.9622 1.58154 -12.9053
H -24.7776 1.21321 -13.2455
H -23.5715 2.03203 -13.6541
O 13.7677 18.7188 -22.1514
H 13.9868 18.414 -23.0319
H 13.3581 19.5731 -22.2881
O -8.97747 -5.48021 -10.1064
H -8.64378 -6.37731 -10.1156
H -8.9124 -5.20934 -9.19066
O -9.35224 26.5698 14.8571
H -9.15652 27.5055 14.8073
H -9.4639 26.3974 15.792
O 3.92495 -21.4172 -15.4353
H 4.85802 -21.2497 -15.5679
H 3.53747 -21.3183 -16.305
O -18.1235 18.9941 -0.55296
H -18.9392 18.6037 -0.239054
H -17.6099 18.2523 -0.872688
O -7.07074 -1.68379 -21.9765
H -6.28583 -1.13838 -21.9246
H -7.79692 -1.07084 -21.8616
O -14.5899 0.181505 -22.4485
H -14.9564 -0.675661 -22.6656
H -15.1573 0.516209 -21.754
O 12.1086 -10.4447 27.8977
H 11.5488 -10.3778 27.1242
H 13.0001 -10.4488 27.5492
O 27.0241 -3.51017 -3.20267
H 26.8701 -4.45171 -3.2803
H 26.1783 -3.14988 -2.93598
O -20.4847 14.7045 -7.44994
H -20.364 15.2889 -6.70149
H -21.3497 14.3174 -7.31512
O 7.12726 15.9282 -19.436
H 7.89148 15.4551 -19.1067
H 7.13253 15.7656 -20.3793
O 23.7807 -14.6921 10.6608
H 23.8209 -15.6307 10.8442
H 24.1239 -14.278 11.4526
O 28.3268 2.31376 -12.9496
H 28.131 1.37882 -13.011
H 27.7932 2.62316 -12.2176
O 26.1396 16.8919 -10.7858
H 26.3612 17.7835 -11.0542
H 25.4661 17.0035 -10.1148
O -24.7023 16.8678 2.74194
H -24.1069 17.5437 3.06596
H -24.4387 16.0732 3.20596
O 16.8456 -16.251 -13.0817
H 16.8854 -15.8749 -12.2024
H 15.9729 -16.6403 -13.137
O 12.4471 -10.0628 -26.7801
H 11.9 -10.4106 -27.4843
H 12.3571 -10.6982 -26.07
O 19.4965 10.5297 -27.2155
H 20.0383 9.74058 -27.2165
H 20.0851 11.2245 -26.9206
O 26.6019 20.285 -19.8674
H 26.7219 20.3755 -18.9221
H 25.653 20.3023 -19.9916
O 14.1116 -6.87578 0.498787
H 14.8721 -6.73575 1.06282
H 14.473 -6.91233 -0.386798
O 29.5674 -9.33055 -13.7821
H 29.5968 -9.87368 -12.9945
H 29.2294 -9.91271 -14.4626
O -14.2369 -26.5405 -16.9956
H -14.6205 -26.5609 -16.1189
H -13.2981 -26.4306 -16.8444
O 15.3615 23.26 -28.2923
H 15.033 23.7897 -29.0188
H 16.1903 23.673 -28.0498
O -14.0338 4.35797 28.773
H -14.8033 4.84649 29.0652
H -14.0849 3.52592 29.2435
O -13.7582 10.0617 -17.6279
H -14.0181 10.2918 -18.5199
H -14.5845 9.91308 -17.168
O -1.66648 22.8081 2.03906
H -1.37832 22.928 2.94396
H -2.56719 23.132 2.02915
O 2.1269 5.46303 -22.5328
H 2.43885 6.36025 -22.6508
H 2.91774 4.95629 -22.3484
O -22.5154 7.30975 11.855
H -22.1467 6.97765 11.0365
H -23.2691 7.83361 11.5836
O -15.8464 -17.2946 28.3071
H -16.2771 -17.0767 29.1338
H -15.0968 -16.7009 28.2633
O 18.139 -16.6001 -24.962
H 17.695 -15.756 -25.0435
H 17.5258 -17.2312 -25.3387
O 10.8232 25.7159 -18.3211
H 10.4661 25.2621 -17.5577
H 10.4346 25.2658 -19.0713
O 5.67649 -12.2364 -13.8363
H 5.27369 -12.0952 -14.693
H 6.61107 -12.0912 -13.9836
O -22.6362 -8.68796 10.6423
H -22.8294 -8.52667 9.71879
H -23.4219 -8.39835 11.106
O -21.676 -25.7692 -27.2794
H -22.0569 -26.1441 -26.4853
H -21.7529 -24.8227 -27.1588
O -21.0239 17.3487 20.1317
H -21.5726 16.9279 20.7936
H -21.0849 18.2835 20.3284
O 6.0595 25.6617 -22.7151
H 6.79866 26.1775 -22.3929
H 5.37073 25.7968 -22.0643
O -11.2871 -11.2694 8.03196
H -11.6915 -10.4868 7.65747
H -10.4648 -10.9572 8.40966
O -12.656 7.07689 -29.3695
H -13.5931 6.98021 -29.5386
H -12.5366 8.0127 -29.2075
O -8.85242 -9.65874 -20.8178
H -8.70936 -10.4667 -21.3108
H -9.64627 -9.82511 -20.3095
O 19.7053 10.4063 -0.604868
H 20.2559 10.8739 0.0232205
H 18.8097 10.5834 -0.31729
O 23.8719 -24.6511 -23.4567
H 23.1271 -24.6833 -22.8563
H 23.9552 -23.7255 -23.6862
O -14.9948 17.3336 -23.5721
H -14.1409 17.3462 -24.0045
H -14.8128 17.6089 -22.6736
O -19.0263 -2.38561 7.04381
H -19.6015 -2.20101 7.78632
H -19.3772 -3.19048 6.66268
O 13.707 -18.9043 25.4814
H 13.3564 -18.0975 25.1038
H 13.0148 -19.5519 25.3485
O -23.7174 2.25573 7.08822
H -24.1826 1.54499 7.52949
H -23.3741 2.79603 7.79984
O 2.40614 -29.4125 -20.208
H 3.20007 -29.356 -20.7397
H 2.52919 29.8014 -19.6758
O -8.92187 8.657 24.7797
H -8.39734 9.31724 25.2327
H -8.33163 7.91043 24.6773
O 19.3535 23.2334 -24.0524
H 19.3923 22.3154 -23.7839
H 18.8326 23.2267 -24.8554
O -18.4115 -25.8434 -18.3793
H -18.0371 -26.2387 -17.592
H -18.4576 -24.9084 -18.1798
O 24.9793 -9.65629 -17.7716
H 24.2752 -9.12571 -18.1445
H 25.2409 -10.2416 -18.4824
O -0.785745 16.4075 -19.6052
H 0.157887 16.5495 -19.5302
H -1.13847 16.6874 -18.7606
O 16.5044 -13.9176 4.06682
H 16.0445 -14.4455 4.71956
H 15.8103 -13.5712 3.50606
O -28.3183 -14.8292 -4.54106
H -27.9649 -14.1671 -3.94697
H -28.0071 -14.5653 -5.40694
O 17.0655 -4.95821 23.0395
H 16.5096 -4.35542 23.5333
H 17.5103 -4.40386 22.3983
O 5.04275 -19.2829 -21.3959
H 5.45401 -19.5643 -20.5786
H 4.51432 -20.0327 -21.6693
O 15.4 26.7624 -1.25434
H 15.3731 25.8809 -1.62652
H 15.5779 27.3332 -2.00186
O 2.46079 -12.73 27.2837
H 2.36344 -12.8732 26.3423
H 1.60299 -12.4149 27.5685
O -2.41937 -3.50879 -10.2206
H -2.00868 -3.86464 -9.43256
H -2.53853 -4.26709 -10.7924
O 24.6539 1.78645 29.8068
H 25.3727 1.20396 -29.9478
H 23.9886 1.64339 -29.5201
O 9.21415 13.7881 -17.6912
H 9.62094 14.1992 -16.9285
H 8.46335 13.3126 -17.3356
O -16.0718 8.71641 29.7102
H -15.8318 8.45005 28.8227
H -15.5668 9.51445 29.8661
O 21.9461 -14.821 -9.82426
H 21.2778 -14.9379 -9.14909
H 21.4869 -14.9861 -10.6477
O 12.9455 27.5366 0.288829
H 13.4171 27.4668 -0.541185
H 12.6596 28.4493 0.326397
O 28.1105 14.8326 20.5959
H 27.22 15.1313 20.4115
H 28.6699 15.5552 20.311
O -4.57287 27.1352 29.3451
H -3.92553 27.7827 29.0661
H -4.21252 26.7681 -29.8476
O 3.24695 5.2551 25.808
H 2.73965 5.39031 25.0077
H 3.8121 6.0254 25.867
O -13.6706 7.34853 -21.6079
H -13.7675 7.14937 -20.6767
H -12.8193 6.98038 -21.8448
O 2.09145 -24.2438 -24.8492
H 1.34264 -24.6834 -25.252
H 2.16215 -24.6382 -23.9799
O -1.96837 5.69921 15.3674
H -1.91118 6.42616 14.7473
H -2.5119 6.03427 16.0805
O -4.34785 26.9856 6.05149
H -4.06641 26.0797 6.1796
H -4.01566 27.4509 6.81917
O 21.4866 9.70648 -3.81305
H 22.3662 9.85409 -4.16073
H 21.5866 9.78852 -2.86463
O -29.0085 -17.3755 -5.56211
H -28.452 -17.4483 -6.33749
H -28.9348 -16.4581 -5.29913
O -20.2967 29.4921 -15.6208
H -20.2666 28.5796 -15.3333
H -20.8072 29.4719 -16.4303
O -16.1276 4.88641 6.62002
H -15.9811 3.95572 6.78907
H -15.6117 5.33601 7.28925
O 17.5653 16.407 -0.217151
H 16.8942 15.7871 0.0684728
H 18.3942 15.9649 -0.0337179
O -20.6298 27.8665 20.4009
H -19.9876 27.3173 20.8506
H -21.3824 27.2915 20.2625
O 16.6961 -24.3049 -19.5865
H 16.1006 -24.4161 -18.8454
H 16.5437 -25.0747 -20.1345
O -29.4584 -9.36731 -6.37063
H -29.624 -8.96129 -7.22149
H -29.4427 -10.307 -6.55213
O -16.962 -1.86823 -5.80141
H -16.5586 -2.56544 -6.3185
H -16.7303 -2.07602 -4.89622
O -19.3565 19.75 -23.7831
H -18.8639 20.5567 -23.6319
H -18.7306 19.049 -23.6015
O 8.86353 29.3314 -26.7259
H 8.46892 28.5251 -26.3936
H 9.80597 29.1661 -26.6992
O 2.33583 10.3094 24.5657
H 2.82506 9.76915 23.9452
H 2.50176 9.90609 25.4178
O -11.9757 -19.6746 7.81193
H -12.7035 -19.4224 7.24368
H -12.2335 -20.5244 8.16926
O -3.04516 12.8828 -6.15503
H -3.70069 12.333 -6.58422
H -3.41355 13.065 -5.29054
O 28.0888 4.56786 17.1727
H 27.9683 4.92272 18.0535
H 27.222 4.24872 16.9218
O 2.9344 24.0933 17.7828
H 3.47247 24.1024 16.9912
H 3.07651 24.9528 18.1794
O -12.8577 0.160696 13.2439
H -12.6311 1.07997 13.1031
H -12.6487 0.000336234 14.1642
O -19.8661 -27.2665 -8.22802
H -19.4659 -28.0774 -8.54209
H -20.8074 -27.4098 -8.32598
O -9.53497 -14.5113 10.5191
H -9.82518 -15.4152 10.3967
H -9.99943 -14.0166 9.84392
O -22.4691 -3.83483 25.2366
H -22.7194 -3.34317 26.0188
H -22.8483 -4.70387 25.3678
O 5.34049 -24.9723 -14.2768
H 6.1272 -25.1662 -13.7672
H 4.92284 -24.2498 -13.808
O 29.7522 -18.2804 -16.3593
H 29.6176 -19.228 -16.3458
H 29.3562 -17.9701 -15.5449
O -22.036 16.8934 16.7405
H -22.6842 16.6427 17.3987
H -22.2774 16.3908 15.9625
O 18.9754 -5.37546 -9.89082
H 18.3733 -5.62544 -10.5917
H 18.4143 -4.98717 -9.21956
O -2.23957 -21.2921 3.00495
H -1.82028 -21.8534 3.65709
H -1.56001 -21.1375 2.34879
O -13.2112 11.0111 -9.98849
H -12.7301 10.189 -9.89455
H -13.6232 11.1469 -9.13525
O 10.3702 -9.53855 -12.2894
H 10.3312 -9.37355 -13.2314
H 9.71198 -8.95264 -11.9157
O -16.0236 3.31621 -26.4728
H -16.3974 3.14667 -25.6081
H -15.2762 3.88964 -26.3029
O -28.3612 11.7689 -7.02646
H -29.2989 11.889 -7.17629
H -27.9405 12.354 -7.65651
O 22.7307 0.00221344 4.14704
H 21.9443 0.149861 4.67245
H 22.5269 -0.772081 3.62246
O -25.6499 -13.115 6.63141
H -25.9537 -12.6458 7.40845
H -26.2247 -13.8781 6.57194
O 28.0532 -10.7163 -24.5474
H 28.0748 -9.82684 -24.9005
H 27.6176 -11.233 -25.2252
O -1.3351 -1.26441 24.3478
H -1.83743 -0.453057 24.273
H -0.509644 -0.999061 24.7533
O -8.63031 -14.4753 -28.334
H -9.56128 -14.2557 -28.2977
H -8.26234 -14.0931 -27.5373
O 14.336 -9.26974 15.6901
H 14.5145 -8.99737 16.5902
H 13.4395 -9.6042 15.7139
O 6.83685 26.7619 23.9422
H 6.69496 25.8694 24.2575
H 6.23285 27.2972 24.4569
O 0.651177 0.899564 -10.5563
H 1.45199 1.35425 -10.2951
H 0.154973 1.55209 -11.0505
O 2.55532 12.2151 6.9953
H 2.69177 12.543 7.88416
H 3.41226 12.294 6.57619
O -20.2104 11.9213 0.576147
H -20.9482 12.496 0.372093
H -19.4389 12.4811 0.488848
O -7.37281 13.3905 -13.5118
H -6.47854 13.5904 -13.2351
H -7.9141 14.0382 -13.0605
O 25.5456 -6.87638 5.45849
H 26.3198 -6.57005 5.93074
H 25.3893 -7.75703 5.79949
O 18.0897 17.2243 29.8815
H 17.2626 16.7591 29.7556
H 17.8986 17.8748 -29.4428
O 12.0014 -27.5988 -6.35827
H 11.3294 -27.5429 -5.67893
H 12.0507 -28.5308 -6.57088
O -8.72181 -0.604714 -1.79147
H -8.6687 -1.0933 -2.61287
H -8.05765 0.0794062 -1.8758
O -19.9759 4.35524 -16.1247
H -20.3773 3.87748 -16.8505
H -20.0656 3.76939 -15.373
O -20.3197 -14.1948 -24.9721
H -20.0479 -13.5083 -24.3629
H -20.3539 -13.7599 -25.8241
O 26.9182 0.121534 -26.5292
H 27.8171 0.0585318 -26.2065
H 26.3846 0.203204 -25.7387
O 3.40823 -21.6031 -1.97979
H 3.64893 -20.8737 -2.55099
H 3.91556 -21.4598 -1.18084
O -22.6399 1.52276 14.5164
H -22.3932 1.6888 15.4262
H -22.7398 2.3937 14.132
O -29.9406 11.3857 20.6073
H 29.5179 12.1537 20.425
H -29.926 11.3236 21.5623
O -0.402511 4.91717 -23.4677
H -0.906052 5.64672 -23.1065
H 0.484321 5.0483 -23.1322
O -5.34187 -25.2443 8.70619
H -4.60716 -24.6966 8.42976
H -5.12135 -26.1199 8.38841
O 9.08209 -23.6618 1.51503
H 9.58472 -22.8487 1.46492
H 8.3376 -23.5201 0.930309
O 29.2242 -7.83916 5.03147
H 28.5714 -7.2616 5.42716
H 28.7714 -8.24037 4.28966
O 6.39471 3.15814 -1.18291
H 6.22786 4.03742 -0.843405
H 5.55377 2.87635 -1.54299
O -17.8282 15.3621 20.575
H -18.5242 14.9828 21.1117
H -17.1619 14.6766 20.5268
O 14.7126 6.15351 20.0228
H 14.4636 5.53462 19.3364
H 15.268 6.79411 19.5784
O 7.17399 3.77707 -4.23907
H 7.5896 3.36271 -3.48289
H 7.14441 3.08888 -4.90371
O 12.6395 -2.22763 21.3872
H 12.0131 -2.57628 22.0214
H 13.3056 -1.79447 21.921
O 24.9362 13.1307 4.06469
H 24.7815 13.8541 3.45717
H 24.1047 13.0233 4.52656
O -18.2011 -28.6228 1.14868
H -17.8648 -29.3861 0.678975
H -19.0277 -28.9201 1.52897
O 29.4793 2.73962 -21.9102
H 29.6398 3.65265 -21.6717
H -29.8633 2.54721 -22.5789
O -23.9035 10.8588 10.0549
H -24.4471 11.2815 9.38998
H -24.1432 9.93324 10.0079
O 2.71077 16.7998 -3.38109
H 3.0976 17.2757 -4.11605
H 3.05691 15.9111 -3.46179
O -7.7611 3.75405 -16.6532
H -6.98721 3.1909 -16.6401
H -7.95105 3.92245 -15.7303
O -10.4614 -6.1989 0.468949
H -9.53211 -6.39846 0.355729
H -10.509 -5.74772 1.31181
O -28.0547 15.5028 24.9047
H -28.1302 14.8351 25.5864
H -27.3124 16.0419 25.1779
O -16.3621 13.3896 -6.6352
H -15.6669 12.7956 -6.35221
H -16.2515 13.4538 -7.58382
O -19.0681 19.8711 19.7906
H -18.8179 20.4486 20.5118
H -19.1671 20.4552 19.0387
O -15.0391 -2.81815 26.0058
H -15.4399 -3.63468 26.304
H -14.7959 -2.98851 25.0959
O 5.50462 -4.53333 1.58771
H 5.14176 -4.7312 2.45108
H 5.9514 -3.6945 1.70167
O -17.8904 -21.3533 -12.4911
H -17.2843 -22.0426 -12.2197
H -18.7491 -21.7764 -12.4942
O -24.5804 -4.11541 9.38671
H -25.3107 -4.52491 8.9229
H -24.9709 -3.3648 9.83425
O 21.8935 9.44393 -7.86503
H 21.9309 8.65916 -8.41181
H 21.1851 9.96563 -8.24207
O 8.29557 9.20747 -24.5059
H 9.2443 9.18892 -24.3802
H 8.16735 9.74684 -25.2862
O -26.4984 -7.16593 26.7982
H -27.0084 -6.71619 27.4719
H -27.1492 -7.64217 26.2825
O 15.0372 -6.75058 3.62387
H 15.3146 -5.87537 3.89456
H 15.0867 -7.27576 4.4226
O 10.8469 14.0803 22.0845
H 10.3936 13.3918 21.5979
H 10.2728 14.8428 22.0124
O 26.66 -16.7667 3.29123
H 26.0797 -17.0126 4.01162
H 26.5872 -17.4888 2.66715
O 19.7284 17.7979 -16.4961
H 18.8147 17.5744 -16.3189
H 20.1395 16.9642 -16.7245
O -9.96338 -13.5526 -17.8204
H -10.9128 -13.6198 -17.9223
H -9.66111 -14.46 -17.7835
O -23.1206 17.6481 -23.9143
H -23.2168 17.5217 -22.9704
H -22.9867 18.5903 -24.0178
O 4.68111 18.5903 -7.74465
H 4.72807 19.2917 -8.39427
H 5.36813 17.9764 -8.00423
O -22.1967 4.94465 2.70419
H -22.5346 5.76454 2.34386
H -21.6839 4.56278 1.99186
O 4.88009 19.9729 27.6338
H 5.59605 20.6077 27.6587
H 4.66412 19.891 26.7049
O -16.1029 22.849 -15.8157
H -17.0117 22.7307 -15.5395
H -16.1285 22.7626 -16.7686
O 28.3021 4.03535 10.018
H 27.4956 3.86152 10.5035
H 28.1455 3.66134 9.15094
O -19.9367 -7.91927 15.394
H -20.3892 -7.64948 14.5948
H -19.7392 -7.0992 15.8464
O 5.78504 21.1174 17.4683
H 5.80083 21.9953 17.8494
H 5.8608 20.5285 18.2192
O 20.1494 -13.7072 7.47428
H 19.9524 -14.0009 6.58482
H 20.2198 -12.7553 7.4026
O 20.1664 18.7815 -4.75735
H 20.4399 19.5259 -4.22133
H 19.8118 18.1515 -4.13003
O 5.51066 21.9561 -18.9195
H 5.94883 21.4685 -19.617
H 6.20737 22.1615 -18.2961
O 6.37579 -1.99477 -3.7728
H 6.48155 -2.35491 -2.89226
H 5.65403 -1.37127 -3.69198
O 5.07759 25.686 -6.31808
H 5.34033 24.7909 -6.53229
H 4.93813 25.6751 -5.37115
O 13.6051 3.39289 -17.383
H 13.8024 3.66523 -18.2792
H 13.1493 4.14211 -16.9994
O 7.09826 8.43975 -9.74562
H 6.44618 7.89173 -10.1823
H 7.90439 8.29436 -10.2409
O -16.2804 21.8913 18.1678
H -16.7291 22.4459 18.806
H -16.8351 21.9249 17.3885
O 18.5844 -24.2766 23.8474
H 19.331 -23.6806 23.906
H 18.8989 -25.094 24.2338
O -28.7116 -27.4527 14.4936
H -29.1401 -27.4617 15.3495
H -28.1769 -28.2466 14.4845
O -4.29731 -1.40134 7.77495
H -5.02532 -1.45079 8.39446
H -3.84862 -0.585372 7.99655
O 21.8954 -12.3579 -14.0203
H 22.4591 -12.3341 -14.7935
H 21.0062 -12.2984 -14.3696
O 7.25347 18.9342 12.2584
H 7.62177 19.3924 13.0138
H 8.01499 18.5888 11.7925
O 25.9504 -9.26799 -3.88105
H 25.8204 -9.90137 -3.17524
H 25.7561 -8.42016 -3.48147
O -26.5599 -24.0617 11.9082
H -27.0986 -24.2359 11.1364
H -25.7559 -24.5586 11.7569
O -2.69559 17.4264 -9.47509
H -1.9788 17.4078 -8.84098
H -3.489 17.3766 -8.94194
O -6.28172 -29.2994 -8.60701
H -5.74976 29.9116 -8.50331
H -6.90199 -29.3307 -7.87864
O -3.0889 -4.1878 -24.4662
H -3.06867 -4.41519 -25.3957
H -3.07143 -3.23086 -24.4527
O -8.21405 -8.13712 -9.86886
H -8.28264 -9.02317 -10.2245
H -7.27416 -7.95651 -9.8542
O -21.4965 14.8904 26.9876
H -20.6306 14.765 26.5994
H -21.4818 15.787 27.3224
O 21.7023 -16.2245 28.3803
H 21.9659 -17.0748 28.7319
H 22.3761 -16.0125 27.7344
O -22.888 22.5359 24.5445
H -21.9704 22.2846 24.6493
H -23.3699 21.7102 24.5913
O 0.709758 -12.7582 -11.5855
H 0.19043 -12.8694 -12.3819
H 1.61691 -12.8556 -11.8751
O 21.1443 -22.8371 3.05741
H 20.3574 -23.1279 3.51829
H 21.5378 -23.6428 2.72244
O -24.8742 -19.4315 -26.9589
H -25.3796 -18.7734 -26.4817
H -25.373 -19.5812 -27.7621
O 14.1201 -27.017 10.1221
H 14.0404 -26.177 9.67022
H 13.8901 -26.8235 11.0308
O 27.1015 26.8303 -10.5169
H 26.509 27.5817 -10.4921
H 26.5732 26.0975 -10.2005
O 5.01664 8.25337 12.3163
H 4.66605 8.88828 12.9409
H 5.71369 7.80516 12.7953
O 27.5764 -6.11687 7.11761
H 27.0122 -5.34369 7.12787
H 27.723 -6.31926 8.04161
O 12.2367 -1.54665 -24.5314
H 13.0226 -1.43567 -23.9964
H 11.5654 -1.03403 -24.0809
O 28.6755 -3.91972 -0.906171
H 28.4216 -3.67137 -1.79503
H 27.8978 -4.34434 -0.544169
O -26.2281 0.217643 -13.4782
H -27.0609 0.529825 -13.1244
H -26.2699 -0.734195 -13.3861
O 4.22839 -0.40887 16.1945
H 4.45112 -1.29769 16.4713
H 4.42724 -0.39215 15.2583
O 17.0499 4.76703 -15.8575
H 17.2701 5.44699 -16.4942
H 16.7944 4.01355 -16.3897
O -27.0575 5.97601 -22.7987
H -27.7636 5.34673 -22.6518
H -26.5148 5.91549 -22.0125
O 16.2997 23.5089 13.8794
H 16.8588 23.7678 14.6119
H 15.5069 23.1662 14.292
O 7.74191 18.8199 -7.50751
H 8.63541 18.5538 -7.72454
H 7.26698 17.9965 -7.39496
O -15.6306 18.1979 -16.0348
H -15.4654 19.1388 -16.0951
H -16.4748 18.1306 -15.5887
O 25.6769 17.9966 -29.2761
H 24.8431 17.5383 -29.381
H 26.0048 18.1054 29.8312
O -2.72975 -17.0991 -1.62047
H -2.03267 -17.1087 -2.27638
H -3.37525 -17.7259 -1.94706
O -26.8563 -7.34384 -22.331
H -26.1011 -7.91553 -22.4691
H -27.4605 -7.86728 -21.8045
O -15.4274 14.1879 18.3907
H -15.3459 15.1415 18.4032
H -15.6355 13.9767 17.4806
O 3.03408 -17.4167 5.83176
H 2.22435 -17.9067 5.68853
H 2.90933 -16.6003 5.34794
O 21.9826 -12.7089 26.8728
H 22.6415 -13.1846 26.367
H 22.167 -12.9388 27.7834
O -0.318573 27.081 29.5631
H -0.958953 26.4046 29.3426
H -0.164866 26.9692 -29.4987
O -13.3764 -17.5348 -1.72289
H -12.7013 -16.9091 -1.98561
H -13.5178 -18.0756 -2.49989
O 17.2906 -29.0567 -2.05519
H 17.9676 -29.7189 -1.91629
H 17.4664 -28.3906 -1.3906
O -24.8802 8.34487 -23.7101
H -24.5901 8.45786 -24.6153
H -25.8358 8.36765 -23.7597
O -17.9069 3.10114 -24.3559
H -18.7455 2.92256 -24.7814
H -18.1429 3.4181 -23.484
O -29.2968 8.65789 -15.8217
H -28.9493 8.01909 -16.4441
H -28.7186 8.5914 -15.0617
O 5.21514 -10.3129 0.9632
H 5.01352 -10.3036 1.89888
H 4.74089 -9.56114 0.607995
O -21.455 19.6145 -20.7144
H -22.2257 19.9452 -20.253
H -21.5295 19.9777 -21.5969
O -19.1345 -20.0045 8.99741
H -19.9362 -19.5699 9.28837
H -18.4641 -19.7088 9.61346
O 26.1943 -16.8584 14.2611
H 25.8045 -16.2409 14.88
H 26.7587 -16.3191 13.7072
O 6.36687 8.52884 23.6751
H 5.95035 8.49296 22.814
H 6.34608 7.62502 23.9896
O -3.90238 -1.0213 26.3993
H -3.67584 -1.83753 25.9536
H -3.55438 -0.333426 25.8319
O -10.6191 -27.3526 -11.2717
H -10.6847 -26.4148 -11.4519
H -11.5105 -27.6819 -11.3864
O 2.65163 2.25735 20.4124
H 1.96152 2.90696 20.2783
H 2.38986 1.51356 19.8698
O 13.2458 6.35359 10.8921
H 12.6834 7.12799 10.8771
H 13.1112 5.97593 11.7612
O 24.4089 16.7732 -23.7236
H 23.9391 15.9484 -23.8471
H 23.7725 17.4491 -23.9566
O -1.66737 -29.2609 -17.569
H -1.34653 -28.3616 -17.5015
H -1.47329 -29.518 -18.4703
O 29.4661 20.4662 18.0628
H 29.9652 19.7207 18.3966
H -29.9205 21.2002 18.0969
O -6.20444 20.2394 8.58656
H -6.68854 19.6073 9.11794
H -6.70462 21.0517 8.66488
O 7.88374 -9.93193 7.0307
H 7.8352 -10.3357 6.16417
H 8.80189 -10.0214 7.28607
O 19.9611 -12.5088 19.0742
H 19.4193 -13.1114 18.5648
H 20.2251 -13.0146 19.8428
O -29.2066 -21.2866 4.44017
H -29.6756 -22.1209 4.45181
H -29.2625 -20.9672 5.34079
O -5.25547 19.7529 -4.24731
H -5.37022 20.7021 -4.20276
H -4.9796 19.5865 -5.14868
O 10.9309 -3.42661 23.4277
H 10.592 -4.07263 24.0474
H 11.2243 -2.69893 23.976
O -1.77035 22.5976 -17.401
H -2.24896 22.1572 -16.6987
H -1.27668 21.8986 -17.8299
O -7.78612 -10.9435 -29.4538
H -7.06127 -11.5587 -29.5651
H -7.42662 -10.2455 -28.9063
O -29.2116 -23.4871 -15.2094
H -28.5855 -22.7659 -15.1447
H 29.9349 -23.0773 -15.0688
O -3.24052 13.1943 26.5912
H -3.12908 13.802 27.3224
H -2.67326 13.5409 25.9025
O -10.3372 23.7098 28.7723
H -9.84565 23.9229 29.5655
H -9.67668 23.685 28.08
O 7.65201 28.6786 -21.884
H 8.02932 29.5583 -21.8844
H 8.30112 28.1389 -22.3352
O -11.8305 10.0321 -5.89657
H -11.1328 9.93402 -6.54451
H -12.6208 10.1811 -6.41562
O -19.104 -4.95211 -10.0183
H -19.8943 -4.54448 -10.3726
H -18.6949 -4.26517 -9.49202
O -18.5677 -10.4664 -22.6104
H -19.0404 -9.77137 -22.1525
H -19.0713 -10.6118 -23.4113
O 14.5173 -10.7733 -3.74888
H 14.5599 -10.9718 -4.68429
H 13.8858 -10.0568 -3.68413
O -6.45827 22.2981 -23.1374
H -5.50996 22.2101 -23.0415
H -6.74952 21.4384 -23.4415
O 29.1222 3.09434 14.1311
H 28.69 3.93407 13.9753
H 28.788 2.80641 14.9806
O 15.1032 29.1296 -24.3458
H 15.954 29.5565 -24.2445
H 14.486 29.7185 -23.9116
O -14.8455 -11.6946 -7.70056
H -14.2153 -11.0078 -7.91827
H -15.5733 -11.5532 -8.30603
O -28.6656 14.1511 -29.2829
H -27.7942 14.2759 -28.9071
H -28.5136 14.0876 29.7742
O 28.3177 23.9452 28.9041
H 29.0362 24.1746 28.3148
H 28.312 22.988 28.9142
O 28.3225 7.22318 -0.365076
H 28.7523 6.36971 -0.42074
H 27.7209 7.14111 0.374895
O -28.6915 -26.4236 0.0527377
H -29.2954 -25.8552 -0.425142
H -27.9523 -26.5436 -0.543473
O -5.81118 -26.236 15.1071
H -5.15396 -26.9033 14.9094
H -6.64964 -26.6792 14.9774
O 6.75085 26.8186 -19.3459
H 6.05422 26.2243 -19.6246
H 6.93304 27.3538 -20.1183
O -20.2311 -16.4567 11.8392
H -20.2554 -17.06 11.0964
H -20.7385 -16.8958 12.5217
O 25.1763 9.29163 -23.3447
H 24.5364 8.8877 -23.9308
H 24.7809 9.22555 -22.4755
O 23.7093 -13.5483 4.42316
H 23.9024 -14.0871 3.65597
H 24.4905 -13.0073 4.53925
O 22.1654 -9.753 -16.0748
H 21.5463 -10.0661 -15.4153
H 21.6141 -9.42992 -16.7874
O 0.154705 11.5928 -22.8873
H 0.825633 12.0906 -22.4201
H -0.0157874 12.1036 -23.6786
O 12.2423 8.97471 10.7904
H 12.9696 9.52654 10.5026
H 12.2671 9.02415 11.746
O 10.6675 16.192 -26.814
H 11.356 16.4809 -26.2151
H 9.94989 15.9206 -26.2416
O -22.293 -18.2061 -21.8716
H -23.0599 -18.2807 -21.3036
H -21.6855 -18.8688 -21.543
O 5.32454 6.12433 4.56824
H 4.45184 6.51234 4.63201
H 5.883 6.83873 4.26168
O 29.7912 4.82634 -9.97954
H -29.7086 5.61376 -9.765
H 29.3028 4.62725 -9.1808
O -11.5819 22.7803 -17.369
H -11.7611 22.6178 -16.4429
H -10.6485 22.593 -17.4693
O -0.11102 -11.8092 -2.89047
H 0.43862 -11.1185 -3.26071
H -0.897985 -11.3545 -2.59014
O -1.31518 -29.6629 -1.24387
H -1.4863 29.7353 -0.519446
H -0.624712 29.9111 -1.75179
O 16.7595 15.6559 20.6868
H 16.4002 14.9324 20.1733
H 17.6915 15.4531 20.7677
O -26.2222 11.4899 8.22791
H -25.8141 10.6713 7.94568
H -26.2967 12.0094 7.42741
O 14.9403 27.7554 -13.4792
H 14.0154 27.8718 -13.262
H 15.3745 28.5181 -13.0971
O 10.5308 -23.7386 -1.52374
H 10.1054 -24.0605 -0.728952
H 11.3833 -23.4199 -1.22743
O 27.1392 16.8438 22.986
H 27.3562 16.0862 22.4428
H 26.4709 16.5219 23.5909
O -6.26401 21.2675 -20.0501
H -5.40833 21.2928 -19.6218
H -6.59081 22.1649 -19.9865
O 5.85656 11.597 -13.2349
H 5.09131 11.5637 -13.8089
H 6.191 10.7002 -13.2285
O -10.7703 13.1696 -16.0647
H -11.692 13.1664 -15.8065
H -10.3048 13.4813 -15.2886
O -17.6327 -9.44677 16.1161
H -17.807 -10.1202 15.4586
H -18.3373 -8.80949 15.9995
O -28.4989 0.577145 17.6167
H -29.0342 -0.214355 17.5605
H -28.9438 1.20842 17.0512
O -1.84475 -9.34902 -3.96703
H -1.28622 -9.70741 -4.65684
H -1.27513 -8.75049 -3.48377
O 28.2186 15.3355 17.3805
H 27.7198 14.5725 17.0885
H 29.1194 15.1489 17.116
O -1.11964 -27.0877 20.3702
H -1.41722 -27.9066 20.7664
H -1.07114 -27.278 19.4334
O 18.1746 -2.67243 7.14782
H 18.3034 -2.71986 8.09512
H 18.6898 -3.39975 6.79885
O -13.8462 14.1046 1.42243
H -13.0354 14.0009 1.92054
H -13.559 14.2068 0.515062
O 4.87818 -29.5493 -22.4899
H 4.41105 29.7643 -22.9662
H 5.69149 -29.9658 -22.2049
O -11.4854 21.9523 19.5163
H -11.3314 22.5256 20.2673
H -11.3131 22.5045 18.7536
O 0.100616 -11.4562 28.1496
H -0.617505 -11.9053 27.7036
H 0.119803 -10.5841 27.7556
O -14.2625 14.3892 -1.89867
H -14.4432 15.3063 -2.10509
H -13.7634 14.0681 -2.64966
O 16.0496 -18.5283 -29.5419
H 15.3913 -19.0534 -29.0866
H 15.5433 -17.9568 29.8807
O 3.12862 -22.3706 7.8221
H 3.09542 -22.2104 8.76521
H 4.06173 -22.4533 7.62542
O 9.46586 19.0453 -4.7954
H 8.7105 18.9046 -5.36627
H 9.68219 19.971 -4.90731
O 19.5452 25.8747 -8.35386
H 20.4114 25.65 -8.69367
H 19.4959 25.4283 -7.50858
O 5.77975 -22.6252 6.90315
H 6.2481 -21.8803 7.27993
H 5.65766 -22.3914 5.983
O 21.8188 -28.4867 -27.1078
H 21.1259 -28.7253 -27.7236
H 21.8085 -29.1846 -26.4528
O -24.3885 1.3396 22.8779
H -23.9561 1.86119 22.2018
H -23.7723 0.631666 23.0657
O 27.275 -17.6933 22.1457
H 27.6879 -16.83 22.1672
H 26.6764 -17.6546 21.3998
O 23.0054 -27.9052 -12.08
H 23.4898 -28.6913 -12.3322
H 23.0806 -27.3238 -12.8366
O 21.2949 -18.8579 -8.75018
H 20.4374 -18.4325 -8.74233
H 21.1513 -19.6787 -9.22126
O -12.7091 -4.4779 0.069453
H -12.6471 -3.56579 -0.214177
H -11.927 -4.89521 -0.291832
O -0.774918 -22.5221 -11.9976
H -1.19005 -22.1323 -11.2282
H 0.0247304 -22.0112 -12.1235
O -0.724485 -11.4679 2.36943
H 0.0589365 -11.6135 2.89979
H -0.930122 -12.3283 2.00382
O -29.6095 3.71194 18.1204
H 29.5421 3.74733 17.6787
H -29.806 3.91769 19.0344
O 10.939 25.2405 15.794
H 10.5197 24.9525 16.6049
H 10.2441 25.1998 15.1369
O 14.2479 6.41371 25.0576
H 13.7339 7.02233 24.5269
H 13.7191 6.27475 25.8433
O 1.16947 14.8439 29.3481
H 1.3742 14.4568 28.4969
H 0.229713 15.022 29.311
O -27.3761 19.9927 4.9081
H -27.9089 19.8437 4.12697
H -26.5003 19.6956 4.66145
O 3.12009 -17.8466 2.18952
H 2.95628 -18.1464 3.08368
H 2.94962 -18.6144 1.64396
O -14.2157 17.3967 -11.3243
H -13.9468 17.1646 -10.4355
H -14.5878 16.5901 -11.6809
O 0.918022 -10.4947 25.1895
H 0.184254 -11.0536 24.9337
H 1.42848 -10.3865 24.3871
O -0.126789 16.0525 -8.97189
H -0.132593 16.3018 -9.89604
H 0.774216 16.206 -8.68756
O 13.6964 -10.472 24.0148
H 13.9188 -10.8459 23.1621
H 14.4928 -10.02 24.2937
O 14.7768 11.7959 6.40713
H 15.7129 11.9914 6.44959
H 14.6515 11.4089 5.54064
O 14.3999 -24.1945 23.4063
H 14.4318 -24.6131 22.546
H 15.088 -23.5299 23.3754
O 13.856 -26.3278 12.7293
H 13.4747 -27.1781 12.9482
H 14.7953 -26.4415 12.8746
O 8.40552 3.60946 17.4125
H 8.03114 2.93837 17.9832
H 7.6692 3.90909 16.8793
O -15.3725 28.3065 -2.31074
H -15.1082 29.2251 -2.26059
H -15.7466 28.2119 -3.18669
O 7.67075 21.6694 -10.7622
H 8.43835 21.1982 -10.4381
H 7.64362 21.4692 -11.6978
O -21.3218 29.4741 -18.2695
H -21.8977 28.9517 -18.8278
H -20.4408 29.2921 -18.5965
O -3.40175 -27.454 -13.5301
H -3.70524 -26.6945 -13.0328
H -2.78811 -27.0926 -14.1696
O 14.2089 -16.1913 2.00818
H 14.7569 -15.4087 1.94968
H 13.8678 -16.1791 2.90243
O 12.3377 25.0623 27.1034
H 12.5392 25.7788 26.5016
H 11.5019 25.3092 27.4992
O 19.5028 18.6974 3.0509
H 18.8945 19.4178 2.88618
H 20.0873 18.6988 2.29289
O 4.4323 20.6205 -22.5849
H 5.34126 20.8034 -22.3471
H 4.34792 20.9483 -23.4803
O -1.51628 3.38931 -3.25212
H -0.639363 3.2772 -2.88514
H -1.38282 3.37976 -4.19992
O -28.3603 9.8226 -28.3639
H -27.9073 10.6533 -28.2186
H -27.7007 9.25658 -28.765
O 25.4027 -23.045 10.3632
H 25.2974 -23.361 11.2606
H 25.3866 -22.0911 10.4413
O 23.4274 -28.9502 23.3747
H 22.9626 -28.1135 23.3693
H 23.9469 -28.9309 24.1784
O -22.0659 -15.8021 -2.85427
H -22.0651 -14.9703 -2.38058
H -22.9927 -16.0096 -2.97312
O 8.31261 -11.0641 12.0255
H 7.41891 -10.8579 12.2994
H 8.56948 -10.3276 11.4706
O 8.58784 -0.603417 -4.76287
H 7.71439 -0.878765 -4.48451
H 9.07725 -0.49697 -3.94716
O -12.2548 -0.056374 -9.38033
H -11.7006 0.551431 -8.89077
H -11.6385 -0.643299 -9.8185
O 0.622529 -16.4789 -26.6357
H -0.0075866 -16.6534 -27.3348
H 1.47712 -16.5365 -27.063
O -27.6869 23.6596 -21.9853
H -27.6553 22.7754 -21.62
H -28.2778 23.5885 -22.735
O -20.2074 21.558 -19.7851
H -19.4954 21.1962 -19.2575
H -20.6508 20.7912 -20.1479
O 21.4001 -24.441 -22.041
H 20.4806 -24.3497 -22.2909
H 21.3842 -24.5036 -21.086
O -26.5824 -11.631 16.7909
H -25.8604 -11.1574 16.3777
H -26.2098 -11.9764 17.6021
O -8.63414 12.0081 -10.0837
H -8.6098 12.3413 -9.18667
H -8.12857 11.1959 -10.0518
O -14.6386 -19.6524 12.5003
H -14.0557 -20.1424 11.9204
H -15.1218 -20.3255 12.9796
O -5.50654 5.10806 -25.6796
H -6.05606 4.35979 -25.9128
H -5.51615 5.66471 -26.4583
O 4.59636 27.0551 1.7327
H 5.27842 26.9425 2.3948
H 4.92798 26.5893 0.964993
O -19.3963 12.8874 -17.5577
H -19.2571 12.3746 -18.3539
H -20.0788 12.413 -17.083
O -8.78936 20.7323 13.0019
H -9.07058 21.4463 12.4296
H -7.84208 20.8458 13.0794
O -17.3862 22.077 -4.06992
H -17.3771 22.5888 -3.26112
H -16.5555 21.6014 -4.06232
O -29.2556 2.12776 -10.8424
H -29.9258 1.45963 -10.6986
H -29.5418 2.87248 -10.3135
O 9.2626 -28.2159 -22.1865
H 8.98707 -27.9483 -21.3097
H 8.80062 -27.6196 -22.7757
O 24.3123 -15.1116 26.785
H 24.0156 -15.53 25.9768
H 25.0137 -15.6787 27.1053
O 17.2481 22.673 4.15048
H 17.3765 21.7606 3.89133
H 16.9401 22.6244 5.05545
O 19.9683 -26.9547 -20.7063
H 19.3422 -27.5329 -21.142
H 20.3901 -27.5089 -20.0497
O 4.60832 -22.7654 -25.3142
H 4.97295 -22.2228 -24.615
H 3.7024 -22.9228 -25.0481
O 12.5515 -5.06725 18.2582
H 12.0303 -5.77726 18.633
H 12.7895 -4.52244 19.0083
O 22.8475 17.7773 8.69885
H 23.636 17.3907 9.07981
H 22.4284 17.0553 8.23063
O -0.0139408 13.9724 4.94487
H 0.546474 14.5031 4.37872
H -0.236923 14.5521 5.67324
O 9.41311 -26.6343 -11.9878
H 9.67556 -25.8897 -12.5289
H 9.12272 -27.2964 -12.6151
O -29.6741 -4.72839 -25.6313
H 29.7133 -5.32811 -25.2055
H 29.7882 -3.98012 -25.8905
O -21.6219 3.85186 22.348
H -21.0569 4.52893 22.7203
H -22.4587 3.96264 22.7993
O -19.9216 -5.11707 0.21925
H -19.4016 -5.49062 0.930737
H -19.9138 -4.17446 0.385588
O -9.10098 18.2855 -26.5752
H -8.20367 18.6145 -26.6282
H -9.00577 17.3338 -26.5369
O 1.41943 12.9416 -26.6871
H 1.10538 13.7638 -26.3108
H 1.89992 13.2049 -27.472
O 2.34051 -11.3094 11.5743
H 1.86214 -11.0263 12.3536
H 1.67676 -11.7228 11.0222
O 28.2338 27.4226 -16.3074
H 28.1748 26.8042 -15.5792
H 28.3402 26.8712 -17.0825
O 5.90586 5.97651 24.8122
H 6.74709 5.60078 25.0718
H 5.46672 5.27371 24.3332
O 13.1808 21.5648 -8.46033
H 13.5217 20.6736 -8.53653
H 12.9998 21.6735 -7.52671
O 20.1215 24.3019 -14.8857
H 20.5823 24.9374 -14.338
H 19.2183 24.3227 -14.5694
O 11.6617 -21.5085 -28.7835
H 12.2947 -21.3248 -28.0893
H 11.1795 -22.2744 -28.4719
O 11.1893 -17.635 12.4607
H 10.5085 -17.3198 13.0552
H 11.0497 -18.5809 12.416
O 17.8504 8.72533 27.7013
H 18.7816 8.51011 27.7539
H 17.6347 9.07113 28.5674
O 25.1886 -13.4874 29.4267
H 24.7109 -14.2729 29.6931
H 25.4452 -13.0718 -29.7501
O 27.7381 -25.53 -9.80289
H 27.9886 -26.2815 -9.26559
H 26.8361 -25.7128 -10.0657
O 28.3924 -4.30148 -13.2967
H 28.8665 -3.64881 -13.812
H 28.3802 -3.94374 -12.409
O -16.388 2.19611 14.6358
H -15.8006 1.44497 14.5521
H -16.1038 2.63487 15.4376
O -18.9857 -27.4486 8.90761
H -19.8708 -27.7452 9.11932
H -18.5967 -28.1788 8.42625
O 17.9993 -5.95225 14.7721
H 17.2167 -6.47735 14.6046
H 17.678 -5.18874 15.2517
O -12.3234 -25.5047 28.6731
H -12.1812 -26.3837 28.3221
H -12.876 -25.6401 29.4429
O 7.07068 -17.8151 -29.0421
H 6.37928 -17.1534 -29.0212
H 6.71736 -18.5474 -28.537
O -25.147 23.1107 -14.8079
H -24.4223 23.3447 -15.3879
H -25.6908 22.5204 -15.3296
O 28.3581 22.1909 6.2478
H 29.1331 22.2141 6.80903
H 27.7066 21.7097 6.75798
O 6.49169 18.609 -4.69836
H 6.39792 19.5346 -4.92353
H 6.91047 18.6126 -3.83764
O 3.84655 0.61164 -22.6908
H 3.09365 1.09775 -22.3545
H 3.91019 -0.15571 -22.1221
O 23.3427 19.7612 18.1855
H 23.6414 20.6068 18.5201
H 23.5939 19.7663 17.2618
O 6.3037 26.9094 19.1294
H 6.71683 26.1554 19.5501
H 6.73198 26.9724 18.2757
O 3.62003 20.7314 -29.3389
H 4.21246 19.9869 -29.2337
H 3.88333 21.3462 -28.6542
O 8.00204 -12.8938 -8.37376
H 8.7389 -12.8672 -8.98415
H 7.389 -13.5164 -8.76455
O -17.2349 -3.94945 20.8224
H -18.0076 -4.46891 20.6002
H -17.1481 -4.04221 21.7711
O 14.9354 4.56255 22.3687
H 14.89 4.87377 21.4647
H 14.6234 5.30047 22.8925
O 5.64816 -18.7533 19.0891
H 4.82291 -19.0954 18.7453
H 5.51149 -18.7028 20.0351
O 24.5699 -10.0534 -26.5465
H 24.2808 -10.3656 -27.4039
H 23.8261 -9.5539 -26.2096
O 21.14 -24.2076 9.63572
H 20.7566 -25.059 9.42503
H 20.4579 -23.7529 10.1299
O -17.982 17.9441 -4.48384
H -18.3694 18.7863 -4.72232
H -17.4346 17.7108 -5.23361
O 9.09669 29.7618 -14.1482
H 9.51626 29.7535 -13.2879
H 9.63985 29.1853 -14.6857
O -3.44664 4.68352 -22.4918
H -3.06332 5.26329 -21.8337
H -4.37267 4.63104 -22.2553
O 15.9032 -16.8834 -0.266291
H 15.4225 -16.2379 -0.784519
H 15.3608 -17.0196 0.510509
O 27.6045 7.31988 -22.2825
H 27.1739 6.77679 -21.6224
H 27.7093 6.74147 -23.038
O -20.8863 -26.3515 14.6845
H -20.9677 -25.4732 14.3126
H -21.7825 -26.6869 14.7062
O -19.2677 -15.2785 -7.76713
H -18.941 -16.1733 -7.86084
H -18.8752 -14.8019 -8.49854
O 18.7464 -3.46706 -14.1065
H 18.8114 -4.42205 -14.1066
H 19.2198 -3.19441 -13.3205
O -8.80707 18.2945 0.697987
H -9.08984 18.6677 1.53283
H -8.78138 17.3504 0.853627
O 18.3081 1.6095 7.77335
H 18.9485 1.91818 8.41426
H 18.7898 0.980035 7.23673
O 7.70229 -6.19249 -8.66176
H 7.04141 -6.55557 -9.25138
H 7.693 -5.25222 -8.84077
O -0.110459 20.5712 -25.2559
H -0.0431061 21.5122 -25.4183
H 0.488185 20.175 -25.8891
O -7.68869 -29.3703 -17.4458
H -7.28841 -28.6683 -17.9589
H -8.62446 -29.3025 -17.6355
O 9.68401 7.72043 -29.653
H 10.097 7.74093 -28.7897
H 10.4132 7.62444 29.7344
O 14.1781 -11.8789 -14.3733
H 13.8152 -12.761 -14.4533
H 13.9836 -11.4623 -15.2129
O 12.4379 20.6065 11.7862
H 12.639 21.538 11.8759
H 12.9006 20.19 12.5133
O 26.2521 -10.2397 9.34965
H 26.1328 -9.29526 9.44976
H 26.7125 -10.3364 8.51605
O -20.253 26.2552 -11.3945
H -20.1064 26.2277 -10.449
H -21.0942 26.7011 -11.4939
O 24.5836 -27.1593 10.5279
H 24.7774 -28.0142 10.1435
H 25.3728 -26.641 10.3708
O -16.8529 -29.9379 28.5785
H -16.3039 -29.4139 29.1619
H -17.7426 -29.624 28.7402
O -7.64689 1.79136 23.2783
H -8.00848 1.31052 24.0228
H -7.4471 2.65983 23.6277
O 26.6618 7.60158 22.1856
H 27.4771 7.69313 21.6926
H 26.3116 6.75286 21.9148
O 5.53026 14.8982 -28.1151
H 5.43526 14.0151 -27.7583
H 5.13705 15.4678 -27.4539
O 2.66271 12.279 22.4061
H 1.72744 12.1292 22.2681
H 3.09169 11.5561 21.9482
O -15.6274 -17.8821 -17.6476
H -15.4582 -18.3155 -18.4841
H -14.7669 -17.8151 -17.2337
O -21.4209 -4.59962 -3.08976
H -20.9153 -4.51885 -2.28101
H -20.7925 -4.92519 -3.73418
O 2.25652 -1.7054 13.444
H 1.91244 -1.24583 14.2099
H 2.34273 -1.02606 12.7752
O 5.79445 11.991 10.3017
H 6.00408 12.4529 11.1135
H 6.11247 12.5687 9.6079
O -6.96166 0.342962 -24.6799
H -7.3848 0.0700484 -23.8659
H -6.93784 -0.449982 -25.2156
O -1.3022 26.119 2.01539
H -1.82142 25.3425 2.22408
H -1.91121 26.8501 2.1198
O 13.5678 21.0993 -28.2554
H 13.7912 22.0058 -28.4668
H 13.3925 21.1085 -27.3145
O 22.7568 26.4151 -18.0451
H 22.2442 26.2755 -17.2489
H 22.5505 25.6618 -18.5985
O -22.3609 17.5557 13.2193
H -22.915 17.6725 13.991
H -22.2178 18.4431 12.8901
O 24.1108 7.98711 -3.58598
H 23.382 7.46716 -3.92462
H 24.7027 8.08499 -4.33184
O -9.53453 -16.6879 -17.3594
H -10.2464 -17.3085 -17.2035
H -8.78427 -17.0623 -16.8977
O 25.0681 9.12577 10.8948
H 24.7163 8.90976 11.7584
H 25.6887 8.42199 10.7056
O -29.3468 8.54468 25.4891
H -28.4968 8.45633 25.9203
H -29.8019 9.22025 25.9918
O 26.3535 -4.28661 -6.03207
H 26.4276 -3.91777 -6.91224
H 26.3341 -3.52443 -5.45332
O -14.78 12.5105 -12.0882
H -14.6294 12.0459 -12.9114
H -14.4164 11.9333 -11.4168
O -16.4778 -19.1321 -2.45347
H -15.5467 -19.274 -2.62445
H -16.509 -18.3123 -1.96041
O -17.1224 6.0338 25.9478
H -16.1765 5.88771 25.957
H -17.3636 5.98618 25.0227
O 28.7263 9.57344 -5.86536
H 28.3217 9.04203 -5.17973
H 29.6469 9.31124 -5.86033
O 13.3713 -0.916644 -5.9291
H 13.1667 -1.52071 -5.21532
H 14.1734 -0.476303 -5.64835
O -5.83034 -6.88498 -7.4029
H -5.65087 -6.56829 -6.51762
H -6.4663 -7.58996 -7.28126
O 14.4904 3.51871 -6.3995
H 14.8798 2.70401 -6.7171
H 13.7046 3.24149 -5.92853
O 22.2389 -12.1003 -2.58161
H 21.5766 -11.7302 -1.99804
H 22.898 -12.4689 -1.99342
O -13.0319 -6.77839 21.1199
H -12.1685 -6.89347 21.5167
H -13.5425 -6.31747 21.7855
O -5.18633 7.98731 -5.11991
H -5.86082 8.0345 -4.44236
H -4.43126 8.4352 -4.73848
O 0.00470403 8.59299 -16.7681
H -0.59816 8.09541 -16.2157
H -0.122983 8.23431 -17.6463
O 17.4682 -19.6971 6.06541
H 16.7139 -19.5457 5.49581
H 18.0587 -18.9668 5.8809
O -9.2375 -3.64268 21.8968
H -9.21108 -4.11325 22.73
H -10.0609 -3.91634 21.4926
O -2.67357 -9.19876 6.59001
H -3.12664 -9.38744 5.7682
H -2.62676 -10.0435 7.03767
O 7.69811 15.0478 1.78206
H 7.6313 15.8426 2.31124
H 6.84135 14.6296 1.86781
O 21.7454 -19.8851 -15.7252
H 22.2019 -19.0501 -15.8285
H 21.6093 -19.9691 -14.7814
O 19.0486 25.8736 -23.0026
H 18.5042 26.4909 -23.4913
H 18.6114 25.0291 -23.1123
O -27.7117 -12.6679 4.69859
H -27.9555 -11.7475 4.79721
H -27.051 -12.815 5.37532
O 26.617 -8.14413 -16.2501
H 26.2612 -7.88104 -15.4013
H 25.9188 -8.65964 -16.6537
O -4.25156 -7.34103 -24.1966
H -4.16368 -8.05159 -23.5613
H -3.5295 -7.47696 -24.8101
O 9.86658 12.3099 7.55707
H 10.8182 12.2112 7.52678
H 9.59435 11.7823 8.30786
O 22.0158 4.56295 19.7381
H 21.8833 3.71362 20.1592
H 22.5273 5.06729 20.3707
O 1.79634 7.56857 24.7889
H 1.65898 6.75384 24.3056
H 1.33538 8.23245 24.276
O 26.7492 4.65198 -2.92396
H 26.033 4.9364 -2.35617
H 27.5391 4.79006 -2.4013
O 21.053 11.9804 8.64174
H 20.1819 12.3687 8.72221
H 21.0503 11.2537 9.26479
O -3.60617 -6.52031 21.6808
H -2.98823 -7.03546 22.1994
H -3.05413 -5.99907 21.0979
O -26.7477 -9.76756 -9.98485
H -26.9119 -10.6233 -9.58862
H -26.5806 -9.95853 -10.9078
O 17.3453 -1.88427 -26.7438
H 16.7092 -1.98483 -27.452
H 17.6665 -2.77132 -26.582
O -16.5375 9.68673 -0.652774
H -16.7863 10.3815 -1.26243
H -17.2902 9.09545 -0.642698
O 1.36658 28.8448 18.7098
H 2.24424 28.9204 18.3353
H 1.38892 29.4018 19.4879
O -25.9495 28.1964 -6.69005
H -26.0411 29.1405 -6.81855
H -25.8315 27.8444 -7.57234
O -17.2899 -29.3476 12.0651
H -16.8887 -28.8696 11.3394
H -17.4634 29.7801 11.7113
O -5.37778 22.3086 -3.93684
H -4.43787 22.1608 -4.04153
H -5.67386 22.5925 -4.80168
O -0.477197 27.3194 10.5269
H -0.248655 28.012 11.1469
H -0.450583 27.7458 9.67029
O 25.7677 19.6011 9.61185
H 25.4152 18.7119 9.57516
H 26.5735 19.5189 10.122
O -13.2709 -8.07414 29.6706
H -12.6246 -7.66983 -29.7505
H -12.7511 -8.58768 29.0523
O 5.77311 -2.77556 17.0848
H 5.17242 -2.60363 17.8099
H 6.21635 -3.58838 17.3279
O -27.3901 21.7486 20.0804
H -27.8527 22.5766 19.9513
H -27.963 21.2408 20.655
O -19.705 9.8111 8.63684
H -19.8591 10.2895 9.45145
H -20.1052 8.95387 8.7826
O 28.2747 -2.33379 -15.7447
H 27.6328 -1.76301 -15.3224
H 28.9764 -1.74364 -16.0196
O 14.428 6.63126 -9.40626
H 14.865 6.96553 -10.1895
H 14.9021 7.03181 -8.67755
O 29.6818 14.0105 -6.66454
H 29.6121 13.4913 -5.86343
H 29.393 13.4192 -7.35965
O -25.131 -9.48624 2.57325
H -25.6638 -10.2814 2.58616
H -24.4739 -9.6486 1.89645
O 23.2991 11.1855 7.36121
H 22.9448 10.3097 7.20717
H 22.6805 11.5912 7.96872
O 23.5864 13.5463 -3.3467
H 24.0648 13.8098 -2.56058
H 23.2769 14.3688 -3.72626
O -0.579673 11.558 -17.7916
H -0.447185 12.414 -18.199
H -0.726215 10.9626 -18.5267
O 10.6781 -26.4995 -2.36115
H 10.9126 -25.5835 -2.51016
H 10.2953 -26.7871 -3.18999
O 20.4878 -19.3608 8.07083
H 20.4125 -19.3941 7.11718
H 20.5156 -18.4264 8.27682
O 19.646 12.9397 -23.4094
H 20.3487 12.6948 -22.8073
H 20.0726 13.4928 -24.0638
O 13.0246 29.4256 -19.2105
H 12.126 29.1576 -19.0184
H 13.3958 28.6896 -19.6971
O 26.5521 19.3088 -16.7021
H 26.9498 20.1584 -16.512
H 26.5271 18.8609 -15.8565
O -20.7998 1.79619 26.1922
H -20.4882 0.897222 26.2971
H -20.1523 2.3299 26.6528
O -28.1417 0.63006 11.006
H -28.5462 0.018437 11.6213
H -28.5539 1.47218 11.1988
O 18.6108 -17.9286 -7.46946
H 18.4073 -17.6101 -6.59006
H 18.2764 -18.8254 -7.48327
O -10.1305 -7.35652 12.2698
H -9.60951 -6.56841 12.1159
H -10.3216 -7.69263 11.3942
O -2.4378 2.21443 -11.7197
H -1.63446 2.71327 -11.5712
H -2.54175 1.68587 -10.9285
O -29.1917 -0.499845 -16.119
H -28.5271 0.115642 -15.8097
H -28.9925 -0.621603 -17.0473
O 13.4352 29.0631 -2.96471
H 13.5007 29.6703 -2.22764
H 14.2424 28.5501 -2.92545
O 21.9789 22.2173 -5.17881
H 22.3254 21.718 -4.43931
H 21.1982 22.6491 -4.8321
O -8.99359 4.40406 29.8081
H -9.13707 3.62394 29.2723
H -8.44591 4.10056 -29.4679
O -6.72358 -11.6992 -16.2792
H -7.31909 -11.8672 -17.0095
H -6.02991 -11.1571 -16.655
O -4.71856 -21.5036 -29.1142
H -5.27153 -20.8491 -28.6876
H -3.86389 -21.0802 -29.1946
O -17.795 27.6807 4.54937
H -18.7404 27.7498 4.68226
H -17.5814 26.7837 4.80622
O -21.1494 23.4342 -7.46613
H -20.8454 24.1265 -6.87911
H -20.6413 22.6638 -7.21208
O -18.1407 21.3835 21.825
H -18.7994 21.4282 22.5181
H -17.8834 22.2939 21.6793
O -14.2648 -11.2246 -3.76695
H -14.3708 -11.6024 -2.89385
H -15.1574 -11.1432 -4.10315
O 6.51673 4.42506 12.6404
H 7.01732 3.61004 12.6035
H 6.96107 5.00776 12.0246
O 0.804563 10.3566 -14.4197
H 0.506794 9.82021 -13.6849
H 0.562897 9.85372 -15.1974
O 16.7128 1.57106 9.92229
H 17.3586 1.59484 9.2162
H 17.0341 0.894855 10.5187
O -23.1737 -11.434 23.6648
H -23.8928 -11.0011 23.2045
H -22.3826 -11.0331 23.3048
O -14.5183 18.6522 -4.11416
H -14.775 19.5742 -4.10034
H -14.9851 18.2843 -4.86448
O -19.673 -19.6317 -4.14905
H -18.959 -19.0057 -4.27002
H -20.0621 -19.7229 -5.0188
O 13.5077 1.72423 -12.8823
H 13.685 2.65352 -13.0281
H 12.5888 1.69406 -12.6162
O 3.82585 -17.8491 29.9048
H 3.99829 -17.2603 -29.3604
H 4.47833 -17.6092 29.2468
O 15.5349 -11.4199 13.6425
H 14.9849 -11.6419 12.8912
H 15.0681 -10.7077 14.0795
O -9.2785 1.44043 15.543
H -9.62681 0.580129 15.7771
H -8.44869 1.50028 16.0164
O 21.0874 17.9083 -1.20197
H 21.441 18.4842 -1.87987
H 20.1455 17.8883 -1.37149
O 29.0028 -1.58243 -4.4601
H 29.8774 -1.96116 -4.54932
H 28.7809 -1.70581 -3.5372
O -18.7664 -5.17461 13.7031
H -18.056 -4.68073 13.2937
H -19.3987 -5.31464 12.9982
O -2.48594 -21.8205 22.7159
H -2.36388 -21.0594 23.2834
H -1.99105 -22.5199 23.1427
O 17.841 13.5791 29.6742
H 17.8273 14.0888 -29.5156
H 18.0587 14.2161 28.9937
O -15.6692 -25.5219 -29.7228
H -15.9278 -25.1548 29.4319
H -14.8712 -25.0478 -29.4893
O 0.744263 17.6883 6.25158
H 1.46025 18.2874 6.0402
H 1.15595 16.9947 6.76706
O -28.8908 -1.78313 8.39955
H -28.3225 -1.40796 7.72688
H -29.3406 -1.02939 8.78142
O -8.49381 -11.6729 -13.6602
H -8.04958 -10.8553 -13.4357
H -7.98692 -12.0289 -14.39
O 7.28022 -1.32534 -27.7367
H 8.12831 -1.76839 -27.7104
H 7.08866 -1.22888 -28.6696
O 27.7986 -25.9885 22.6053
H 28.4128 -26.4512 22.0353
H 27.7375 -26.5369 23.3875
O 26.1182 -11.5688 3.92319
H 26.3377 -12.4428 3.60054
H 26.9646 -11.1605 4.10514
O -25.7715 -26.6055 -26.4321
H -25.9433 -25.8223 -26.9549
H -24.9757 -26.9779 -26.8121
O 7.73665 13.168 -22.1169
H 7.0934 13.0284 -21.4219
H 7.87275 12.2996 -22.4958
O -18.3618 5.12033 -19.1204
H -17.8131 4.38534 -18.8466
H -18.5907 5.56581 -18.3047
O 18.6323 0.809756 13.0161
H 18.5324 0.29896 13.8194
H 18.0921 0.352037 12.3719
O -12.5965 -6.55454 25.2227
H -13.066 -5.7894 24.8905
H -13.1747 -6.91855 25.893
O 2.1164 -1.51284 -0.140947
H 2.2898 -2.30473 0.368039
H 2.056 -0.815986 0.512493
O -5.80352 2.57979 -8.18165
H -5.67266 3.31315 -7.58058
H -5.66277 2.95419 -9.05127
O 4.67544 -25.9018 -27.3171
H 4.85782 -25.9964 -26.3822
H 5.37371 -26.394 -27.7489
O -16.1066 13.8177 -14.8642
H -15.6868 13.9824 -15.7086
H -16.4341 14.6737 -14.588
O -4.03088 0.139475 2.42714
H -4.08911 -0.503631 3.13372
H -3.97063 0.983287 2.87501
O 9.15833 -10.4511 14.4202
H 8.59815 -10.8423 15.0906
H 8.80084 -10.7712 13.592
O -17.9097 16.4184 -9.24379
H -17.2401 15.8256 -8.90237
H -18.5318 15.8451 -9.69159
O -22.3351 -2.9518 8.09488
H -23.0328 -3.44751 8.52349
H -22.7173 -2.66889 7.26411
O -23.0781 18.3661 29.7047
H -22.5363 18.9032 -29.7173
H -23.813 18.9326 29.4697
O 16.5964 20.1497 2.77372
H 16.785 20.2732 1.84345
H 16.0105 19.3932 2.80146
O -28.4339 16.5556 -15.5165
H -29.2599 16.9573 -15.2471
H -28.2951 16.8686 -16.4104
O -11.0201 -12.3549 2.80475
H -10.1277 -12.105 3.04436
H -11.4128 -12.6569 3.62376
O -8.28224 -18.6404 0.868845
H -8.2247 -18.1213 0.0666931
H -9.039 -18.2821 1.33276
O -4.12615 -28.1146 -17.8558
H -3.59871 -27.391 -18.194
H -3.49183 -28.703 -17.4463
O -19.3316 0.13729 -27.167
H -18.6636 -0.139516 -26.5397
H -19.0178 -0.18796 -28.0108
O 2.3736 -23.1692 5.35303
H 2.44105 -22.7341 6.20293
H 2.42382 -22.4579 4.71454
O -29.5337 -10.983 16.81
H -28.5778 -11.0057 16.8538
H -29.8038 -11.8827 16.9938
O 3.90285 -3.85649 20.2609
H 3.85746 -3.03486 20.7499
H 4.40398 -4.44463 20.8259
O 20.6771 20.9096 -10.5387
H 21.2956 21.6324 -10.4321
H 20.2079 21.1125 -11.3479
O 15.2068 16.0701 -29.0155
H 14.5063 15.4531 -28.8038
H 14.7528 16.8875 -29.2204
O 27.0758 20.1934 -0.442229
H 27.7913 19.8253 0.076195
H 27.1989 21.1408 -0.382581
O -2.99876 -28.7223 -7.14539
H -3.14592 -28.0037 -6.53038
H -2.94993 -28.2985 -8.0023
O -4.94035 6.11109 -0.370054
H -4.74429 6.99314 -0.0541711
H -4.62877 6.10552 -1.27511
O 18.7901 1.88123 -28.0801
H 18.1425 2.56591 -27.9122
H 18.3055 1.20277 -28.5503
O 15.8449 -2.73118 -13.7127
H 15.8533 -2.78671 -12.7572
H 16.4867 -3.38208 -13.9966
O -8.53855 -0.159914 12.9756
H -9.0067 -0.822854 13.4831
H -8.86153 -0.269985 12.0813
O -5.40354 -19.1181 -24.4872
H -5.5909 -19.3944 -23.5901
H -5.90776 -19.7205 -25.0341
O -10.3561 -3.35889 -6.71914
H -10.1329 -2.65935 -6.10512
H -9.51106 -3.69266 -7.0203
O 19.3376 21.8722 12.754
H 19.7157 22.6441 12.3329
H 19.8587 21.7524 13.5479
O -17.0911 -6.02042 15.5059
H -16.2958 -5.8434 15.0036
H -17.8061 -5.80078 14.9086
O 16.712 4.4288 -0.131678
H 15.7932 4.68324 -0.217782
H 17.1671 4.94373 -0.797995
O 10.5616 2.51362 -13.1935
H 10.2243 3.07435 -12.4949
H 9.86327 1.87776 -13.3491
O -8.81663 10.9669 3.62156
H -9.57426 11.4437 3.96056
H -8.63453 10.3021 4.28579
O 16.784 5.70051 -13.3238
H 17.02 5.40795 -14.2041
H 15.8436 5.53371 -13.2596
O 26.1222 -17.9494 -0.66898
H 25.4307 -17.601 -1.23164
H 25.6557 -18.4262 0.0174868
O -1.82999 25.105 10.3489
H -1.50297 24.4352 9.74836
H -1.06014 25.6321 10.5627
O -15.389 -5.51933 -4.79249
H -14.6284 -5.92185 -5.21164
H -15.7796 -4.97496 -5.47608
O -26.4973 26.1092 -19.2731
H -26.8255 26.126 -20.1721
H -26.6802 25.2208 -18.9673
O 16.9672 -13.9872 17.7214
H 17.1208 -13.1658 17.2545
H 17.2578 -13.8124 18.6165
O 11.8934 -9.60447 -9.96191
H 12.1643 -9.72009 -10.8727
H 12.5311 -10.1081 -9.45605
O 3.37232 15.5634 5.61927
H 3.56682 16.4796 5.81661
H 2.64467 15.342 6.20041
O -28.9479 27.5919 -7.83275
H -28.7087 27.9344 -8.69396
H -29.8495 27.2881 -7.93729
O -22.8037 -15.8874 11.2844
H -23.2932 -16.3285 10.5902
H -22.0559 -16.4609 11.4524
O 22.9431 12.9854 -6.45891
H 22.545 12.1162 -6.50541
H 23.8797 12.8271 -6.57687
O -24.2516 -2.22021 2.0043
H -24.3633 -1.33782 2.35808
H -25.0699 -2.39814 1.54056
O 22.1237 4.39105 26.8553
H 22.9034 4.14697 27.354
H 22.4647 4.83347 26.078
O -24.3443 27.2139 -27.0701
H -24.0835 26.4304 -27.5542
H -23.5878 27.797 -27.1317
O -4.44538 25.3461 9.10346
H -4.89523 26.1811 9.23238
H -3.84737 25.2782 9.84778
O -4.73873 -3.24636 -13.4861
H -5.40654 -3.46506 -12.8361
H -4.31564 -4.08143 -13.6858
O -16.0564 6.89214 -18.0673
H -16.9352 6.88546 -18.4465
H -16.0232 6.10433 -17.5247
O -13.1583 12.9735 -14.784
H -12.5608 12.9312 -14.0375
H -14.0129 13.1636 -14.3969
O 10.6949 -24.8151 -23.6573
H 11.1273 -25.3341 -22.9791
H 10.535 -23.9664 -23.2445
O -1.31878 19.1798 23.9044
H -1.21612 19.953 23.3496
H -1.96149 19.4412 24.5638
O 1.74849 -10.8862 -14.5842
H 1.08035 -10.2532 -14.3211
H 2.17614 -11.1379 -13.7656
O -10.9364 -2.4159 -19.3654
H -11.2732 -2.08845 -20.1994
H -10.1965 -2.9729 -19.6075
O 10.4501 27.5428 18.6285
H 9.91327 26.9684 19.1745
H 10.573 28.3309 19.1576
O -14.369 -8.99431 -7.40996
H -14.7704 -8.985 -6.54103
H -14.7203 -8.21737 -7.84492
O 13.9371 26.1789 9.23898
H 13.6353 26.9549 9.71111
H 13.2321 25.9845 8.62138
O -23.6349 -4.09431 -12.2453
H -24.0836 -4.05657 -11.4007
H -23.9482 -3.32332 -12.7182
O -18.3801 0.196977 0.892854
H -18.7876 0.189475 0.0267373
H -17.6466 -0.41346 0.818294
O -26.1843 29.1176 -22.4793
H -26.1793 28.3143 -22.9999
H -26.1163 29.8218 -23.124
O 14.4398 16.446 -14.7944
H 14.0564 16.8694 -15.5625
H 14.1878 17.0065 -14.0606
O -20.0749 8.78997 -8.90134
H -20.0429 9.67352 -8.53453
H -20.891 8.76692 -9.40103
O 12.3675 -21.4219 4.94158
H 11.525 -20.9811 4.8316
H 12.3178 -21.8213 5.81005
O 10.2036 -22.7216 -19.1628
H 11.1533 -22.6313 -19.0843
H 9.96903 -23.3733 -18.5021
O 9.13688 -5.03807 -24.6662
H 8.21666 -4.79226 -24.5712
H 9.34097 -5.51839 -23.8637
O -16.6982 13.1473 -17.5418
H -17.5562 13.3199 -17.154
H -16.8699 13.0727 -18.4806
O 12.0038 -29.0723 -28.8017
H 11.3903 -29.4475 -29.4334
H 11.9662 -29.6638 -28.0501
O -18.9393 5.25786 23.6517
H -18.892 4.33387 23.8971
H -18.3246 5.34447 22.9231
O 16.0627 -19.0958 -2.14167
H 15.419 -18.3943 -2.04286
H 16.6808 -18.7643 -2.79303
O -28.7175 -1.77683 24.1426
H -29.3202 -1.23309 23.6353
H -28.7445 -2.63114 23.7117
O -8.80691 -15.8542 28.1618
H -9.62202 -15.3684 28.2877
H -8.26776 -15.281 27.6167
O -7.08261 -5.35138 29.6637
H -7.30155 -6.23167 29.3581
H -7.11797 -5.413 -29.3817
O -26.7183 -23.2749 21.758
H -26.8662 -23.4838 20.8356
H -26.0219 -23.8723 22.0307
O -4.85593 23.4006 -10.2091
H -4.06155 23.1153 -10.6606
H -5.40873 23.7625 -10.9017
O 5.75296 -17.1161 11.5572
H 5.6116 -16.4382 12.218
H 6.37064 -16.7243 10.9397
O 21.7926 25.0083 -9.84635
H 22.0952 24.1356 -9.59552
H 22.5442 25.5786 -9.68467
O -17.6553 1.14129 -14.8744
H -16.9539 0.831893 -14.3012
H -18.2348 1.63879 -14.2974
O 2.62826 -23.1072 20.5764
H 3.02674 -23.7713 20.0139
H 2.66224 -23.4853 21.4552
O 0.673674 -12.4846 -26.2423
H 0.313592 -11.6014 -26.3227
H -0.0808885 -13.0327 -26.0267
O -24.7013 19.7666 -20.2602
H -24.3066 20.3243 -19.5899
H -25.136 20.3776 -20.8552
O -20.1141 -25.0866 9.44168
H -20.0311 -24.9697 10.3881
H -19.7276 -25.9455 9.27115
O -14.5503 12.4587 20.4264
H -13.8002 11.8936 20.2416
H -14.7001 12.9337 19.6089
O 26.9844 -0.545534 16.2303
H 27.3205 -0.724943 15.3522
H 27.6297 -0.937174 16.8189
O -10.7124 3.76339 14.7694
H -11.0513 3.84999 15.6604
H -10.2266 2.93869 14.7766
O -23.4939 -7.98951 -17.3102
H -23.736 -8.91461 -17.268
H -24.0677 -7.62161 -17.9822
O -4.02654 -10.9487 24.1983
H -3.76911 -11.745 24.663
H -4.84093 -10.6766 24.6213
O 7.53991 -4.6174 -11.2274
H 8.46913 -4.62431 -11.457
H 7.32303 -5.53749 -11.077
O 16.1895 -12.8799 -20.7712
H 16.8317 -13.2184 -21.3951
H 16.5135 -13.1627 -19.9161
O -21.9425 21.1416 21.2958
H -21.4303 21.9147 21.5331
H -21.3018 20.533 20.9279
O -6.79936 -15.4914 -5.79362
H -5.95205 -15.4263 -5.3531
H -7.26952 -16.1708 -5.31034
O 20.2891 -28.6413 -4.56754
H 19.3322 -28.6645 -4.56003
H 20.515 -28.3378 -5.44682
O 3.07501 -5.89519 17.8284
H 2.23905 -5.89569 18.2946
H 3.47781 -6.73288 18.057
O 18.3275 18.6657 23.9258
H 18.6672 19.0117 23.1005
H 19.0672 18.1967 24.3119
O -3.22825 11.6612 10.7228
H -3.46015 11.1725 9.93308
H -2.96506 12.5239 10.4025
O 26.7966 -21.3782 -13.9179
H 26.8 -21.9265 -13.1333
H 26.384 -20.5611 -13.638
O 10.387 -18.8713 -2.10696
H 11.2174 -19.3327 -2.2239
H 10.5213 -18.3286 -1.33
O 2.14523 -17.0257 -11.5868
H 3.08862 -17.1628 -11.673
H 2.0654 -16.2409 -11.0446
O 0.798377 -20.3368 -12.099
H 1.64321 -20.605 -11.7377
H 1.01866 -19.6919 -12.7711
O 4.48688 -20.6954 -8.32587
H 5.14427 -20.2737 -8.87928
H 4.30031 -20.052 -7.64216
O 23.3962 10.1763 22.7841
H 23.8819 10.137 21.9602
H 24.0376 9.93539 23.4525
O 14.1101 4.71057 -0.333706
H 13.8402 4.28556 0.480412
H 13.4887 4.39167 -0.988288
O 8.47597 28.4127 27.0736
H 9.04835 27.8638 26.5376
H 9.03879 28.7271 27.7811
O -1.15419 4.80767 4.35532
H -0.219067 4.87593 4.16265
H -1.54504 5.56454 3.91874
O 8.2122 -15.9747 14.0438
H 8.52974 -16.0915 14.9392
H 7.94593 -16.8516 13.7673
O 6.55989 -28.6668 -12.0145
H 5.62826 -28.4668 -11.9234
H 6.6199 -29.6087 -11.8548
O -5.04217 5.68565 20.7758
H -5.71483 5.44739 21.4138
H -5.52474 6.10558 20.0637
O 1.03535 -4.84456 11.6418
H 0.838265 -3.93118 11.4341
H 1.21822 -4.84295 12.5814
O 4.35472 -11.6082 17.0261
H 4.42829 -10.6573 16.9449
H 5.24819 -11.904 17.2006
O -8.03301 1.72193 -9.43889
H -7.79069 2.24989 -10.1997
H -7.46692 2.04025 -8.73572
O -29.8216 8.02331 -20.6639
H 29.3772 8.03602 -21.1874
H -29.5138 8.92962 -20.6741
O 10.6412 -28.3847 15.5961
H 11.0626 -28.7151 16.3895
H 9.84992 -28.9156 15.5057
O -0.0621132 23.4594 -25.473
H 0.802867 23.8289 -25.2953
H -0.673286 24.1619 -25.251
O 18.1856 19.1361 17.8449
H 18.7694 18.4868 18.2371
H 18.7341 19.9116 17.7268
O 11.1547 -12.8876 -8.11133
H 10.756 -13.1017 -7.26786
H 12.0083 -13.3202 -8.09001
O 0.793819 -3.71951 -14.3641
H 0.978761 -4.52205 -14.8519
H 0.220804 -3.2146 -14.9412
O -19.8901 21.9313 -5.69373
H -19.0628 21.7851 -5.23501
H -20.2991 21.0667 -5.73247
O 5.5565 25.2344 13.1109
H 4.73836 25.0199 13.559
H 6.21766 24.6982 13.5486
O -19.0923 22.8425 10.8103
H -19.8246 23.2325 10.3328
H -19.4802 22.1089 11.2872
O -4.58963 5.68467 -19.0184
H -5.52465 5.83867 -18.8833
H -4.19031 6.55132 -18.943
O 19.7002 -29.9528 -1.1077
H 19.791 29.7277 -0.209982
H 20.3274 29.5287 -1.6116
O -17.9385 -20.655 -6.56279
H -17.6899 -19.7325 -6.62129
H -17.2851 -21.0432 -5.98082
O 6.17626 27.0245 27.3378
H 6.949 27.574 27.4688
H 6.38947 26.2017 27.778
O -21.1196 4.87319 -6.66828
H -21.841 5.19155 -7.211
H -20.8548 4.05043 -7.0796
O -25.2611 -21.953 -23.5089
H -25.6216 -22.8066 -23.749
H -24.5272 -21.8248 -24.1098
O -1.79872 18.3915 -28.2076
H -1.12717 18.018 -28.7784
H -1.34225 18.5712 -27.3856
O -2.64897 13.3869 -29.1898
H -2.26505 12.7018 -28.6424
H -3.3583 12.9489 -29.6601
O 2.30854 -28.1449 -24.7143
H 2.2912 -28.6614 -25.5201
H 1.53367 -28.4298 -24.2299
O 25.3565 8.2006 -1.25755
H 24.833 7.98368 -2.02901
H 24.7143 8.32232 -0.558252
O -29.5097 5.20921 6.33724
H -28.8776 4.80614 6.93237
H -29.2455 6.12815 6.29296
O 6.72981 4.77135 8.33684
H 6.01721 5.06837 8.90271
H 6.74114 3.82028 8.44435
O 5.79957 18.7695 -26.1446
H 6.61478 19.0314 -26.5725
H 5.66729 17.8611 -26.4158
O 28.8477 1.09283 -4.86067
H 29.1098 0.202541 -4.62626
H 28.3538 0.99126 -5.67428
O 10.3104 -28.4395 20.9571
H 11.1323 -28.4775 21.4464
H 10.4336 -27.7211 20.3366
O 10.6796 6.32111 28.1124
H 9.78309 6.4069 28.4367
H 10.7978 7.07297 27.532
O -29.7905 -19.1338 27.2871
H -29.4077 -19.6225 26.5585
H -29.9154 -18.2492 26.9434
O 23.5172 -11.5383 -8.90223
H 24.301 -11.9104 -8.49793
H 23.6221 -11.7155 -9.837
O 20.1576 14.4911 -29.1274
H 19.8517 15.3966 -29.0749
H 20.9046 14.5243 -29.725
O 17.6438 -29.9895 -24.3519
H 17.5244 -29.4293 -25.1188
H 17.5854 -29.3917 -23.6066
O -11.7097 -14.4537 29.2946
H -11.6437 -14.2049 -29.7834
H -12.6476 -14.5727 29.1447
O 4.07726 -20.3907 -12.7767
H 4.53572 -20.1394 -13.5785
H 3.76228 -21.2782 -12.9485
O -3.37943 12.6995 -16.5277
H -2.56543 13.1928 -16.6294
H -3.101 11.7853 -16.4746
O 23.9996 -28.5502 18.6884
H 24.694 -27.9073 18.5447
H 23.8515 -28.5362 19.6339
O -7.88485 -18.7168 21.9486
H -7.08087 -19.0197 21.5267
H -7.86267 -19.1129 22.8197
O -11.798 26.9515 -3.91226
H -11.9198 27.5183 -4.67388
H -12.3907 26.2153 -4.06382
O -13.9074 -16.0582 7.08604
H -13.2504 -15.6302 7.63506
H -14.7433 -15.8421 7.49934
O -0.551216 24.0283 -15.0875
H -0.819782 24.9447 -15.1529
H -0.877102 23.6248 -15.892
O -9.0587 22.9116 -22.8128
H -8.28292 22.5077 -23.2018
H -9.28267 23.6253 -23.41
O -10.3778 3.79846 1.41869
H -9.51736 3.37912 1.41471
H -10.8879 3.2936 2.05206
O -3.77106 -12.0699 27.3307
H -4.26495 -12.4614 26.6103
H -4.3963 -11.4869 27.7614
O 10.9837 27.3154 -15.1355
H 10.9659 26.9436 -16.0174
H 11.3949 26.6384 -14.598
O 4.6571 23.0928 21.5416
H 4.86508 23.1327 22.4751
H 3.78867 22.6918 21.5062
O -5.43487 11.0416 15.0343
H -5.23499 11.7822 14.4618
H -6.39118 11.0071 15.0571
O 24.0597 2.0345 6.39528
H 24.9526 2.30224 6.6126
H 24.1579 1.16612 6.00475
O 27.6448 -23.9015 7.94009
H 27.2864 -24.3951 8.67773
H 28.3425 -24.4585 7.59493
O 13.8908 27.2081 29.3093
H 13.7723 28.0545 28.878
H 14.6713 26.8366 28.8982
O -4.89388 -7.47878 -27.9256
H -4.81728 -7.0233 -28.764
H -4.17286 -8.10836 -27.9278
O 0.270179 8.02961 -8.36121
H 0.921607 7.7103 -7.73677
H -0.508244 8.19881 -7.83049
O 13.7646 -14.3511 15.762
H 14.2793 -14.2695 14.9591
H 12.949 -13.8872 15.5724
O 13.4365 -26.727 24.1652
H 12.9502 -27.4774 23.8236
H 13.4675 -26.8715 25.1109
O 17.1463 -5.61587 -18.0217
H 17.6192 -5.99829 -18.7609
H 17.7728 -5.01238 -17.6224
O -1.11324 -24.2509 5.48583
H -0.218463 -24.5854 5.54678
H -1.07022 -23.378 5.87612
O 26.6709 29.6898 22.7128
H 26.3271 -29.5199 22.2965
H 27.1463 29.2384 22.0153
O 10.4988 4.24601 -23.7765
H 9.84701 3.54858 -23.8476
H 10.3038 4.83217 -24.5077
O 9.67014 18.4094 27.0808
H 9.34062 19.179 26.6168
H 10.6036 18.3838 26.8705
O -17.3709 13.1467 24.8642
H -16.5358 13.605 24.9582
H -18.0302 13.8399 24.8984
O 11.6263 -18.571 -11.1475
H 11.7514 -19.4823 -11.4124
H 11.1703 -18.167 -11.8858
O 16.0125 6.68566 -26.8559
H 16.2945 7.59923 -26.9015
H 15.0963 6.70323 -27.1327
O -26.395 -29.1554 -1.48596
H -26.1643 29.9382 -1.68974
H -25.7946 -28.9073 -0.782921
O -28.9366 -4.69074 21.0735
H -28.6539 -5.49358 21.5114
H -29.4705 -4.9933 20.3389
O -22.1828 12.4611 -10.6633
H -22.5706 12.3083 -11.525
H -22.8443 12.1523 -10.0442
O -25.1747 18.6331 -3.60989
H -24.3816 18.1771 -3.8914
H -25.8855 18.0241 -3.80989
O -11.7379 28.3041 -19.1557
H -11.3818 28.2762 -18.2677
H -11.4315 29.1383 -19.5112
O -10.7597 15.5375 -4.38521
H -9.82597 15.721 -4.48908
H -11.0087 16.0043 -3.58755
O -1.81478 21.0007 14.5386
H -1.19059 21.4987 15.0665
H -2.24452 20.4162 15.163
O -22.8118 2.49704 -4.92063
H -22.9555 3.26107 -4.36219
H -22.7897 1.75705 -4.31386
O -17.1936 -24.946 -21.2122
H -16.6633 -24.7883 -21.9933
H -17.6699 -25.7537 -21.4046
O 28.0833 -7.03764 22.9237
H 27.9881 -7.48885 22.0849
H 28.0091 -6.10845 22.7061
O -7.93664 -7.86856 -26.676
H -7.80098 -7.1295 -27.269
H -7.33312 -8.54197 -26.9898
O -28.0138 10.7594 -3.08155
H -28.194 10.1596 -3.80542
H -27.0789 10.9511 -3.15581
O 1.99109 -10.2836 14.1365
H 2.09472 -9.57103 14.7672
H 1.71924 -11.034 14.6649
O -26.5032 17.927 -26.3881
H -26.6096 18.8775 -26.3515
H -26.3468 17.7385 -27.3134
O 3.91129 -8.38918 12.3756
H 4.68934 -8.94387 12.3191
H 3.90283 -7.90299 11.5511
O -26.5376 9.96358 13.1766
H -26.5679 10.5474 13.9345
H -27.1986 10.3122 12.5785
O -7.26531 -29.3644 -26.8357
H -6.48202 -29.2176 -27.3659
H -6.98617 -29.1796 -25.9389
O 20.6195 -10.5532 -21.4941
H 21.416 -10.8673 -21.9221
H 20.8272 -10.5682 -20.5598
O 11.8101 -14.0518 -18.7068
H 10.9681 -14.4229 -18.9707
H 12.4435 -14.749 -18.877
O -11.3078 5.47506 -24.4792
H -10.9871 5.77087 -23.6272
H -11.5927 6.27576 -24.9196
O -4.19737 28.8207 15.0921
H -4.72797 29.5088 14.6906
H -4.72237 28.0261 14.9964
O 13.071 22.6949 23.8823
H 12.2599 22.6473 24.3883
H 13.4266 21.8068 23.9147
O 6.0601 -29.6471 7.9486
H 6.64123 -28.9014 8.09886
H 5.9844 29.9314 8.80462
O 13.9395 23.7164 3.13937
H 14.8628 23.4986 3.26689
H 13.9072 24.6709 3.2023
O -13.9012 -5.47211 -23.1614
H -14.0408 -5.48344 -22.2145
H -13.7147 -6.38336 -23.3874
O 0.749444 23.6456 -19.0293
H 1.68016 23.666 -18.8066
H 0.368222 23.0226 -18.4107
O -18.2661 -24.8552 -7.70907
H -18.6692 -25.7211 -7.77245
H -19.0053 -24.2475 -7.68515
O -16.1856 -5.0226 -28.6022
H -15.9145 -5.33884 -29.464
H -15.5453 -5.39674 -27.9969
O -18.3078 -10.7858 23.3361
H -17.9437 -11.6517 23.5201
H -18.685 -10.5021 24.1688
O -6.83802 -27.8031 6.95233
H -7.19081 -26.9648 6.65381
H -6.0367 -27.9215 6.44234
O 21.7445 -21.1323 0.835972
H 21.0983 -20.9281 0.159974
H 21.3071 -21.7685 1.40176
O 24.2526 -25.9191 -7.7752
H 24.3135 -25.5428 -8.65321
H 23.3475 -25.7594 -7.5079
O -1.13408 1.77652 27.4266
H -0.702253 1.54494 28.2489
H -1.36984 2.69837 27.5307
O -25.941 -14.5333 -10.1664
H -25.1835 -13.9609 -10.0445
H -25.6185 -15.2431 -10.7218
O 8.60178 11.764 -14.7455
H 8.24732 11.0415 -15.2637
H 8.22841 12.5505 -15.1433
O -24.3912 19.5447 -8.92471
H -24.5442 18.9593 -8.18293
H -23.5625 19.9784 -8.72125
O -13.9084 26.8252 12.4238
H -14.3771 27.4134 11.8317
H -13.3732 26.2803 11.8469
O 28.2443 -8.86858 -22.1166
H 28.6048 -9.61826 -21.643
H 28.4042 -8.12122 -21.5403
O -10.0144 15.9887 -9.30289
H -10.3159 16.2005 -10.1863
H -9.0612 15.9445 -9.37887
O -10.4791 0.250668 29.3935
H -11.0603 -0.478843 29.1785
H -9.65497 0.0380322 28.9555
O 10.5455 -12.5183 10.8109
H 10.9037 -12.1859 9.98787
H 9.61966 -12.2768 10.7846
O 20.1957 11.0745 5.21665
H 20.5809 10.5731 4.49802
H 20.2314 10.4829 5.96827
O -19.2448 -6.40522 28.9616
H -18.8501 -5.75978 28.3752
H -20.0074 -6.72989 28.4827
O 7.30069 -18.2648 -1.89565
H 8.17428 -18.656 -1.88961
H 6.82195 -18.7569 -2.56259
O -28.5124 5.87252 22.944
H -28.4811 5.99877 21.9957
H -27.6941 5.4222 23.1533
O -2.02442 -3.55563 16.6494
H -2.57346 -2.93279 16.1731
H -2.50947 -3.73627 17.4546
O -16.9866 15.6461 -27.1368
H -17.8188 16.0921 -26.9797
H -16.4194 16.3208 -27.5101
O -22.002 24.4923 -28.4882
H -22.3717 24.4919 -27.6053
H -21.374 25.2147 -28.4851
O -25.9153 -20.8409 -19.1037
H -25.6007 -21.4862 -19.7368
H -26.6917 -20.4604 -19.5145
O -12.7702 1.8923 -20.0293
H -13.4918 2.18491 -19.4726
H -12.4378 1.10533 -19.5975
O -24.2991 -2.5704 -29.8978
H -24.6161 -1.85298 29.5536
H -24.5553 -2.32405 -29.009
O 13.6432 -19.0836 -24.1474
H 12.852 -18.8777 -24.6451
H 14.2424 -19.4578 -24.7933
O 25.0355 26.4491 2.23483
H 24.3763 26.7838 2.84288
H 25.6883 27.1471 2.18057
O 14.2327 -24.38 27.8741
H 14.8647 -24.4742 27.1614
H 13.4039 -24.6806 27.5013
O 25.4093 0.45738 20.2144
H 26.178 0.183178 19.7143
H 25.1354 -0.330175 20.6845
O -18.6867 -5.75245 -25.9524
H -18.8904 -6.58876 -26.3711
H -19.1765 -5.10475 -26.4591
O 10.6205 0.652174 -2.892
H 10.5318 1.49765 -3.33191
H 9.92895 0.6522 -2.23023
O -20.8199 -8.59265 22.3969
H -20.1805 -7.98983 22.7764
H -21.6381 -8.09608 22.3813
O -23.6426 15.7355 25.7361
H -22.715 15.5198 25.6394
H -23.8683 16.193 24.9261
O -16.9963 -17.5719 12.6625
H -16.3201 -18.2365 12.531
H -16.6091 -16.765 12.3229
O 20.6542 -6.32327 3.09151
H 19.7119 -6.26241 3.24838
H 21.051 -6.15678 3.9465
O 22.4389 -21.6982 -8.21233
H 23.0516 -22.1324 -7.61866
H 22.6946 -20.7761 -8.18883
O -26.3218 7.12275 -26.6761
H -26.8677 7.83327 -26.3394
H -25.4308 7.47161 -26.65
O -23.8487 -19.765 -16.7246
H -23.2798 -20.063 -16.0148
H -24.44 -20.5008 -16.8831
O 13.0865 -22.477 -15.6632
H 12.1316 -22.5415 -15.6481
H 13.2621 -21.5835 -15.9582
O -5.72475 -15.9497 12.7062
H -5.31096 -16.7063 12.2908
H -6.44758 -16.3196 13.213
O 7.68075 17.7763 6.26681
H 7.07263 17.8581 7.00147
H 8.51701 17.5466 6.67191
O 2.46249 -9.24546 -5.16484
H 2.69832 -9.42858 -6.07428
H 1.52823 -9.44743 -5.11386
O -9.88992 -28.6161 13.6537
H -10.0892 -29.5436 13.7812
H -10.21 -28.1904 14.449
O 3.66349 -7.81246 21.3288
H 3.3408 -7.08633 21.8625
H 4.27983 -8.27328 21.898
O -10.4862 26.8775 -28.5233
H -9.62097 27.1929 -28.2622
H -10.3905 25.9263 -28.5713
O -17.2507 26.2237 -9.05118
H -17.0303 25.3405 -8.75523
H -16.5283 26.4706 -9.62854
O -9.19324 -17.9622 -3.2908
H -8.62415 -17.1936 -3.3314
H -10.0732 -17.6175 -3.4426
O -17.4873 -23.5208 3.86996
H -18.0093 -24.2603 3.55872
H -17.3653 -22.9706 3.09624
O -15.0138 -15.1287 -26.4894
H -15.5109 -15.6425 -27.1259
H -15.5811 -15.0865 -25.7196
O 10.8253 15.689 -3.61946
H 10.5415 15.23 -4.41006
H 11.1573 16.5291 -3.93582
O -14.1705 -13.7788 -6.09604
H -14.2917 -13.2833 -5.28612
H -14.517 -13.2073 -6.78124
O 7.01768 21.743 -29.4594
H 6.55459 20.9202 -29.3019
H 6.50241 22.4014 -28.9934
O 19.1679 -24.8999 -27.6123
H 19.1854 -25.6423 -28.2163
H 18.3994 -25.0553 -27.0632
O 29.6537 11.8377 8.0759
H -29.443 11.5691 7.90807
H 29.2213 11.0431 8.38898
O -18.4624 -15.3222 19.5953
H -19.3968 -15.3382 19.8024
H -18.4017 -14.7918 18.8009
O 14.7717 3.34953 6.59828
H 14.7584 2.75815 7.35083
H 13.9729 3.86936 6.68751
O 22.7217 15.7394 -11.8207
H 22.449 16.3265 -12.5257
H 21.9511 15.6665 -11.2575
O -18.6994 -0.188162 16.5096
H -18.9263 0.674162 16.1616
H -17.8378 -0.37767 16.1382
O 1.39842 -15.8651 17.7342
H 2.26472 -15.6341 17.3989
H 1.11487 -15.0907 18.2202
O 28.5876 -3.9691 14.9282
H 28.8958 -4.80078 15.2881
H 27.7232 -4.16876 14.5688
O -11.2408 13.092 -12.8844
H -10.5404 13.7352 -12.7753
H -10.7854 12.2566 -12.9885
O -5.55451 -27.6941 29.0669
H -5.59902 -26.7941 29.3897
H -4.9469 -28.1329 29.6623
O -12.8065 -4.42179 -26.765
H -13.3331 -5.14417 -26.4228
H -12.8523 -3.74872 -26.086
O -4.15192 5.86156 -10.9166
H -3.42697 6.47347 -11.044
H -4.07324 5.58293 -10.0042
O 15.8389 20.2886 12.3553
H 16.1203 20.8793 11.6566
H 16.6334 20.1203 12.8618
O 11.4126 -4.14706 15.8561
H 12.0321 -4.60852 16.4213
H 11.1207 -3.40045 16.3792
O -1.09784 15.6906 28.1893
H -2.04222 15.6559 28.3416
H -0.856347 16.596 28.3842
O 11.6932 24.3222 5.20805
H 12.5687 24.1165 4.88031
H 11.2394 24.7044 4.45689
O -26.7011 -14.0264 12.4139
H -26.9046 -13.1596 12.0626
H -27.4176 -14.2138 13.0203
O 12.5225 9.62599 -8.82637
H 12.6833 8.90007 -9.42922
H 12.23 10.3439 -9.38783
O 16.1041 -14.7839 27.5419
H 16.4892 -14.9224 28.4072
H 16.3666 -15.5532 27.0365
O -22.3655 -1.62604 27.3192
H -22.292 -1.10153 26.5219
H -21.5283 -1.50168 27.7663
O -22.6597 -4.11831 2.23558
H -23.3133 -3.41937 2.25807
H -22.3446 -4.12328 1.33173
O -22.6268 -13.4638 -18.7067
H -22.5395 -12.5155 -18.6099
H -21.9433 -13.8265 -18.1432
O 9.92636 -2.12022 13.3915
H 10.1804 -1.19746 13.3773
H 9.96881 -2.36664 14.3155
O -2.49589 -2.1752 0.00334848
H -1.75979 -1.63428 -0.282671
H -2.62779 -2.79824 -0.711253
O -11.3566 16.0975 12.9946
H -10.5939 15.6504 13.3615
H -12.1059 15.5935 13.3119
O 12.4994 29.5484 26.6736
H 13.2852 -29.9237 26.8153
H 12.7258 28.9722 25.9435
O 29.583 11.8277 -14.9997
H 29.5679 12.3588 -15.7959
H -29.8388 11.0947 -15.2111
O -4.93441 10.0614 18.1967
H -5.30714 9.35306 17.6717
H -4.61916 10.6964 17.5536
O -28.32 24.8513 -14.9416
H -28.9526 24.2755 -15.3711
H -28.2619 25.6148 -15.5159
O 4.70939 -10.8849 -4.13405
H 4.98375 -10.0502 -3.75425
H 3.91165 -10.6766 -4.62033
O -5.65435 28.0928 -7.89371
H -5.92029 28.0565 -6.97491
H -4.95891 27.4393 -7.96822
O -23.9055 -0.744916 -10.9521
H -23.7633 -0.243852 -11.7552
H -24.8398 -0.645143 -10.7693
O 5.23269 -27.8263 -0.360885
H 5.53102 -28.1244 -1.22015
H 4.27772 -27.8234 -0.426092
O -0.319482 -5.86968 -29.487
H -0.484388 -5.06756 -28.9914
H 0.337553 -5.6196 29.8634
O -11.1142 0.374909 -0.868041
H -11.6447 0.615371 -1.62763
H -10.2696 0.11679 -1.2372
O 8.57715 -0.265957 9.01801
H 7.79138 -0.430609 9.53925
H 9.18722 0.148759 9.62798
O 15.9785 -25.3368 -3.19537
H 15.6082 -25.9472 -3.83299
H 15.7174 -24.4718 -3.51142
O -29.4897 8.55306 2.29161
H -28.8595 9.11885 1.84552
H -29.6928 7.86966 1.6529
O -21.774 29.8888 -7.71761
H -21.2444 29.7689 -8.50585
H -22.2087 -29.2682 -7.84646
O 9.45932 6.71085 -14.6121
H 9.63287 7.64739 -14.5171
H 8.83297 6.51113 -13.9164
O -16.7364 19.9479 -26.077
H -16.133 19.4002 -26.5791
H -16.2858 20.1027 -25.2467
O -16.6505 10.2767 -17.1682
H -16.4212 11.2059 -17.1848
H -17.1685 10.1431 -17.9619
O -9.9863 24.6175 -4.20629
H -10.4618 24.9952 -4.94622
H -9.9028 23.689 -4.42339
O 10.1861 -5.86727 8.06047
H 10.1135 -6.67841 8.56348
H 11.0729 -5.88642 7.70077
O 15.538 -16.1666 17.1794
H 14.8661 -15.8456 16.5779
H 15.9625 -15.3748 17.5098
O -2.81583 4.35365 -5.71745
H -3.6851 3.98643 -5.55697
H -2.83577 5.21165 -5.29359
O -23.6914 22.2292 -29.6
H -23.9052 22.0658 29.4814
H -22.8612 22.7048 -29.6277
O -7.91948 4.38028 21.0636
H -7.36339 3.64663 20.8014
H -8.21108 4.15645 21.9474
O -6.00071 10.3601 -22.2214
H -6.92155 10.4086 -22.4781
H -5.82614 9.42347 -22.1297
O -10.8886 -8.99599 -0.474199
H -11.4386 -9.21014 -1.22777
H -10.9633 -8.0459 -0.384825
O 27.5343 8.05311 26.5755
H 27.8938 7.17274 26.6847
H 26.6633 8.00725 26.9698
O 9.5787 8.48874 23.1973
H 8.63235 8.38936 23.3011
H 9.85897 7.68125 22.7665
O -1.73252 12.8368 14.4054
H -1.0667 13.4332 14.7478
H -1.23465 12.1534 13.9568
O 17.0851 10.027 3.47316
H 17.0656 10.9469 3.2092
H 17.808 9.64895 2.97247
O -6.08506 21.9996 20.4078
H -6.11567 22.8683 20.0072
H -6.39657 21.4082 19.7226
O -15.8379 -11.1664 24.4766
H -15.599 -10.2454 24.5812
H -16.2695 -11.2069 23.6232
O -26.532 -5.83714 -25.0718
H -26.9578 -6.65892 -24.8277
H -26.3944 -5.38213 -24.241
O 2.53658 6.77479 -10.0657
H 2.10959 6.42448 -9.28393
H 1.82418 6.89962 -10.6927
O -9.82771 -15.7839 17.0128
H -10.0996 -16.685 16.8387
H -10.4481 -15.2466 16.5201
O 19.3005 4.9707 3.91044
H 20.1062 4.61037 3.53993
H 18.9526 4.26706 4.45824
O -24.3059 -12.565 -2.69349
H -24.4873 -11.6364 -2.83852
H -23.7509 -12.5822 -1.91387
O 15.1607 -23.0305 -11.4314
H 14.9983 -22.8542 -12.3581
H 15.922 -23.6108 -11.4273
O -10.689 -27.3917 -8.0975
H -10.6206 -26.9767 -8.95737
H -10.3333 -28.271 -8.22637
O 3.92614 -10.4605 -7.46877
H 4.63503 -9.82415 -7.37523
H 4.33602 -11.3054 -7.28323
O -15.1438 -5.28733 -1.84231
H -15.0967 -6.0167 -2.46041
H -14.2401 -4.98192 -1.76227
O 4.68239 6.1369 -7.4355
H 4.98865 6.87749 -7.95891
H 5.42722 5.91304 -6.87752
O -24.183 16.4063 5.86211
H -25.0199 15.98 5.67754
H -24.38 17.3427 5.83756
O 7.56241 3.33204 -29.7604
H 7.98899 2.94031 29.4775
H 7.50057 4.26343 -29.9724
O 20.7881 -11.1649 1.30483
H 21.0505 -12.0506 1.55582
H 21.6111 -10.7174 1.10837
O 6.89003 20.2386 15.271
H 7.39027 19.5355 15.6852
H 6.56851 20.767 16.0015
O -7.68059 -1.61213 -8.43235
H -7.87967 -0.707312 -8.67296
H -7.42309 -1.56453 -7.51166
O 26.668 4.90293 -7.2071
H 25.8959 5.36391 -7.53509
H 26.758 5.19963 -6.3015
O 14.8987 26.0124 19.0085
H 14.213 26.2848 18.3986
H 14.4879 25.3335 19.5438
O 24.3588 5.40445 2.85886
H 24.0633 5.80239 3.67772
H 24.7272 4.5608 3.12122
O 13.9041 15.6357 7.3707
H 13.3291 15.7799 8.12225
H 14.4657 16.4104 7.34602
O 7.08394 8.70646 16.2219
H 7.85612 8.26047 16.5699
H 6.37965 8.06293 16.2999
O 8.50783 -4.82453 3.43356
H 7.92757 -4.19076 3.01182
H 8.42895 -4.63683 4.36885
O 28.5491 -0.425716 -21.8092
H 29.4896 -0.603158 -21.8265
H 28.2904 -0.412803 -22.7307
O -13.1808 2.94836 -9.31825
H -13.5886 2.18653 -9.73006
H -13.8868 3.35709 -8.81752
O -3.91453 20.1204 -25.3268
H -4.29019 20.2922 -24.4633
H -4.4597 19.4232 -25.6913
O 12.1655 25.3645 12.2878
H 12.2642 25.6949 11.3949
H 12.6448 25.9911 12.8299
O -3.92071 9.87568 -29.3501
H -4.08458 9.5853 -28.4529
H -3.80798 9.06577 -29.8477
O -25.7624 -23.2945 1.18688
H -24.9031 -23.6425 1.4248
H -25.7233 -22.3701 1.43217
O -19.5439 -1.98127 -5.06423
H -18.6678 -1.88791 -5.43817
H -20.1302 -1.63582 -5.7374
O 6.25949 -14.0905 -15.9349
H 7.00496 -14.262 -16.5103
H 6.62084 -14.148 -15.0504
O -25.6167 -20.9525 4.48183
H -26.032 -21.6532 3.97898
H -24.7844 -21.3259 4.77161
O -4.26406 10.9023 -20.0265
H -4.84926 11.4856 -19.5432
H -4.82958 10.473 -20.6685
O 19.2082 -12.8405 -21.5599
H 19.41 -13.3905 -20.8029
H 19.5792 -11.9856 -21.3411
O 10.82 1.62332 -10.1191
H 9.86938 1.51907 -10.0789
H 11.0946 1.6757 -9.20359
O 4.25213 4.87148 22.4495
H 3.99781 4.02076 22.0919
H 3.42581 5.28042 22.7067
O 10.7227 18.9599 17.7963
H 10.776 18.6448 18.6985
H 11.2025 18.3078 17.2856
O 25.4022 2.16294 -0.766015
H 25.3404 3.11807 -0.753989
H 25.0739 1.91208 -1.62946
O 11.6197 -23.0247 -11.125
H 12.3812 -23.3134 -11.6278
H 11.1472 -23.8316 -10.9203
O 12.4294 -22.4704 13.4211
H 12.5081 -22.5961 14.3667
H 13.2768 -22.7454 13.071
O -7.56134 9.55001 -0.192126
H -7.47134 10.1051 0.582498
H -6.6753 9.4912 -0.549487
O -4.92731 -14.2705 -26.0228
H -4.98208 -13.382 -25.671
H -5.70296 -14.7132 -25.6784
O -28.8349 26.1567 -17.2068
H -27.9081 26.2312 -17.4342
H -29.2454 25.7898 -17.9898
O 14.7598 -1.53572 -28.9338
H 14.43 -1.55175 -29.8323
H 15.2059 -0.692361 -28.8569
O 4.28277 -16.4338 -4.1884
H 4.01537 -16.1623 -3.31031
H 3.46028 -16.5968 -4.65008
O -20.4353 25.6449 -6.19524
H -19.8938 25.5518 -5.41145
H -21.2343 26.0715 -5.88562
O 4.99255 11.9667 1.56744
H 5.68141 12.3168 1.00248
H 5.14486 12.3813 2.41664
O -4.76464 -22.0187 24.8724
H -4.98907 -22.1477 23.9509
H -4.00785 -22.5867 25.0169
O 2.97035 20.9977 -16.7837
H 2.92735 21.2766 -17.6984
H 3.72982 21.4589 -16.4277
O -1.82273 1.00628 -0.262962
H -2.16921 0.628407 0.545366
H -2.24467 1.86304 -0.327498
O -0.211361 -1.69697 -16.1701
H -0.162013 -0.770835 -15.9333
H -1.14598 -1.86411 -16.2917
O -17.221 -14.1715 -4.85733
H -17.0146 -13.2373 -4.88517
H -17.2619 -14.3806 -3.92414
O -8.55342 26.1937 -13.8965
H -8.37068 25.8663 -13.0157
H -8.82417 25.4189 -14.3891
O -24.7535 -26.231 -21.4138
H -25.6715 -26.0728 -21.1934
H -24.475 -25.4351 -21.8669
O 13.1707 10.9443 -25.6126
H 13.8346 10.306 -25.3518
H 12.8681 10.6399 -26.4681
O 9.52976 17.9592 23.6285
H 9.66559 18.4397 24.4452
H 8.63429 17.6269 23.6916
O -10.8058 -5.24381 -16.5743
H -11.3877 -4.52778 -16.8291
H -10.2236 -4.85845 -15.9194
O 29.2563 -19.1857 -2.51894
H 28.3318 -19.0226 -2.70551
H 29.3272 -20.1392 -2.47242
O -1.37021 -14.1702 10.2753
H -2.13685 -14.4882 10.7522
H -0.631012 -14.3672 10.8507
O 10.0687 24.4946 -20.586
H 9.64233 25.2062 -21.0636
H 9.65952 23.6987 -20.9256
O -29.4696 -15.2576 5.70792
H -28.5192 -15.3279 5.7981
H -29.6226 -15.271 4.76313
O -2.06222 -8.1243 -25.824
H -1.91565 -8.94435 -26.2955
H -1.94256 -7.44264 -26.4853
O 24.3396 -20.8515 14.0018
H 25.2497 -21.0845 13.8184
H 23.901 -20.9109 13.153
O 17.3063 0.0607987 -13.0574
H 16.9221 0.851884 -13.4353
H 17.0845 -0.633625 -13.6777
O 11.4892 -20.3707 24.9032
H 11.495 -21.266 24.5645
H 11.0453 -19.8607 24.2256
O 6.25124 0.584623 0.314773
H 6.35203 1.34146 -0.262527
H 6.1992 0.958873 1.19424
O -21.9823 -12.955 -14.8159
H -22.4972 -12.7538 -15.5974
H -21.1184 -12.5839 -14.9956
O -23.2464 -11.3284 3.88119
H -22.9388 -12.2148 4.0703
H -24.1808 -11.3494 4.08799
O -17.046 -6.07343 -11.4705
H -16.7544 -5.49739 -12.1772
H -17.8011 -5.62411 -11.0908
O -19.1787 14.8717 3.8407
H -20.1142 14.9665 3.6615
H -18.8888 15.7531 4.07563
O -24.6851 25.5125 14.0832
H -25.1171 24.8825 13.5064
H -24.1724 24.9738 14.6858
O 7.64003 -10.9031 -16.3804
H 6.70313 -11.097 -16.41
H 7.69314 -9.95564 -16.5057
O 3.41143 -11.3648 5.58242
H 3.57894 -12.2691 5.84799
H 3.51701 -10.8553 6.38582
O -20.4597 15.0189 -10.1781
H -20.9662 14.5908 -9.48785
H -21.0988 15.2009 -10.867
O 6.73639 -5.03621 15.9174
H 6.88623 -4.50085 15.1382
H 6.50796 -5.90025 15.5747
O 12.2593 6.85666 -23.2433
H 12.2385 5.91156 -23.093
H 12.1816 7.24032 -22.3698
O -14.1048 -20.4326 -13.1393
H -14.8982 -20.5369 -13.6645
H -13.4887 -19.9873 -13.721
O 22.9551 -8.26707 28.3594
H 22.1335 -8.7382 28.4986
H 23.2347 -8.52639 27.4815
O 14.5605 -10.4225 -18.5066
H 14.6466 -9.47488 -18.6106
H 14.3649 -10.5452 -17.5777
O 18.3223 -3.08818 20.6779
H 18.0089 -2.29643 21.1151
H 17.8209 -3.12708 19.8634
O -22.9363 2.24241 20.1082
H -22.6492 2.98323 20.642
H -23.8383 2.08203 20.3855
O 25.1607 20.9462 20.9169
H 25.7582 21.0315 20.174
H 25.1073 21.8284 21.2845
O -24.0329 -4.42877 27.6436
H -24.5394 -4.49087 28.4534
H -23.8549 -5.3376 27.4016
O -12.3941 -24.2838 -24.6921
H -12.7724 -24.8239 -25.386
H -13.1352 -24.0651 -24.1272
O -21.2827 -14.2321 21.8915
H -21.7409 -14.6518 21.1634
H -20.8919 -13.4467 21.5084
O -28.4685 27.53 22.356
H -28.2113 27.5273 21.434
H -27.9971 28.2721 22.7345
O 12.5894 0.00581276 -18.9827
H 11.9046 0.0214422 -19.6512
H 12.114 -0.0383501 -18.1531
O -25.7833 27.1978 4.3804
H -26.3908 27.9155 4.20091
H -24.9431 27.6283 4.53784
O 21.0409 20.7142 14.8438
H 20.7168 21.4378 15.3802
H 21.9311 20.5609 15.1604
O -14.9359 27.7671 18.0091
H -15.8123 27.699 17.6303
H -14.8955 28.6559 18.3622
O -4.01725 7.11403 9.83633
H -4.21824 8.00149 9.53923
H -3.72382 6.65765 9.04776
O -13.5632 8.07072 16.3939
H -13.2486 7.20143 16.1457
H -12.8638 8.4327 16.938
O -10.4941 -18.1761 2.41602
H -11.1194 -17.5652 2.02597
H -10.845 -19.0426 2.21053
O 10.9967 -9.95528 25.3477
H 11.1399 -10.8909 25.4904
H 11.7253 -9.68337 24.7896
O -1.81107 18.6502 28.7835
H -2.1189 19.3016 28.1534
H -2.1166 18.9731 29.6312
O -15.0477 29.0329 26.7293
H -14.9814 29.8829 26.2943
H -15.6111 29.1939 27.4862
O -8.33936 27.9679 -0.596289
H -9.15955 28.1026 -1.07103
H -8.468 28.4193 0.237924
O 12.8144 16.3684 18.0041
H 13.7331 16.6101 18.121
H 12.7603 16.0609 17.0993
O 23.3705 -27.8467 -1.6605
H 22.4311 -28.0228 -1.60949
H 23.6535 -28.2846 -2.46323
O -26.3955 -19.7986 7.65117
H -26.4703 -20.7465 7.5414
H -27.1369 -19.5623 8.20865
O 13.8039 -20.2263 -29.8324
H 12.9831 -20.6979 -29.6907
H 13.7987 -20.0101 29.2352
O -23.8881 23.3139 27.0011
H -23.4597 22.8782 26.2643
H -23.2326 23.9289 27.3303
O -8.50437 22.3819 27.0205
H -9.11321 22.2186 26.3002
H -7.83456 21.7045 26.9268
O -24.7959 -16.3398 9.27948
H -25.5337 -16.9125 9.07003
H -24.7684 -15.7105 8.55875
O -11.5358 -12.5462 27.3681
H -11.5258 -13.1618 28.101
H -10.6435 -12.2017 27.3319
O 2.50814 16.3555 -8.15266
H 2.89235 16.501 -9.0172
H 3.12407 16.764 -7.54444
O -15.084 -8.27356 9.39474
H -15.9649 -7.90064 9.43031
H -14.6763 -7.85416 8.63706
O -22.4805 8.29735 -10.5157
H -23.2697 8.44445 -9.99434
H -22.7948 7.86661 -11.3106
O -28.7904 -2.95498 -15.0246
H -28.7758 -2.05004 -15.3362
H -28.4327 -3.46491 -15.7514
O -28.1975 14.4044 20.0598
H -27.5342 13.7654 20.3206
H -28.7203 13.9513 19.3984
O 10.8707 9.10197 5.49238
H 10.8666 9.28233 6.43243
H 10.8789 8.14675 5.43132
O 21.6546 11.3352 1.24355
H 21.6082 10.8377 2.05996
H 21.934 12.2106 1.51157
O -3.48519 4.80667 -29.5545
H -2.9908 4.67968 -28.7447
H -3.01019 4.29406 29.7914
O 6.27397 -14.5493 -5.30269
H 5.55327 -14.2252 -5.84287
H 5.90316 -15.2942 -4.82964
O 14.8779 -27.9889 -8.70606
H 14.0719 -27.8451 -9.20197
H 15.5797 -27.822 -9.33513
O -26.8159 -16.188 5.90967
H -27.0789 -16.0698 6.82242
H -26.8272 -17.1359 5.77747
O 19.2063 24.8299 -29.376
H 19.3255 23.8906 -29.2352
H 19.3205 25.2189 -28.5089
O 9.26469 -15.2291 25.9205
H 8.74104 -14.4463 25.7495
H 8.91929 -15.5737 26.744
O 10.1216 -5.51362 -11.7897
H 9.83493 -6.20513 -12.3862
H 10.7762 -5.93392 -11.232
O 23.6406 19.1056 -21.9985
H 23.1559 19.4276 -21.2385
H 23.8134 18.1851 -21.8006
O -7.53922 -27.343 -12.2672
H -6.91152 -27.0653 -11.6001
H -8.25984 -27.732 -11.7717
O 1.14055 0.653256 -24.7557
H 1.15313 -0.293462 -24.615
H 2.05995 0.915245 -24.7078
O -6.12078 -27.6661 -14.4725
H -5.36725 -27.8219 -13.9031
H -6.86026 -27.5732 -13.8718
O -10.5147 12.0458 14.2883
H -10.9067 11.6314 13.5196
H -11.1257 12.7445 14.5221
O 29.8127 -0.489387 0.918896
H 29.6998 -0.0168189 0.0941686
H 29.0045 -0.992224 1.0199
O 22.1386 2.64293 -0.61947
H 21.1825 2.68832 -0.626461
H 22.3453 2.04755 0.100957
O 7.18965 -26.3718 14.529
H 7.69244 -25.5573 14.534
H 6.30808 -26.1112 14.7958
O 24.539 -17.8464 20.2441
H 23.6294 -18.1444 20.2335
H 24.5009 -16.9475 19.9174
O -19.8859 26.6004 -8.5452
H -18.9514 26.8073 -8.53616
H -20.0689 26.2784 -7.66256
O -1.90336 24.6768 29.8627
H -1.82377 24.3907 28.9527
H -2.73406 24.305 -29.8407
O 6.82177 24.5773 25.735
H 6.25353 25.316 25.953
H 7.42174 24.5086 26.4776
O 22.0869 14.961 18.934
H 21.2307 15.1756 19.3043
H 22.4671 14.3383 19.5536
O 6.91509 19.476 19.5013
H 7.64354 19.7371 18.9379
H 7.00214 20.0289 20.2778
O 11.0825 -18.9971 15.6169
H 11.833 -18.8687 15.0368
H 10.3285 -19.0364 15.0286
O 18.5444 -8.83941 -25.4026
H 18.939 -8.53822 -26.221
H 18.8372 -8.20585 -24.7476
O 28.1393 -3.9279 -28.2097
H 28.3165 -3.20561 -27.6071
H 27.1877 -3.9268 -28.3124
O -12.9095 -27.4329 22.0047
H -13.0843 -27.8312 21.152
H -13.5486 -27.8351 22.593
O 7.68418 1.92032 24.3209
H 8.04 1.14312 23.8901
H 6.74128 1.76091 24.3629
O -2.68166 -9.38604 14.9257
H -2.46018 -8.45538 14.8933
H -2.42005 -9.72495 14.0696
O -21.6216 -3.07195 -7.39791
H -22.0325 -2.27523 -7.73358
H -21.5534 -3.64639 -8.16053
O 27.7811 27.1176 1.08189
H 27.8705 27.5469 1.93275
H 27.7279 27.8381 0.453969
O -23.7399 -1.11669 6.13289
H -23.4777 -1.50445 5.29793
H -22.9354 -0.733773 6.48274
O 28.85 -3.27378 -18.4319
H 29.5333 -2.6842 -18.7508
H 28.906 -3.21256 -17.4783
O -29.2679 -2.0968 5.0979
H -29.4629 -2.94143 5.50389
H -28.3134 -2.07828 5.02894
O -4.97695 -9.18746 8.46862
H -4.35443 -9.28437 7.74799
H -4.54475 -8.59175 9.08064
O 17.0123 11.6395 -27.1624
H 16.6069 11.7531 -28.0221
H 17.8503 11.2151 -27.3464
O 2.94284 -13.8553 -16.2846
H 3.7539 -14.1047 -15.8416
H 2.25453 -14.0354 -15.6442
O -14.9778 15.5096 -16.777
H -15.759 15.2484 -17.2646
H -15.2069 16.3554 -16.3918
O -21.6865 3.8584 -2.45179
H -22.5985 3.56916 -2.42427
H -21.2392 3.19249 -2.97402
O 5.21645 -12.6128 29.8962
H 5.67757 -11.8869 -29.6835
H 5.22521 -12.395 28.9641
O 17.6192 28.0887 -7.7839
H 18.0792 27.4655 -8.34616
H 16.8058 27.6432 -7.54705
O 19.0994 21.935 -20.4586
H 18.9324 22.8775 -20.4675
H 18.2403 21.5377 -20.6017
O 8.90837 6.96852 18.9008
H 9.01866 6.81366 19.8389
H 9.11374 7.89622 18.7849
O -19.7987 -12.3254 13.6269
H -19.3637 -12.8385 12.946
H -20.3563 -11.7132 13.1468
O -11.0042 -19.7865 16.2465
H -10.3806 -19.8921 16.9649
H -11.7154 -19.2664 16.6205
O 28.8904 9.19044 12.9064
H 28.0189 8.79756 12.956
H 29.3527 8.66714 12.2517
O 11.6942 27.8158 -28.0862
H 11.3211 27.101 -27.5703
H 12.4403 28.1205 -27.5697
O -18.3613 -25.7275 -13.4922
H -19.2965 -25.9285 -13.4568
H -17.9294 -26.5724 -13.3664
O 18.5523 13.866 9.07704
H 18.9012 14.7223 8.82959
H 17.6184 13.9197 8.8742
O 10.5255 18.4123 -7.62374
H 10.5072 17.4559 -7.65902
H 10.8042 18.6142 -6.73056
O 21.7847 -6.9842 24.8096
H 22.1174 -7.34388 25.6319
H 21.3872 -7.73223 24.3639
O -5.80396 26.5392 15.3589
H -6.67327 26.7221 15.0024
H -5.84983 26.8365 16.2676
O -3.91898 -15.6545 5.22481
H -4.32775 -14.8749 5.60078
H -4.24652 -15.6874 4.32599
O 7.70645 23.2365 23.381
H 7.65012 23.6797 22.5345
H 7.47832 23.911 24.0207
O -24.6255 -3.11933 -9.9069
H -24.1641 -3.54323 -9.18326
H -24.0485 -2.40339 -10.1729
O -25.029 -0.0602833 8.76527
H -25.4807 -0.302697 7.9569
H -24.4369 -0.792246 8.9381
O 21.3631 -9.38416 19.3529
H 20.8088 -8.91985 18.7256
H 20.8132 -9.48595 20.1297
O -1.29644 25.0591 -9.2302
H -1.04287 24.2652 -9.70102
H -0.480601 25.3823 -8.84788
O 28.4637 -23.4309 17.334
H 27.708 -23.4357 17.9215
H 28.2251 -22.8152 16.641
O 11.4563 10.1032 1.49527
H 10.5075 10.0144 1.58552
H 11.6005 11.0437 1.39165
O 11.8664 -28.3319 -16.8344
H 12.2077 -28.9414 -16.18
H 11.1236 -28.7914 -17.226
O 14.6283 -6.29967 28.8168
H 14.0455 -6.53844 29.5376
H 15.0812 -7.11318 28.5948
O 24.5761 -24.9271 -16.6509
H 24.5679 -24.0172 -16.948
H 24.5548 -25.4429 -17.457
O -27.4433 -12.5347 8.65514
H -27.78 -11.6403 8.60214
H -26.9585 -12.5602 9.48008
O -12.4305 28.7697 10.0072
H -12.4723 28.8407 10.9609
H -11.5091 28.9194 9.7956
O 13.1441 12.6221 22.3996
H 12.4641 13.2864 22.2877
H 12.79 12.025 23.0586
O 2.20103 25.8683 -17.0574
H 2.135 26.7459 -17.434
H 3.08482 25.83 -16.6917
O -25.0182 -29.3273 9.8697
H -24.2383 -29.801 10.1588
H -25.6211 29.9882 9.57973
O 27.898 -24.157 -18.4701
H 27.3338 -23.5309 -18.924
H 28.2146 -23.6816 -17.702
O 10.3327 -27.2001 -25.5299
H 9.79682 -26.6406 -24.9678
H 10.1904 -26.8596 -26.4131
O 23.581 13.3107 20.5735
H 23.7135 13.1454 21.5069
H 23.3494 12.4564 20.209
O 9.60124 -3.80565 19.6415
H 8.91131 -3.22063 19.9545
H 9.78199 -3.50812 18.7499
O 21.147 1.03775 2.25585
H 21.6089 0.798241 3.05929
H 20.4989 0.343659 2.13563
O -20.0737 26.3735 13.8904
H -19.2173 25.948 13.8484
H -19.8962 27.2912 13.6844
O 12.5826 14.1868 19.6575
H 12.9094 14.5949 20.4593
H 12.5783 14.8942 19.0126
O -27.2368 -21.6829 -14.4856
H -26.3957 -22.1389 -14.5166
H -27.1015 -20.8939 -15.0105
O -3.51459 2.64371 3.40486
H -2.63168 2.59504 3.03834
H -3.96999 3.27734 2.85047
O -7.14821 -2.08009 21.4734
H -7.92027 -2.64518 21.5022
H -6.42377 -2.67345 21.2751
O 11.1981 29.8884 -12.0559
H 11.9944 29.9245 -11.5259
H 10.4845 29.9629 -11.4224
O -16.8273 8.10601 -26.425
H -16.5497 7.3022 -26.8644
H -16.1976 8.76681 -26.7133
O -25.1863 21.8181 1.5668
H -24.7202 22.5601 1.18147
H -25.8062 22.2156 2.17833
O -9.98802 -11.8677 21.834
H -9.33989 -11.1661 21.8958
H -10.4103 -11.8807 22.693
O -0.892404 -0.502577 4.80308
H -1.82285 -0.528772 4.5799
H -0.75135 0.382017 5.14047
O 24.2677 -23.2491 -20.7309
H 23.7517 -23.8819 -20.2314
H 24.9986 -23.7584 -21.0811
O -7.30966 -19.9675 3.61668
H -7.91421 -19.3139 3.26501
H -6.51218 -19.4757 3.81277
O -20.0958 -3.67694 24.1559
H -20.4131 -3.97096 23.3021
H -20.8885 -3.56103 24.6797
O 12.4841 -7.01225 7.01207
H 12.6386 -7.58129 7.76609
H 12.8826 -6.17687 7.25621
O 11.7781 16.1546 4.25698
H 11.383 15.3506 3.91982
H 11.6751 16.0927 5.20661
O 14.4665 -29.4188 -0.922683
H 15.1882 -28.8066 -1.06665
H 13.7084 -28.8601 -0.751624
O -27.1375 14.0113 -17.8878
H -26.6138 14.1292 -18.6804
H -27.994 14.3767 -18.1096
O -19.2552 11.9834 -10.4396
H -18.5404 11.5577 -10.913
H -19.286 12.8703 -10.7985
O 12.0461 4.24818 -2.08516
H 11.4617 4.0576 -2.81894
H 12.8598 3.79312 -2.30196
O -9.60211 -13.1875 -25.299
H -9.79718 -13.4003 -24.3864
H -10.4592 -13.1364 -25.722
O -11.1089 8.81382 1.4847
H -11.428 8.05808 0.991477
H -10.5474 8.43816 2.1628
O 2.10397 8.17396 29.8031
H 1.78846 8.46006 28.9459
H 3.05737 8.2298 29.7388
O 22.0968 6.52402 -13.363
H 22.5912 5.70565 -13.3177
H 22.6877 7.13756 -13.7996
O 12.2479 -8.13078 -28.7244
H 11.9642 -7.78134 -27.8797
H 11.4994 -8.63843 -29.0378
O -27.661 -28.6296 -4.51315
H -27.1215 -28.6372 -5.30378
H -27.4433 -29.4475 -4.06617
O -1.22493 -7.1696 10.4053
H -1.90106 -7.5437 10.9702
H -1.03732 -6.31348 10.7901
O 27.2954 -29.0386 16.9481
H 26.7575 -29.6057 16.3956
H 28.1798 -29.3963 16.87
O -17.9942 -15.275 -20.2582
H -17.7757 -14.692 -19.5312
H -17.2718 -15.1681 -20.877
O -22.9355 27.0426 -11.7458
H -23.3655 27.3123 -12.5573
H -23.3357 27.5887 -11.0692
O -28.9076 -29.5399 25.8266
H -29.591 -29.4104 26.4842
H -28.6957 29.5282 25.8812
O -16.9061 27.5433 -4.47196
H -17.5448 28.2446 -4.3436
H -16.6037 27.656 -5.37312
O 10.1931 15.4437 -23.0191
H 9.85218 14.5588 -22.8887
H 11.1438 15.3447 -22.9671
O -9.13268 -3.1659 28.0489
H -8.54072 -3.40182 28.7631
H -8.66999 -2.47744 27.5712
O 13.6042 -0.608147 -10.5381
H 14.0383 -0.138759 -11.2505
H 14.3153 -1.04781 -10.072
O -22.7328 -18.4148 3.89227
H -23.375 -17.7052 3.90565
H -21.8917 -17.98 4.03275
O -16.6931 -17.5813 25.8939
H -17.0342 -18.3509 26.3495
H -16.4729 -16.9663 26.5935
O 0.215913 21.1967 7.16957
H -0.256227 20.365 7.20903
H 0.20782 21.5202 8.07041
O -10.9682 2.45962 -22.145
H -10.4319 1.66686 -22.1321
H -11.7069 2.25898 -21.5703
O -24.1292 -4.52603 -7.10497
H -24.4547 -4.08135 -6.32231
H -23.1798 -4.40974 -7.06967
O 16.178 -22.3705 25.052
H 16.7626 -21.6408 25.2569
H 16.7427 -23.1431 25.0713
O 15.0607 -15.3318 10.4098
H 14.6084 -15.9699 9.85801
H 15.6661 -15.8551 10.935
O 1.17618 -14.694 -6.95942
H 0.833391 -14.2691 -7.74568
H 0.397825 -14.9947 -6.49044
O -15.1282 -17.2705 2.57966
H -15.8533 -16.737 2.90493
H -15.3399 -18.1606 2.86124
O 16.1554 -14.2295 -18.4546
H 16.1597 -14.3645 -17.507
H 16.0002 -15.1003 -18.8204
O 20.4367 -2.71429 -11.2381
H 20.8092 -3.58243 -11.3925
H 21.1218 -2.23936 -10.7677
O -8.44795 -27.202 29.8624
H -7.55556 -27.5454 29.8183
H -8.59901 -27.0453 -29.2055
O -11.2775 -6.04589 -29.7244
H -11.1861 -6.65768 -28.9939
H -11.0248 -5.1976 -29.36
O 18.8026 -11.5136 -1.73913
H 18.2751 -11.6346 -0.949609
H 18.8909 -10.5644 -1.82563
O 10.2649 17.4785 14.2997
H 10.9067 16.8632 13.9449
H 10.3676 18.2665 13.7661
O 22.5405 6.67206 -21.9439
H 23.427 6.52355 -21.6149
H 22.6366 6.68332 -22.8962
O 19.8381 -21.2762 -28.2369
H 20.5738 -21.3195 -27.626
H 20.2464 -21.2015 -29.0994
O -5.73032 21.9971 -28.6781
H -5.50316 22.6866 -29.3018
H -5.41124 22.3208 -27.8357
O -0.953833 23.5089 4.74762
H -1.59934 24.0505 5.20166
H -0.494127 23.0457 5.44785
O 19.0512 -14.1557 -25.672
H 18.4139 -14.0878 -24.961
H 19.1799 -15.0969 -25.7898
O -27.0958 22.5718 3.32813
H -27.5994 22.345 4.10998
H -27.2388 23.5114 3.21474
O -29.985 -29.4196 -16.0601
H 29.8629 29.9047 -15.3994
H 29.6865 -28.6145 -15.6599
O -3.58833 -1.03679 -2.387
H -3.40722 -1.60548 -1.63865
H -4.53484 -1.10157 -2.51412
O -10.6915 -4.18848 -23.9134
H -10.8076 -5.06554 -24.2788
H -9.86341 -3.88215 -24.283
O 4.82623 -15.9898 -11.3043
H 4.92089 -16.5141 -10.5091
H 5.34046 -15.2006 -11.134
O -12.8135 20.2779 -26.0117
H -12.3455 20.529 -25.2153
H -13.5078 20.9312 -26.0981
O 9.71845 2.36406 10.5327
H 10.0985 2.48972 9.66321
H 10.4287 1.98874 11.0531
O 17.1175 7.88319 -3.31964
H 17.1689 8.40839 -4.11823
H 16.3 8.15756 -2.90414
O -19.9235 -4.435 -14.2492
H -18.9871 -4.42341 -14.0514
H -19.9688 -4.63439 -15.1843
O -5.5612 29.6001 -14.1442
H -5.84608 -29.5219 -14.3974
H -5.4746 29.6412 -13.1918
O 15.143 -19.7433 -18.3644
H 15.919 -19.9042 -18.9011
H 14.4498 -19.5518 -18.9961
O 7.09176 7.71539 6.50526
H 7.18206 6.7632 6.54273
H 7.88602 8.01455 6.06267
O -29.1253 -16.488 -20.628
H -29.7072 -15.9543 -20.0869
H -29.1843 -17.3656 -20.2503
O -3.97944 25.765 -7.84657
H -4.2257 24.8624 -8.04844
H -3.22258 25.9382 -8.40638
O -18.9705 -5.39295 7.93869
H -18.3815 -6.14577 7.98934
H -19.5089 -5.56106 7.1653
O 16.8307 -27.0073 -17.881
H 17.0439 -27.2894 -18.7705
H 15.8762 -27.0627 -17.834
O -9.71541 -23.8916 22.631
H -10.5702 -24.1425 22.9812
H -9.35695 -24.702 22.2692
O 23.8412 -16.5773 2.08942
H 23.8265 -17.5277 1.977
H 23.1211 -16.3959 2.69347
O -28.6374 12.2095 -25.539
H -28.568 12.393 -24.6021
H -28.1005 12.8834 -25.9559
O 15.4085 -17.8793 27.1959
H 15.8284 -18.4049 27.8768
H 14.9583 -18.5181 26.6431
O 4.05761 -16.9382 -20.603
H 3.20141 -17.043 -21.0179
H 4.57063 -17.6814 -20.9201
O 18.312 1.59468 23.0361
H 18.5006 1.26733 22.1566
H 18.9729 1.18245 23.5924
O 29.5523 -11.121 -19.7455
H -29.8363 -11.8288 -19.9489
H 29.8573 -10.7739 -18.9072
O -3.40385 23.6953 -23.4445
H -3.6678 24.5405 -23.0809
H -3.37159 23.1085 -22.6889
O 2.41798 17.2721 28.035
H 2.08034 18.1054 28.3634
H 1.88773 16.608 28.4754
O -16.6925 -16.3242 21.5204
H -16.3826 -15.7426 20.8262
H -17.6324 -16.152 21.576
O 3.29248 -7.45908 29.6176
H 4.23413 -7.28771 29.6298
H 3.0589 -7.58184 -29.4623
O -8.82977 -1.2682 10.4641
H -9.52159 -0.607581 10.4295
H -8.06475 -0.83462 10.086
O -6.55673 -15.5999 -22.3677
H -7.22498 -15.1119 -21.8865
H -5.75608 -15.4772 -21.8577
O 15.491 14.609 1.35817
H 15.5397 14.7406 2.30503
H 14.9012 13.863 1.24956
O 1.65183 25.8193 21.4384
H 2.05031 26.4154 22.0725
H 2.30454 25.1304 21.3135
O 10.9914 -25.0601 2.85711
H 10.6003 -24.3955 2.29008
H 11.4743 -24.5602 3.51524
O -27.7239 -16.1173 -16.6815
H -26.9686 -16.4756 -17.1476
H -27.3871 -15.8951 -15.8135
O 12.9763 26.9365 25.3116
H 12.4055 26.2314 25.0061
H 13.7114 26.9329 24.6986
O 6.68292 0.508001 -10.8118
H 5.83595 0.101855 -10.996
H 6.77209 1.18968 -11.4779
O -17.4249 -20.9607 12.0772
H -17.4615 -20.2954 12.7645
H -17.7712 -21.7517 12.4903
O -14.5921 7.96347 -9.829
H -15.0263 8.51461 -10.4801
H -14.9071 8.29279 -8.98726
O -16.0591 -23.483 18.6998
H -16.9711 -23.238 18.8561
H -15.5984 -23.2129 19.4941
O -0.966271 14.8099 -23.6664
H -1.76674 15.325 -23.7672
H -1.2583 13.8999 -23.7188
O 14.4841 9.1426 -1.71641
H 13.6844 9.05784 -2.23562
H 14.922 9.9148 -2.07444
O -6.99764 7.21547 -20.0572
H -6.72057 8.00253 -19.5881
H -7.73008 6.87524 -19.5433
O -27.381 -21.7686 -9.712
H -26.7703 -21.1843 -10.1611
H -27.7588 -22.3035 -10.4102
O 4.63019 12.4729 -10.3647
H 4.88466 11.6562 -9.9351
H 5.23767 12.5568 -11.0997
O -2.86897 14.8371 18.4469
H -1.97679 14.6742 18.753
H -2.94057 15.7911 18.4128
O 17.4608 -29.3592 -5.22075
H 16.6458 -29.4266 -5.71812
H 17.2283 -28.8451 -4.44755
O -29.8799 9.17526 28.757
H 29.7532 8.93895 29.6089
H -28.9321 9.12891 28.8827
O 20.9075 -4.13207 -1.71208
H 20.5227 -4.59124 -0.965579
H 20.2984 -3.41638 -1.89364
O 13.0991 -24.761 16.8921
H 12.8308 -23.9452 16.4694
H 12.5163 -24.8433 17.6469
O -1.23339 -8.24134 -6.30559
H -0.316598 -8.02629 -6.13388
H -1.60258 -8.42529 -5.44182
O -13.1752 14.9425 29.5295
H -13.8086 15.6367 29.3475
H -12.7345 15.2239 -29.6687
O 27.7491 12.8778 25.943
H 28.3742 13.1577 25.2743
H 28.2923 12.5116 26.6409
O 20.3301 -27.1089 -11.9461
H 21.2189 -27.451 -12.0416
H 20.0267 -27.4594 -11.1086
O -14.6636 20.2118 -19.809
H -15.1986 19.8325 -20.5063
H -13.7627 20.0067 -20.0592
O -27.0863 -8.40005 7.75998
H -27.3099 -8.93549 6.99868
H -26.7128 -7.60034 7.38961
O -10.2291 27.1984 6.0915
H -11.0218 26.9343 6.55849
H -10.1367 26.5524 5.39121
O -7.82912 -26.225 21.9893
H -7.42033 -25.3738 22.146
H -7.90203 -26.6198 22.8583
O -22.9486 -21.7922 3.84479
H -23.0579 -21.3287 3.0145
H -22.4482 -21.1878 4.39303
O 29.5119 29.7265 -28.7403
H -29.7454 29.3191 -29.186
H 29.4813 -29.3829 -29.0899
O -4.0978 -11.4807 13.058
H -4.99842 -11.6539 12.7839
H -3.7089 -12.3486 13.1665
O -2.40017 14.2413 9.34503
H -2.62358 15.1418 9.10957
H -2.79891 13.7076 8.65774
O 18.8437 18.2828 -11.2301
H 19.3431 18.5715 -10.4662
H 19.2283 17.4378 -11.4629
O 2.62182 6.73189 4.83531
H 2.75351 7.64823 5.07867
H 2.62598 6.25952 5.66782
O -14.4938 -22.0786 -25.8642
H -13.5625 -22.241 -26.0141
H -14.7178 -22.6363 -25.1192
O -29.124 14.0292 17.2379
H -28.2519 14.4231 17.2595
H -28.9887 13.1682 16.8422
O 9.38425 11.0937 3.27272
H 8.94836 11.8692 3.62595
H 9.29682 10.4347 3.96142
O 20.8347 0.497386 14.8629
H 21.6957 0.651601 15.2518
H 20.8698 0.944508 14.0173
O -12.5857 -3.32087 -13.9193
H -12.1505 -4.15783 -13.7571
H -13.1779 -3.49609 -14.6506
O -2.28569 -28.622 -3.76495
H -2.34706 -28.9139 -2.85541
H -2.87384 -29.2054 -4.24445
O -21.5477 -23.0265 19.9162
H -21.3736 -23.9631 20.0097
H -20.6942 -22.6426 19.7154
O 21.7304 -6.40311 10.9879
H 21.3609 -5.93722 11.7379
H 21.0309 -6.99044 10.7017
O -26.1972 -4.64907 19.8427
H -27.1145 -4.62055 20.1145
H -26.0395 -3.79519 19.4399
O 20.2761 -16.6828 8.66017
H 19.3911 -16.3387 8.53907
H 20.2879 -17.0024 9.56234
O -19.8629 -27.7021 -27.4996
H -20.3531 -26.8862 -27.3981
H -19.2969 -27.5495 -28.2563
O 10.0679 -26.7923 -18.7969
H 9.37674 -27.4143 -18.5697
H 9.77257 -26.394 -19.6157
O -29.4905 28.7193 6.24477
H -28.8046 28.052 6.21924
H -29.4904 29.0972 5.36534
O 20.4183 19.2655 -20.4033
H 19.8516 19.0634 -21.1478
H 20.2434 20.1869 -20.2118
O 2.67569 28.6727 -17.5665
H 2.31357 28.7915 -16.6885
H 3.59658 28.9198 -17.4818
O -1.37398 -10.3766 -27.0513
H -1.96722 -10.9903 -26.618
H -1.55284 -10.4886 -27.9849
O -9.4913 13.8671 -18.6287
H -8.66243 14.0938 -18.2069
H -9.88376 13.213 -18.0505
O -0.285619 12.053 20.9246
H -0.365773 11.7755 20.012
H -1.08162 12.5573 21.0929
O -14.2401 12.4146 23.4311
H -14.9462 12.1024 22.8653
H -13.4818 11.8861 23.1823
O -20.2856 -11.7877 1.73366
H -19.7552 -11.0913 1.34654
H -19.7944 -12.0611 2.50843
O 7.82908 -16.2143 -15.322
H 8.0713 -15.5055 -15.9179
H 8.24061 -16.9934 -15.696
O 28.8153 -4.20414 4.83677
H 29.3534 -4.55975 4.1295
H 27.923 -4.22017 4.49074
O -27.6948 -8.16931 -26.1861
H -28.3448 -8.44382 -25.5392
H -27.8389 -8.75072 -26.9327
O 27.0873 -18.8939 -4.40635
H 26.338 -19.4093 -4.70493
H 27.8349 -19.2626 -4.87686
O 2.9056 -10.0411 -27.5593
H 3.23276 -10.9407 -27.5614
H 2.92647 -9.78026 -26.6386
O -12.0939 -19.2854 -14.5702
H -11.471 -18.764 -14.0639
H -12.5755 -18.6437 -15.0922
O 28.5644 27.9642 17.7838
H 29.378 28.3739 17.4897
H 27.9671 28.697 17.9332
O -15.0486 -13.0145 1.23625
H -14.9849 -12.5438 2.0673
H -15.9742 -13.2471 1.1626
O 21.3453 -12.9194 13.7893
H 20.9967 -12.8505 12.9005
H 20.9635 -13.7262 14.135
O 12.7431 16.2887 -10.16
H 12.9055 17.1619 -9.80293
H 13.5629 15.8153 -10.0186
O -20.0548 8.15987 28.4959
H -20.8451 7.8236 28.0732
H -19.3788 8.10277 27.8207
O 7.20039 -1.15624 -18.8822
H 7.56453 -1.96527 -18.5229
H 6.80535 -0.715905 -18.1297
O 1.6242 16.9579 16.6942
H 2.07538 16.7659 17.5162
H 0.943113 16.2881 16.6322
O -22.1457 -22.8518 -20.4351
H -22.2575 -23.7305 -20.0723
H -22.1606 -22.2736 -19.6724
O -24.8215 24.7409 3.39247
H -24.212 24.5607 4.10822
H -25.2758 25.54 3.6596
O 4.27482 -29.7072 -7.7513
H 4.7739 -29.0314 -8.20993
H 3.41304 -29.3152 -7.61044
O -1.86301 -7.61304 0.275563
H -1.27855 -7.39282 -0.449791
H -1.7435 -8.55419 0.402821
O 17.4285 25.0476 -13.9505
H 17.2959 24.4985 -13.1777
H 17.5545 25.9292 -13.5997
O -8.10788 18.2626 -13.2944
H -8.21895 18.1838 -12.3469
H -8.53729 19.0882 -13.5185
O 12.6154 7.89891 20.724
H 13.3968 7.74486 20.193
H 12.1594 8.61289 20.2784
O -0.903384 -9.49351 -20.2227
H -0.821682 -10.4318 -20.3937
H -1.74899 -9.25326 -20.6014
O -7.43721 10.6231 19.4279
H -6.62281 10.4436 18.9581
H -7.51012 9.9104 20.0627
O -17.3409 6.01691 1.59958
H -16.4995 5.78117 1.20859
H -17.9926 5.59895 1.03674
O -14.8485 -8.93688 -14.6287
H -14.5245 -8.24159 -15.2012
H -14.0853 -9.19893 -14.1138
O 3.88918 16.4488 2.33933
H 4.1699 17.3031 2.01116
H 3.66661 16.6056 3.257
O 28.874 -18.4983 1.91724
H 29.6924 -18.5182 2.41328
H 28.489 -19.3638 2.05464
O -14.3895 3.24101 4.96568
H -14.7592 2.6053 4.35294
H -14.531 4.08944 4.5457
O -26.9296 -18.7888 5.28394
H -26.3465 -19.3671 4.79229
H -27.1725 -19.2954 6.05891
O 28.5111 28.0365 -8.33703
H 28.5355 28.2876 -9.26039
H 28.2358 27.1197 -8.34479
O -1.46885 -7.29151 -18.2508
H -1.22635 -8.10053 -18.7013
H -2.40066 -7.18146 -18.4401
O -7.01275 -21.4764 -24.6856
H -7.66587 -21.9628 -25.1886
H -7.476 -21.1998 -23.8949
O -11.5784 -25.898 24.0358
H -12.0111 -26.3135 23.2898
H -11.2353 -26.628 24.5512
O 13.1126 14.4231 -28.6814
H 12.3203 14.9594 -28.6535
H 12.9667 13.8169 -29.4077
O -1.55396 26.2143 -21.3774
H -2.21 26.782 -20.973
H -1.74808 25.3416 -21.0354
O -14.4793 -26.2735 -9.05083
H -15.1994 -26.0948 -9.65559
H -14.5878 -25.6291 -8.35138
O 6.47252 -20.1391 16.156
H 5.81826 -19.6335 15.6738
H 7.13493 -20.3606 15.5015
O -2.45134 -6.31567 24.7668
H -2.99811 -5.53921 24.6468
H -1.6918 -6.00095 25.257
O -16.6394 24.8453 6.352
H -15.687 24.7792 6.28301
H -16.9632 24.011 6.01239
O -9.62766 -9.50018 -23.6609
H -10.3695 -10.0855 -23.5082
H -9.16585 -9.47435 -22.8229
O 22.6871 -9.73155 25.9419
H 23.4913 -9.53758 25.4604
H 22.8768 -10.5459 26.4078
O -2.87574 28.2444 -16.0286
H -2.48103 29.056 -16.3476
H -3.81798 28.4118 -16.0484
O 22.2031 25.0686 13.3263
H 22.6539 25.7198 12.7888
H 21.2772 25.3022 13.2601
O -29.3319 -16.5368 24.3277
H -29.6036 -16.2973 25.2138
H -28.7787 -15.8099 24.0416
O -17.1128 -4.35663 -22.9734
H -17.5423 -4.00489 -22.1936
H -17.564 -5.1835 -23.1435
O -24.422 -17.0101 25.0994
H -23.9767 -17.2042 25.9242
H -24.245 -16.0824 24.9436
O 18.8741 -15.6172 -4.97905
H 17.9769 -15.6777 -4.65102
H 19.1875 -14.7688 -4.66565
O -21.8931 -20.0271 -0.610224
H -22.5092 -19.6298 0.00523733
H -21.0605 -20.0452 -0.138305
O -19.0691 -23.252 -14.5085
H -18.1852 -23.5105 -14.2474
H -19.5201 -24.0787 -14.6798
O -4.73157 22.1884 26.6242
H -4.69282 23.1295 26.7946
H -4.83608 22.1205 25.6751
O -18.7092 -13.1969 -22.1549
H -18.6234 -12.2512 -22.0344
H -18.7672 -13.5478 -21.2662
O 10.6578 10.6328 -27.9462
H 9.7891 10.2392 -27.8643
H 10.5076 11.5715 -27.8343
O -21.1517 1.38737 10.2837
H -21.5694 0.610182 9.91251
H -20.6608 1.76715 9.55503
O -15.553 11.4821 -29.5517
H -16.3875 11.8517 -29.2633
H -15.0083 12.2441 -29.7488
O 4.31376 8.91954 5.76237
H 5.24517 8.85261 5.97269
H 3.87082 8.84341 6.6075
O -25.777 20.432 29.4945
H -26.1195 21.1425 -29.9631
H -25.977 19.6361 29.9873
O 1.83111 22.5216 1.08926
H 2.72303 22.4434 0.750727
H 1.63627 23.4574 1.03837
O 2.05974 -14.656 -9.95524
H 1.52562 -13.988 -10.385
H 2.85212 -14.1922 -9.68456
O 4.55516 16.4841 13.4365
H 3.79111 17.057 13.3712
H 4.22295 15.6871 13.8496
O 11.1995 -18.2618 -25.671
H 11.643 -18.7502 -26.3645
H 11.7624 -17.5038 -25.5136
O 16.3398 -12.3078 20.4349
H 16.4804 -12.0436 21.3441
H 15.6348 -12.9537 20.4789
O 10.1474 12.5941 -20.9354
H 10.0167 12.4992 -19.9919
H 9.27021 12.752 -21.2845
O -6.18307 4.48098 -22.219
H -6.97652 4.49182 -21.6837
H -6.35467 5.11498 -22.9153
O -17.5367 8.53931 26.7166
H -17.0711 9.2849 26.3377
H -17.2474 7.78766 26.1994
O 14.6193 -13.3149 1.70126
H 14.1925 -13.457 0.856379
H 14.0685 -12.6684 2.1427
O 23.5098 2.66162 12.9323
H 23.3738 1.94653 13.5539
H 23.0398 2.38768 12.1447
O -3.99454 -5.65538 -0.255189
H -3.13624 -5.78507 0.148198
H -4.38348 -6.5297 -0.278208
O 25.3715 -3.58561 -28.9082
H 25.1979 -3.76255 -29.8327
H 25.0223 -2.70636 -28.7624
O 17.3322 6.18671 24.7249
H 16.7277 5.5765 24.3026
H 16.9349 7.04761 24.5937
O -29.5348 -11.5575 -3.41143
H -28.8225 -11.7689 -4.01483
H 29.6813 -11.9105 -3.83243
O -9.27135 1.86546 4.42703
H -10.0996 2.00058 4.88742
H -9.22779 2.5836 3.79567
O 2.78786 26.5536 -8.10724
H 2.75555 25.9701 -8.8653
H 3.69692 26.5114 -7.81048
O -16.7724 -22.2732 -4.29049
H -16.0114 -22.1413 -3.72506
H -17.5207 -22.2562 -3.69372
O -21.774 -7.9703 -6.27741
H -22.5253 -8.49986 -6.01047
H -21.0706 -8.23584 -5.68496
O -8.67557 -15.1835 -3.72286
H -9.3712 -14.6431 -3.34827
H -8.29228 -14.6387 -4.41025
O -7.82332 10.7875 12.1451
H -7.43882 9.91093 12.1541
H -8.58941 10.7193 12.7149
O -0.366006 26.8544 -2.92861
H -1.18139 26.6594 -3.39054
H -0.114335 26.0237 -2.525
O 23.1968 -20.5612 8.82037
H 22.2601 -20.3642 8.82054
H 23.2581 -21.4351 8.4347
O -5.96489 0.37032 11.9324
H -5.57635 -0.361117 11.4525
H -6.83191 0.0558096 12.1885
O 7.30646 -19.7796 0.691352
H 7.59639 -20.0961 -0.164223
H 7.68623 -18.904 0.764647
O 17.8177 -7.03124 3.10241
H 16.8704 -7.15173 3.03681
H 18.1555 -7.89968 3.32134
O -29.1927 -1.58004 -18.9159
H -28.8302 -0.754844 -19.2382
H -28.5073 -2.22606 -19.0862
O -2.36506 20.9677 27.5167
H -3.19229 21.3341 27.2042
H -2.52271 20.7725 28.4404
O 11.3276 -1.17567 -16.4033
H 10.9359 -2.04611 -16.3313
H 11.6441 -0.981191 -15.5212
O 19.7862 -2.72727 17.7504
H 19.6846 -1.7798 17.6599
H 19.759 -2.88244 18.6945
O 29.6247 -6.68589 15.7034
H -29.7954 -6.26806 16.3401
H -29.8378 -6.78447 14.9176
O 12.944 22.6231 18.5845
H 13.8873 22.4606 18.5848
H 12.6561 22.3639 17.7092
O 17.8362 -26.8954 -9.66096
H 17.2022 -26.6868 -10.3471
H 18.3117 -26.0773 -9.51692
O 13.3861 -17.231 -2.63528
H 12.7125 -16.9133 -3.23666
H 12.9815 -17.1732 -1.7697
O 3.78717 11.2125 29.2474
H 3.70359 11.5356 -29.8555
H 3.00031 10.6856 29.1078
O 17.2428 2.15868 -1.56802
H 18.0014 2.63751 -1.23413
H 16.5243 2.78984 -1.52864
O 21.1436 29.1002 24.7215
H 21.9199 29.2581 25.2588
H 21.4243 29.3026 23.829
O -9.5158 21.5501 -8.76077
H -8.92521 20.8357 -8.52195
H -10.3925 21.1751 -8.67644
O 24.746 29.9742 -18.2419
H 23.9016 -29.9262 -18.6817
H 25.3818 -29.6616 -18.8578
O 2.29104 -29.8215 1.85181
H 2.18165 29.2809 2.16607
H 3.10788 -29.8398 1.35314
O 12.9172 5.92461 6.83428
H 13.1843 6.54491 6.15594
H 13.6538 5.90529 7.44525
O -15.87 28.4335 -26.6457
H -16.1155 28.3342 -27.5655
H -16.6514 28.7936 -26.2263
O -0.639054 1.73306 15.0995
H -0.0857049 1.02268 15.4241
H -0.208677 2.53146 15.4054
O -16.2828 2.04334 8.40478
H -16.8637 2.67724 8.82551
H -16.8615 1.51654 7.85357
O 16.452 4.4017 9.95161
H 16.7874 4.81027 10.7496
H 16.3419 3.47926 10.1823
O -7.1084 8.63365 2.62696
H -7.79972 9.26745 2.81827
H -7.03776 8.10778 3.42364
O 5.60579 11.3015 25.0767
H 4.90223 11.6417 24.524
H 5.93455 10.5372 24.6033
O 24.0806 -14.6149 -25.1819
H 24.5399 -15.4517 -25.1115
H 24.7535 -13.9946 -25.4623
O -16.1477 4.79321 16.2728
H -15.5718 4.61172 15.5301
H -16.9965 4.98913 15.876
O 20.483 -24.1418 -4.0586
H 20.3453 -23.2716 -4.43278
H 21.1583 -24.5363 -4.61051
O -1.48141 -1.21737 7.35689
H -1.23763 -1.25107 6.43186
H -2.43619 -1.14965 7.35114
O 0.767486 24.8283 -7.30775
H 1.36902 25.514 -7.01759
H 0.066992 24.8317 -6.65543
O -24.2372 4.52507 -29.9571
H -23.9262 4.10445 29.2413
H -23.9645 5.43846 29.9561
O -7.69193 0.445461 -27.7609
H -8.62544 0.571849 -27.9307
H -7.44812 1.18192 -27.2002
O -8.46096 -23.8288 29.5825
H -7.68259 -24.3727 29.4619
H -8.76008 -24.0312 -29.531
O 0.353814 19.8723 -14.1768
H -0.520035 19.5441 -14.3887
H 0.281882 20.8225 -14.2678
O -6.62355 25.7254 19.4291
H -7.17143 26.4129 19.8076
H -5.85203 26.1869 19.1005
O -13.7056 -12.0743 29.3808
H -12.997 -12.1388 28.7406
H -13.9486 -11.1484 29.3774
O -11.6995 7.68397 -14.9002
H -11.8286 7.40592 -15.807
H -12.3798 8.34077 -14.7515
O -14.3499 -26.5427 -0.0501415
H -14.9618 -27.176 -0.425309
H -14.7597 -26.2706 0.770993
O -13.326 -28.8224 -8.18915
H -13.7882 -27.9849 -8.15331
H -12.4294 -28.5914 -8.43199
O 10.0198 6.71703 14.8503
H 10.5223 6.84678 15.6546
H 9.83379 5.77826 14.8324
O -20.666 18.0342 -0.145298
H -21.415 18.018 -0.741167
H -20.9958 18.4657 0.642928
O -25.3976 11.939 3.45309
H -24.8322 12.0913 4.21034
H -26.2686 12.2065 3.74622
O -19.0105 7.44435 -13.4764
H -19.7975 7.92021 -13.2111
H -19.3253 6.7868 -14.0967
O 10.8314 -14.1305 -11.3833
H 10.3661 -14.8023 -10.8848
H 10.6409 -13.314 -10.9215
O -10.332 -5.90766 -21.8898
H -10.5276 -5.37563 -22.6611
H -9.61115 -5.44891 -21.4583
O 6.18205 10.0353 20.4626
H 6.00261 9.87464 19.5362
H 6.30338 9.16331 20.8382
O 29.9765 22.3827 4.0385
H 29.5684 22.9755 3.40738
H 29.2971 22.2256 4.69425
O 22.1496 6.96606 3.36043
H 22.2155 6.37452 4.11007
H 22.6728 6.54692 2.67722
O -22.6659 0.27192 -26.9028
H -22.971 1.10791 -27.2553
H -21.8884 0.496421 -26.3917
O 1.9995 29.8589 6.01232
H 2.31537 -29.3738 5.53524
H 1.67127 29.2714 5.3316
O 23.6467 27.7787 14.9212
H 23.8647 27.026 14.3715
H 23.3541 28.4497 14.3044
O 3.46399 10.0823 21.0551
H 2.96916 10.4988 20.3494
H 4.37917 10.2786 20.8546
O -12.704 -3.22248 -17.4743
H -13.4613 -3.69301 -17.8225
H -12.2707 -2.85984 -18.247
O -12.8134 24.5562 -13.1932
H -13.77 24.5697 -13.2235
H -12.594 24.9646 -12.3558
O 10.6047 21.2234 -24.8177
H 11.5363 21.3107 -24.6159
H 10.5028 20.3119 -25.0915
O -0.10184 9.28436 -4.15519
H -0.323728 8.38064 -3.9309
H -0.287188 9.78174 -3.35864
O 5.78426 1.20434 28.9808
H 5.97153 2.09739 29.27
H 5.31396 0.808196 29.7144
O -23.327 -13.8866 2.25834
H -23.7254 -13.2887 1.62593
H -22.3873 -13.8273 2.08568
O -17.7609 12.1327 -2.2447
H -17.8382 11.5419 -2.99386
H -18.0393 12.9845 -2.58109
O -20.1408 27.1904 -2.68554
H -20.9187 27.2804 -3.23604
H -20.3339 26.4447 -2.11735
O 1.23357 16.7456 -27.9333
H 1.78698 16.4343 -28.6496
H 0.386728 16.3258 -28.0844
O 15.5047 17.2607 -7.76856
H 15.4751 16.386 -7.38094
H 15.4407 17.8563 -7.02199
O -29.7268 -15.8132 16.7193
H -29.8416 -16.7303 16.9682
H -28.8449 -15.7736 16.3492
O -28.0164 -16.5695 -1.39532
H -28.9734 -16.5844 -1.38271
H -27.7582 -17.3965 -0.988339
O -1.8186 24.4955 -12.3713
H -1.63568 24.6783 -13.2929
H -1.85923 25.3584 -11.9589
O -24.8246 -12.2467 -25.0817
H -25.0884 -12.8782 -25.7509
H -25.6345 -12.038 -24.6161
O 17.2088 -22.7176 -1.57353
H 17.6656 -22.3061 -2.30716
H 16.9278 -23.5677 -1.91216
O -6.23889 29.0689 28.5565
H -5.73721 28.3394 28.9203
H -6.92323 29.2364 29.2045
O -23.02 -24.372 -8.98842
H -22.7136 -23.5288 -9.32211
H -23.6307 -24.1449 -8.28715
O -29.9181 -26.7091 11.7934
H 29.3671 -26.1313 11.5261
H -29.682 -26.4085 12.6709
O -24.0752 5.89499 7.14098
H -23.4044 6.17088 6.5164
H -24.3086 5.00819 6.86643
O -3.78224 -19.1578 24.5766
H -4.20099 -18.6106 23.9122
H -4.22311 -20.0042 24.5031
O -2.72263 -19.6908 -17.1091
H -3.08524 -19.7108 -17.9947
H -1.91677 -19.1809 -17.1912
O -1.27961 -22.5384 12.2769
H -1.5972 -21.7764 12.7614
H -0.338623 -22.3891 12.1848
O 4.5331 22.2336 -6.05208
H 4.1411 22.3853 -6.91205
H 4.02942 21.5079 -5.68336
O 9.34858 16.3149 -9.60961
H 10.1584 16.1474 -10.0916
H 8.7139 15.7064 -9.98784
O 4.27725 -27.3123 -5.93667
H 4.75508 -28.105 -6.18072
H 4.56991 -27.1204 -5.04574
O -8.87283 -10.3564 -11.0983
H -8.90343 -11.0865 -10.4801
H -8.80409 -10.7722 -11.9577
O 9.77071 9.57817 9.00027
H 8.88142 9.6769 9.34035
H 10.3155 9.47203 9.78014
O -16.2944 -23.4238 24.993
H -15.5423 -23.223 25.55
H -16.1253 -22.947 24.1804
O 5.00726 0.34707 2.97656
H 4.3707 0.312148 3.69057
H 5.32499 -0.552088 2.89412
O 18.7593 29.3046 22.4263
H 18.6446 29.9613 23.1132
H 19.3011 28.6268 22.8303
O 28.9833 3.03695 -7.73137
H 28.4429 2.55399 -8.35666
H 28.4029 3.71549 -7.38649
O -15.1411 23.0054 -22.3255
H -15.8387 22.8532 -21.688
H -14.6426 22.1884 -22.3355
O 28.37 -16.3966 -3.06175
H 28.1686 -16.1641 -3.96819
H 28.7643 -17.2669 -3.11915
O 19.9429 23.4668 -17.6317
H 20.1015 23.6077 -16.6983
H 19.7798 22.5267 -17.7082
O 29.2461 -23.7485 -3.56712
H 29.7471 -24.4149 -4.03731
H 28.5157 -23.5415 -4.15016
O 26.7437 -13.0392 -4.67033
H 27.4075 -13.6634 -4.96338
H 26.5051 -12.5541 -5.46026
O 16.45 8.45187 6.47339
H 16.5377 7.5351 6.21246
H 16.6976 8.94816 5.69323
O 18.6919 18.6595 -22.3075
H 18.8844 18.2303 -23.1412
H 18.4132 17.9485 -21.7304
O -10.3993 -16.7884 8.32653
H -10.4399 -16.871 7.37377
H -10.5396 -15.8562 8.49273
O -4.58111 6.70009 5.31257
H -4.579 6.52486 4.37155
H -5.4434 7.07851 5.48428
O -28.2986 12.4681 4.66325
H -28.9155 13.1992 4.62798
H -28.7083 11.8368 5.25474
O -7.45888 16.0627 22.0422
H -8.29951 16.3333 21.6729
H -6.83522 16.1715 21.3242
O -4.18796 5.78065 -3.37657
H -4.54156 6.38326 -4.03084
H -4.70628 4.98265 -3.48034
O -27.4096 27.3046 12.8628
H -26.7219 26.9797 13.4439
H -27.1471 27.0084 11.9913
O 25.0256 -11.8791 -2.37114
H 25.6742 -12.0335 -1.68428
H 25.3128 -12.4288 -3.10028
O 6.12924 29.2873 10.6988
H 6.29153 29.9784 11.3408
H 6.21399 28.4735 11.1956
O -1.05194 -13.6924 26.9044
H -1.16161 -14.5132 27.3844
H -0.226645 -13.7994 26.4315
O 8.88955 -4.97888 -20.4409
H 8.19904 -4.82623 -21.086
H 9.07365 -5.91611 -20.5037
O -3.90684 -29.3202 -29.5963
H -3.34911 -29.6056 -28.8727
H -3.57465 -29.7961 29.6425
O -29.139 -16.2835 10.7871
H -29.7755 -15.6092 10.5495
H -28.3517 -15.7958 11.0291
O 21.3669 -17.9741 16.8145
H 22.2665 -17.8558 16.5094
H 21.1617 -17.1617 17.2773
O -10.6153 23.6726 -1.44011
H -10.6171 24.1127 -0.590089
H -10.1136 24.2548 -2.01072
O 7.87396 -19.4768 11.0071
H 7.74459 -19.4817 10.0587
H 7.98464 -20.3989 11.239
O -28.304 6.92475 -12.2182
H -29.1437 6.98815 -12.6732
H -27.9822 7.8255 -12.1817
O -16.6485 -26.3287 1.30272
H -16.4337 -26.0062 2.17797
H -17.2028 -27.0934 1.45811
O -22.8577 16.1676 -1.71764
H -22.909 16.9582 -2.25483
H -23.2688 15.4877 -2.25139
O -5.52203 -20.7592 -15.9064
H -5.83483 -21.0594 -16.7597
H -4.57674 -20.6592 -16.0188
O 6.22649 -25.3205 -8.36551
H 7.08963 -25.0795 -8.70186
H 6.34393 -25.3703 -7.41685
O -1.42287 -25.1185 -9.59657
H -1.48013 -24.6837 -8.74576
H -0.499624 -25.3559 -9.68312
O -24.1193 -25.9491 -18.3953
H -24.339 -26.1654 -19.3014
H -24.964 -25.9068 -17.947
O 24.2553 17.5227 -18.0648
H 24.4226 16.763 -17.507
H 24.6526 17.2953 -18.9054
O 11.9839 -18.9077 27.6994
H 11.9602 -18.0433 28.1099
H 12.1695 -18.7304 26.7772
O 23.2306 -18.8903 5.86116
H 23.7407 -19.6897 5.99101
H 23.7005 -18.222 6.35994
O 1.40261 17.7547 -22.3547
H 1.37021 18.5572 -21.834
H 0.609919 17.7841 -22.8905
O 3.43464 -12.5354 -27.6836
H 3.38382 -12.5987 -28.6373
H 2.52209 -12.5243 -27.3948
O 27.5302 23.2267 -0.341182
H 27.4579 23.3852 0.600029
H 26.873 23.802 -0.732649
O 3.92236 -22.3 29.0558
H 3.46639 -23.0072 29.5121
H 3.61376 -21.5008 29.4826
O 15.6162 18.4484 -26.2389
H 16.4602 18.1496 -25.9004
H 15.706 19.3993 -26.3023
O -18.294 -19.3997 6.4841
H -18.382 -20.3003 6.172
H -18.6148 -19.4257 7.38557
O 16.6118 -25.6832 29.8069
H 16.1844 -25.6431 28.9514
H 16.2219 -24.964 -29.6961
O 8.09385 -27.3015 -6.05164
H 8.5743 -28.0323 -5.66265
H 8.62497 -27.038 -6.80312
O 22.5167 21.6916 3.94715
H 23.2076 21.4811 4.57537
H 22.8386 21.3498 3.11301
O -10.4739 24.9828 12.6776
H -9.95011 25.2846 13.4197
H -10.5094 25.7353 12.0871
O 23.8834 -22.9144 -5.9609
H 24.8347 -22.8616 -6.0537
H 23.6881 -23.8496 -6.0202
O -9.63684 7.49706 9.91245
H -10.2682 7.72062 10.5963
H -10.0197 7.84783 9.10834
O -25.6276 -26.6361 10.3022
H -25.4097 -27.5491 10.1148
H -24.819 -26.1553 10.1256
O 1.89517 16.2173 8.35919
H 2.16757 15.3567 8.67766
H 2.01192 16.7991 9.11025
O 26.3045 -20.6909 16.7101
H 25.3489 -20.7464 16.7156
H 26.5018 -20.0118 16.0651
O -22.4395 7.82143 19.4521
H -22.3128 7.58198 18.534
H -21.5791 7.69859 19.8531
O -22.5054 4.84885 -21.3323
H -22.0626 4.55232 -22.1274
H -22.3571 5.79431 -21.3134
O 9.64553 -19.9894 -15.835
H 9.8584 -20.0359 -14.903
H 9.64859 -20.9008 -16.1276
O 7.78512 9.52647 -6.29233
H 7.1821 9.0257 -5.74294
H 8.18344 8.87379 -6.86817
O -25.0752 -28.4687 0.867917
H -24.158 -28.3012 0.65116
H -25.0453 -29.1898 1.49675
O 11.7304 -25.2789 -16.746
H 11.4518 -26.1764 -16.9277
H 11.8749 -24.8929 -17.6099
O 8.92206 28.4409 9.8948
H 9.43392 29.2445 9.80234
H 8.03493 28.6904 9.63592
O 24.6737 -25.5502 16.6139
H 25.1426 -25.7039 15.7937
H 25.3637 -25.4107 17.2624
O 13.5331 -15.036 26.7958
H 14.392 -15.2224 27.1748
H 13.4583 -15.6439 26.0602
O -25.306 -22.6793 8.83582
H -24.6218 -22.4115 9.44929
H -24.8302 -22.9704 8.05788
O -26.0482 -29.1605 -24.8166
H -25.4509 -28.4557 -25.067
H -26.9126 -28.8494 -25.0857
O 9.69712 -11.7936 -10.8878
H 9.1009 -11.4391 -10.2281
H 10.0606 -11.022 -11.3221
O -10.4285 29.2469 15.1097
H -10.3083 29.851 15.8424
H -11.3672 29.2779 14.9246
O -18.0434 -22.1734 6.26602
H -18.1349 -22.4309 5.34865
H -17.1777 -22.4934 6.51986
O 29.3579 -15.1629 2.6849
H 29.9658 -14.5594 2.25774
H 29.1201 -15.7884 2.0005
O -14.4787 10.7177 -7.2318
H -15.4073 10.9149 -7.35411
H -14.4659 9.82153 -6.89576
O 17.6256 -23.9766 1.5913
H 18.459 -24.4365 1.69283
H 17.5863 -23.3828 2.34104
O 0.236688 -22.223 7.21763
H -0.624981 -22.2714 7.63165
H 0.765428 -21.7042 7.82393
O 9.59476 -23.1676 -29.2252
H 9.57287 -22.2109 -29.2478
H 8.91586 -23.4379 -29.8435
O -3.69895 29.1008 -22.5242
H -4.06609 29.6803 -23.1917
H -3.65558 29.6407 -21.7351
O 28.681 16.1965 -19.9071
H 28.0393 16.2319 -19.1978
H 29.4309 15.7367 -19.5296
O -4.55746 28.4309 3.4908
H -3.9679 27.9126 2.94302
H -4.42923 28.086 4.37446
O 18.0465 -0.845738 -19.7526
H 18.1112 -0.59667 -18.8306
H 18.0633 -1.80276 -19.7444
O -10.789 -24.6146 -11.2114
H -11.1036 -23.9201 -11.7901
H -11.0974 -24.3603 -10.3417
O -0.283414 7.23895 -0.884467
H 0.403352 6.81152 -0.372712
H -0.169773 8.1725 -0.706136
O 24.083 -7.67944 -1.04608
H 23.6899 -6.80782 -1.09059
H 23.8299 -8.09911 -1.86831
O 18.5949 -10.8796 13.1493
H 17.9118 -10.2227 13.0144
H 18.2427 -11.4563 13.8272
O -15.4575 -28.8107 -29.0857
H -15.86 -28.0221 -28.7219
H -14.6636 -28.9365 -28.566
O 2.77164 -1.26258 4.6758
H 2.19373 -1.78067 4.1156
H 2.37364 -1.31483 5.54476
O 28.6005 19.7154 2.59321
H 29.2336 20.1655 3.15256
H 29.0982 19.0024 2.19305
O -23.1116 3.75206 9.29809
H -23.9953 3.98202 9.5853
H -22.7642 3.20667 10.0038
O 12.9962 -3.35713 -20.4545
H 13.6283 -3.80056 -19.8888
H 12.43 -4.05813 -20.7774
O 5.22559 14.2951 3.99415
H 5.3238 14.9548 3.30754
H 4.64541 14.7026 4.63724
O -11.1734 -0.28785 -25.3027
H -11.6351 0.497678 -25.0094
H -11.409 -0.373898 -26.2264
O -23.7381 21.2142 -6.16172
H -23.4927 20.7065 -5.3883
H -23.0751 20.9916 -6.81526
O -25.0455 -29.2398 24.0474
H -25.5479 -28.9916 24.8234
H -24.619 29.9384 24.2902
O 16.347 2.62252 -13.8866
H 15.8869 2.45692 -14.7095
H 15.6505 2.78992 -13.2517
O 7.12018 -12.1491 -4.29256
H 7.13635 -13.0907 -4.46373
H 6.19014 -11.9339 -4.22232
O 23.9909 -10.8343 11.0397
H 24.38 -11.4765 11.6334
H 24.7375 -10.4462 10.5834
O -19.0838 -12.7348 4.45341
H -19.8577 -13.2929 4.37751
H -18.3445 -13.3386 4.38219
O 6.37619 4.47832 -27.0174
H 6.77868 4.85774 -27.7986
H 6.5712 5.10345 -26.3193
O 22.6303 5.16943 -17.4384
H 22.629 4.31781 -17.8753
H 22.7965 4.96653 -16.5178
O -14.8478 -9.46885 15.6557
H -15.7952 -9.33903 15.6123
H -14.5309 -9.21482 14.7889
O -4.13098 19.1843 25.3556
H -3.81177 20.0867 25.3578
H -4.68474 19.1276 24.5769
O 3.42255 -1.25366 21.0642
H 3.43074 -1.76253 21.8749
H 2.53661 -0.894578 21.0152
O 5.7025 -22.1414 9.99367
H 5.27492 -21.2874 9.92948
H 5.40292 -22.4975 10.8301
O -5.36243 -23.8534 -27.7195
H -5.36616 -22.9432 -28.0158
H -6.27434 -24.1343 -27.7955
O 18.5327 -20.6745 16.6586
H 17.8636 -21.2285 16.2564
H 18.8432 -21.1802 17.4097
O 17.4727 -21.3721 8.82983
H 17.9591 -21.1573 8.03388
H 18.1467 -21.6146 9.4648
O 20.7251 6.11744 17.1524
H 20.1781 5.76621 16.4499
H 20.2576 5.89138 17.9565
O -18.3753 -7.7266 -21.3185
H -18.8181 -7.63998 -22.1627
H -17.4583 -7.88348 -21.5435
O -19.4444 6.7808 5.86031
H -19.4341 6.04805 6.47611
H -18.5223 7.01038 5.74508
O 21.2294 23.1509 -28.3914
H 21.7865 23.4174 -29.1228
H 21.6108 22.3275 -28.0868
O -0.603708 -5.55764 1.65952
H -0.611568 -6.12578 0.889197
H 0.0272204 -5.96589 2.25238
O 7.3703 -4.78029 -18.0635
H 7.35463 -5.11512 -17.1669
H 8.25087 -4.98229 -18.3797
O 25.6392 1.99812 -17.4096
H 26.0402 1.15544 -17.1967
H 26.3779 2.56876 -17.6215
O 26.9738 25.4763 -13.705
H 27.8466 25.8002 -13.4826
H 26.9226 24.6171 -13.2861
O -18.8473 -21.091 29.3545
H -18.2841 -21.8471 29.1888
H -19.6047 -21.2266 28.785
O -16.6832 2.21419 1.26385
H -17.4541 1.73997 0.95233
H -16.0861 2.21923 0.515797
O 27.392 29.9693 11.3694
H 27.518 -29.5787 12.2037
H 27.6695 -29.3964 10.7085
O 25.4229 -25.9031 21.0874
H 26.2473 -26.1991 21.4733
H 25.4591 -24.9484 21.1472
O -24.0499 -28.9874 -5.35093
H -23.9012 -28.7637 -6.26967
H -23.2854 -28.639 -4.89232
O -17.2154 -17.4504 18.8139
H -17.3871 -18.095 19.5004
H -17.4858 -16.6153 19.1959
O 3.39707 11.2204 12.3946
H 3.05474 10.3713 12.6738
H 4.29255 11.2409 12.7321
O 21.3349 -5.56288 -11.2832
H 20.428 -5.66593 -10.9948
H 21.8515 -5.63498 -10.4806
O 22.4065 12.1783 -9.76719
H 22.2773 13.1256 -9.81289
H 21.6894 11.8645 -9.21616
O -4.99674 13.3055 -11.0689
H -4.07024 13.1116 -10.9266
H -5.42924 12.4525 -11.0294
O 1.92884 10.2338 -25.2073
H 2.7191 10.6196 -25.5854
H 1.23729 10.8673 -25.3989
O 7.66871 9.30812 10.9928
H 8.08321 8.93029 11.7685
H 6.92398 8.73371 10.8148
O 16.3783 8.83878 23.0986
H 16.2623 9.59148 22.5188
H 15.4877 8.55078 23.299
O -1.20017 15.7138 6.75832
H -0.857981 16.6076 6.7386
H -2.06696 15.7798 6.35763
O -23.9865 -2.3445 -14.2244
H -24.1307 -1.49144 -14.6339
H -23.9532 -2.9598 -14.9569
O 15.3464 9.30243 12.0011
H 15.2212 8.92161 11.1319
H 14.5566 9.82185 12.1516
O 29.9054 -10.7271 -11.6495
H -29.3358 -11.3044 -11.734
H -29.9538 -10.2651 -10.8231
O -23.0707 -25.1725 9.76774
H -23.0791 -25.2626 10.7207
H -22.524 -25.8967 9.46298
O -0.258456 1.2488 -18.5111
H 0.489085 1.5119 -17.9743
H -1.00493 1.27528 -17.9125
O -8.15419 -26.5794 17.6352
H -7.38865 -26.281 17.1442
H -7.80737 -27.224 18.252
O -4.7004 -15.4003 15.8559
H -5.44029 -14.8548 15.5892
H -4.88517 -16.2585 15.4743
O 0.113909 -26.9675 -17.3649
H -0.200772 -26.1144 -17.6641
H 0.920543 -27.1126 -17.8594
O 10.3898 -5.41431 -6.51712
H 10.3085 -5.62472 -5.58687
H 10.8324 -6.17325 -6.89704
O 1.47175 -17.5329 28.2506
H 1.37109 -16.7028 28.7166
H 2.15076 -18.0004 28.7371
O 3.71092 14.9232 -12.1095
H 3.1332 15.5762 -12.5045
H 4.09316 14.459 -12.8542
O 8.05932 -24.1643 10.3837
H 8.34621 -23.9812 11.2784
H 7.77917 -23.3148 10.0429
O 17.7735 -25.2911 4.70788
H 18.4272 -24.6756 5.03965
H 16.9429 -24.8209 4.7798
O 6.07043 -5.94726 -24.793
H 6.32745 -5.20315 -24.2485
H 6.78347 -6.57752 -24.6902
O -3.35739 -18.6582 -4.77619
H -3.14565 -19.4171 -5.31973
H -2.87447 -17.9347 -5.17564
O 24.1077 27.1892 -11.4735
H 24.1049 26.283 -11.782
H 23.9171 27.1247 -10.5377
O -10.4759 -17.4246 24.2929
H -10.7352 -16.6901 24.8491
H -11.2625 -17.9662 24.2284
O -23.4632 -29.0568 -11.8551
H -23.8255 -28.1828 -12.0002
H -22.7674 -29.1395 -12.5073
O -27.0851 9.52434 -12.072
H -27.9565 9.84201 -12.3088
H -26.8022 10.1044 -11.3651
O -25.9561 6.99338 27.3953
H -25.0608 6.78799 27.126
H -25.8824 7.82947 27.8555
O 13.7063 20.1039 24.6829
H 12.8713 20.1538 25.1483
H 14.2528 19.54 25.2303
O -19.1701 -7.03071 -3.82422
H -18.5576 -6.92371 -3.09653
H -18.9086 -6.36302 -4.45826
O -21.4608 28.6816 -24.7482
H -21.7253 29.4919 -24.3126
H -21.6817 27.9904 -24.124
O 12.755 23.0395 -15.19
H 13.2081 23.5193 -15.8834
H 12.9728 23.5142 -14.3879
O -11.0058 5.96922 -21.4305
H -11.1438 5.07632 -21.1144
H -10.7109 6.45386 -20.6595
O -1.73958 -13.0997 -16.274
H -2.19579 -13.5428 -16.9894
H -1.61044 -12.2052 -16.5892
O -14.842 -18.5318 -20.4264
H -14.8516 -18.8499 -21.3291
H -15.007 -17.5919 -20.5014
O 4.96398 29.5422 20.5739
H 4.35285 29.8678 21.2348
H 4.99489 28.5968 20.7206
O -3.65956 -9.94867 18.2194
H -4.19919 -10.0126 19.0074
H -2.87195 -10.4517 18.4264
O 11.6933 -16.8579 -8.52648
H 11.7934 -17.539 -7.86138
H 11.7735 -17.3224 -9.35958
O 24.6403 17.8521 4.76886
H 24.626 17.7625 3.81596
H 25.5462 18.083 4.9746
O 6.6228 9.14527 -20.6695
H 6.99421 8.32736 -21.0001
H 7.3089 9.79661 -20.8152
O -8.54347 0.169546 6.50889
H -8.82075 0.811016 5.85478
H -7.58772 0.170822 6.45619
O 15.6039 -6.26056 -23.2009
H 15.2507 -6.75032 -23.9436
H 15.3295 -5.35692 -23.357
O -23.1593 -9.76602 6.47249
H -23.3055 -8.84863 6.24176
H -22.9622 -10.1945 5.63955
O 20.6644 7.03467 -8.80519
H 20.0584 6.3595 -8.4999
H 21.3479 6.55152 -9.26954
O -24.3386 26.1206 26.9062
H -25.0916 26.5754 27.2835
H -24.6621 25.2408 26.7124
O -29.1961 -20.9527 8.46549
H -29.4614 -21.4733 9.22357
H -29.991 -20.874 7.93818
O -0.837971 -15.2009 -28.7833
H -0.790256 -14.7801 -27.9248
H -0.359922 -14.6113 -29.3664
O -10.3675 -18.6274 -8.50637
H -10.9828 -18.6641 -7.77408
H -10.9015 -18.363 -9.2555
O -28.64 27.8413 -5.08406
H -27.7233 27.5666 -5.10589
H -29.0141 27.4934 -5.89352
O 3.47896 0.228599 27.2195
H 4.10215 0.845982 27.6025
H 3.57146 -0.564423 27.7475
O -20.1805 20.0367 23.3937
H -21.113 19.9784 23.602
H -19.8402 20.6959 23.9987
O 7.01456 20.568 -20.8668
H 6.65101 19.7571 -20.5113
H 7.74224 20.7812 -20.2827
O -28.1437 -7.99108 3.63975
H -28.8772 -7.39804 3.80286
H -27.591 -7.52278 3.0141
O -26.4028 23.9952 26.9564
H -26.9958 23.7491 26.2465
H -25.5611 23.6119 26.7097
O 1.95067 13.5608 -4.27508
H 1.08312 13.6697 -4.6646
H 2.55658 13.8706 -4.94822
O -14.0031 -29.7551 -17.8449
H -13.541 29.6813 -18.4655
H -14.3538 29.6425 -17.1889
O 6.36428 -0.371485 19.343
H 5.62363 0.0219589 19.8044
H 7.13458 0.0567387 19.7165
O 14.1275 12.9169 17.4963
H 13.7859 12.912 18.3905
H 15.0546 13.1335 17.5948
O -12.4297 5.37391 3.69634
H -12.9458 5.21564 2.90588
H -13.0807 5.52549 4.38158
O 20.8786 -10.6885 -27.8838
H 20.9856 -11.0293 -26.9957
H 21.7384 -10.801 -28.2892
O -3.86519 -18.7532 12.4883
H -3.60641 -19.3781 13.1656
H -3.03855 -18.4019 12.1574
O -18.6132 -25.6509 19.7822
H -18.8934 -26.1284 19.0014
H -17.7191 -25.9537 19.9407
O -9.42411 29.9003 22.9912
H -9.52345 -29.5182 23.745
H -8.83575 29.2098 23.2966
O -22.0591 -22.5896 0.646436
H -22.7659 -23.1501 0.966468
H -22.4857 -21.9929 0.0314395
O 3.26054 -0.404891 -18.1797
H 3.48961 0.19258 -18.8916
H 4.08454 -0.83667 -17.9543
O 22.8274 -5.79489 -9.21168
H 22.7504 -6.65423 -8.79714
H 23.2266 -5.24008 -8.54155
O 26.7116 -11.9565 -0.27016
H 26.7708 -11.2182 0.336128
H 27.3191 -11.7363 -0.976396
O -15.6282 8.20335 23.543
H -16.4743 8.58186 23.3038
H -15.3715 8.67205 24.3371
O -6.98385 26.6069 4.84898
H -6.1367 26.2719 4.55521
H -6.83137 27.5384 5.00828
O -17.7008 -27.034 -10.7487
H -17.8756 -27.8032 -11.291
H -18.5416 -26.5792 -10.6993
O -5.08656 29.0332 -11.4436
H -4.96032 28.3339 -12.085
H -4.5088 28.7996 -10.7171
O -24.9417 8.53468 10.8359
H -25.6737 8.80491 10.2815
H -24.9671 9.13854 11.5782
O -13.3021 -24.5571 -20.2034
H -13.6319 -25.2141 -19.5903
H -14.0003 -23.9043 -20.2541
O -19.3402 -7.55614 4.90714
H -19.9134 -6.89538 5.29587
H -19.9249 -8.10109 4.38044
O -27.4158 -13.8389 -17.8789
H -27.4802 -14.7032 -17.4727
H -26.7694 -13.3722 -17.3491
O -26.6904 -10.7068 -1.38358
H -27.1197 -11.1119 -2.13708
H -25.9048 -10.2976 -1.74636
O 25.1998 -11.3792 15.1211
H 25.8463 -10.7036 15.3255
H 25.0997 -11.8702 15.9366
O 7.90375 12.354 27.3529
H 7.29427 11.6896 27.6745
H 8.41889 12.5992 28.1215
O -9.47451 10.7537 22.6481
H -9.93003 11.5956 22.6408
H -8.55136 10.9814 22.7586
O -19.9377 9.41017 20.0904
H -19.7274 8.9077 19.3033
H -20.6039 10.0354 19.8051
O 25.4791 -27.1001 7.01713
H 24.8774 -27.5892 6.45586
H 26.2632 -26.9803 6.48138
O -4.1554 -20.2607 -19.6028
H -4.8581 -19.8172 -20.078
H -3.53732 -20.5281 -20.283
O 15.0806 27.015 -20.7236
H 14.1295 26.9089 -20.7429
H 15.3865 26.5836 -21.5215
O 1.27683 3.43018 -13.2095
H 1.20054 2.48091 -13.306
H 2.18297 3.62376 -13.4496
O -24.6847 20.6748 -27.5154
H -25.595 20.6637 -27.2197
H -24.696 21.2125 -28.3072
O -19.1155 -23.0671 -10.4025
H -19.3682 -23.879 -9.96284
H -19.9298 -22.7358 -10.7811
O 19.3484 1.61176 -15.9195
H 20.2749 1.39103 -16.0154
H 19.3427 2.38063 -15.3494
O 15.8848 -17.0508 -19.529
H 15.3262 -17.1817 -20.2951
H 16.7762 -17.1585 -19.8607
O -14.6008 9.86718 -27.4469
H -14.5901 10.1153 -28.3713
H -14.6991 10.6954 -26.9772
O -11.0672 4.06042 -19.0531
H -10.1103 4.0555 -19.0786
H -11.3204 3.19723 -19.3803
O -0.920382 -6.86696 4.53155
H -0.848002 -7.63799 5.09414
H -1.26337 -7.20485 3.70426
O 11.3565 -0.213914 2.6144
H 11.755 -1.02945 2.91819
H 11.7601 -0.0526791 1.76156
O 19.6077 26.9976 10.1498
H 19.2355 27.6373 9.54268
H 19.904 26.2798 9.59012
O -18.8078 12.2398 -14.4611
H -17.8801 12.4723 -14.4226
H -18.8127 11.2879 -14.5618
O 3.57525 -5.46898 -20.6697
H 3.58051 -6.01642 -21.4549
H 2.74999 -5.68209 -20.2341
O 19.6226 -20.5339 2.52981
H 20.5474 -20.5932 2.29006
H 19.2799 -19.8218 1.98966
O 10.0078 -21.1399 27.3674
H 10.2875 -21.0037 26.4621
H 10.4392 -20.4414 27.8595
O 13.045 -2.64405 -27.4684
H 13.6732 -2.11568 -27.9608
H 12.8806 -2.14046 -26.6712
O 10.3784 10.9227 -18.1643
H 10.0823 11.7913 -17.892
H 11.3334 10.9869 -18.1744
O 11.5553 11.1826 29.4404
H 10.9357 11.4619 -29.8855
H 11.0468 11.1888 28.6295
O -19.2471 -18.6275 -1.32971
H -18.4775 -19.0266 -1.73546
H -19.9322 -19.2912 -1.41017
O -2.54967 0.278897 29.619
H -2.60571 0.802423 28.8196
H -1.63031 0.0175093 29.6707
O 2.38906 -12.3477 -0.185364
H 2.21635 -11.407 -0.223569
H 2.72871 -12.4937 0.697565
O -19.4603 1.06483 -17.9048
H -20.0043 1.81621 -18.141
H -19.0108 0.829274 -18.7164
O -4.47273 -15.6215 2.02923
H -4.92524 -16.4608 1.94546
H -4.96153 -15.0274 1.45969
O -8.1237 27.4898 -3.78879
H -9.07003 27.5572 -3.91589
H -7.96614 26.556 -3.64967
O -23.3878 23.0043 -21.4735
H -23.9174 22.8218 -22.2496
H -23.5642 23.9235 -21.2733
O 14.2617 6.31893 -15.2095
H 13.4152 5.91171 -15.0253
H 14.7904 5.61448 -15.5842
O 8.77929 11.39 14.5032
H 8.90336 11.2526 15.4423
H 8.76561 12.3415 14.3996
O -24.5899 8.60707 3.23008
H -23.9961 9.02092 2.60369
H -24.7789 9.29276 3.87064
O -8.06331 -29.9674 -11.8366
H -8.52592 -29.8333 -12.6638
H -7.18511 -29.6206 -11.9939
O -6.92794 14.5035 -5.55912
H -6.87131 15.4461 -5.40234
H -7.85638 14.3437 -5.72859
O 25.3167 -7.9296 -21.1115
H 26.0797 -7.67696 -20.5917
H 25.623 -8.66111 -21.6475
O 27.9558 19.7188 20.9459
H 28.9034 19.7075 20.8114
H 27.787 20.5469 21.3953
O -16.059 14.277 15.7074
H -16.834 13.7456 15.8899
H -16.4001 15.0557 15.2675
O 25.0216 25.2188 -3.65878
H 25.5545 25.9497 -3.97179
H 24.419 25.6137 -3.02862
O -8.14958 19.0462 16.2139
H -7.87232 19.8924 15.8628
H -8.43867 19.2395 17.1057
O 24.6677 -20.4457 -5.10315
H 25.1458 -20.585 -5.92061
H 24.4532 -21.327 -4.79744
O 10.1593 11.2978 26.9022
H 9.26674 11.6433 26.8862
H 10.7174 12.071 26.8195
O 2.56356 -14.0995 -18.9564
H 2.73628 -13.8761 -18.0418
H 3.43102 -14.2291 -19.3397
O -23.6134 5.42003 19.8855
H -24.447 5.85634 19.7095
H -22.9521 6.09438 19.7302
O -11.4592 21.1926 -6.36231
H -12.0252 20.5742 -5.90037
H -11.8362 21.2535 -7.24001
O -19.8488 -20.2263 -21.3681
H -19.5768 -19.7014 -22.1209
H -19.6718 -19.6688 -20.6103
O -27.6901 -22.0305 14.0618
H -27.778 -22.8743 13.6185
H -27.8702 -22.2229 14.982
O -17.0981 12.6211 12.0654
H -17.6452 12.7298 12.8434
H -16.2047 12.5716 12.4054
O -22.9967 23.7207 15.981
H -22.0772 23.4622 15.9186
H -23.4301 22.9696 16.3864
O 12.6988 -5.05902 -2.71644
H 13.1791 -5.61024 -2.09862
H 12.9449 -5.39421 -3.57861
O -4.01028 -20.4497 -0.315682
H -4.07991 -21.4033 -0.361019
H -3.43225 -20.2864 0.429616
O 10.4853 -2.0485 17.5452
H 11.0899 -1.9762 18.2838
H 9.78136 -1.43312 17.7502
O -13.1498 -15.0398 1.50882
H -13.2097 -15.2675 2.43661
H -14.0593 -14.9469 1.22528
O 25.1386 20.1232 15.8697
H 26.0299 19.7786 15.8137
H 24.624 19.5513 15.3002
O -7.8478 29.4686 -6.63848
H -8.24876 28.7203 -7.08068
H -7.90989 29.2582 -5.70675
O -27.6984 -9.71574 -14.4418
H -27.031 -9.03126 -14.4887
H -28.5214 -9.24087 -14.3258
O -5.20141 23.4092 4.75268
H -6.00073 23.6201 5.23518
H -4.81138 22.6835 5.24002
O 22.3296 -12.9326 -6.15865
H 22.52 -12.9178 -7.09661
H 22.9875 -12.3554 -5.77109
O -21.8049 -5.14345 -23.5161
H -21.4936 -4.24274 -23.4266
H -22.2921 -5.14823 -24.34
O -24.1982 -13.0006 19.4298
H -23.6205 -12.6556 20.1105
H -24.2484 -13.9392 19.6106
O -12.2452 -22.4977 -4.41598
H -12.8528 -22.5339 -3.67728
H -11.5395 -23.0983 -4.1759
O -7.17547 11.6411 9.28131
H -7.95923 11.2048 8.9473
H -7.22069 11.5226 10.2301
O -5.35537 -11.6754 -24.2342
H -4.74138 -11.0009 -23.9439
H -5.0794 -12.4664 -23.7712
O -10.706 21.8275 0.622976
H -9.83596 21.6547 0.982644
H -10.5464 22.0531 -0.293466
O -8.47131 -8.63879 23.8139
H -8.02971 -8.51821 22.9733
H -9.376 -8.37245 23.6502
O 26.4976 -7.65951 0.58226
H 27.0384 -8.23366 0.039911
H 25.6029 -7.96964 0.442051
O 10.6255 -8.80615 -15.0215
H 11.0143 -9.6646 -15.1893
H 9.73905 -8.87057 -15.3769
O -4.55917 3.71267 18.7951
H -4.46123 4.65938 18.8969
H -4.91794 3.60188 17.9146
O -7.87144 -24.9082 -27.0672
H -8.12828 -24.5212 -26.2303
H -8.2774 -25.7751 -27.0654
O 28.0958 -28.3569 24.6206
H 28.9488 -28.2638 24.1964
H 27.7407 -29.1733 24.269
O -29.777 25.1323 -4.96405
H -29.2018 25.8836 -4.81988
H 29.5819 25.1813 -4.25489
O -3.57199 22.2999 -12.6956
H -3.04009 21.5189 -12.8481
H -3.02351 23.0257 -12.9933
O -18.8461 12.6257 17.9977
H -17.928 12.7485 18.2389
H -19.3332 13.1541 18.63
O 24.0572 -16.8397 -7.02115
H 24.1112 -17.6101 -6.45566
H 23.161 -16.8509 -7.35713
O -24.4685 -21.4005 -1.07797
H -23.7085 -20.8544 -1.279
H -24.2695 -22.2461 -1.47996
O 15.7939 14.6229 3.9978
H 16.2072 15.4821 4.08259
H 14.8719 14.779 4.20206
O 16.6215 -7.74983 27.6109
H 16.9666 -8.58993 27.3087
H 16.0023 -7.48595 26.9304
O -6.13996 -1.93065 9.84043
H -6.78326 -2.41047 9.31874
H -5.83219 -2.56665 10.4862
O -10.0394 11.2757 -0.131713
H -9.25372 10.9016 -0.53041
H -10.5013 10.524 0.239554
O -4.47897 25.0601 26.9763
H -4.9088 25.9144 26.9347
H -4.1234 24.9274 26.0976
O -13.3279 -7.14233 18.131
H -14.1483 -7.3802 17.6992
H -13.5489 -6.37649 18.661
O -5.0007 23.7003 -18.3597
H -4.4234 24.4629 -18.3216
H -5.47426 23.716 -17.528
O 1.73083 -8.87423 10.1099
H 0.833845 -8.56097 10.2261
H 1.90709 -9.39382 10.8943
O -21.6586 -29.2214 -2.5619
H -20.9216 -29.832 -2.57455
H -21.2688 -28.3796 -2.326
O -2.26862 -29.9677 -12.2507
H -2.99199 29.4869 -12.5597
H -2.3642 -29.1465 -12.733
O -13.3911 4.54939 24.0937
H -13.92 4.75961 24.8633
H -13.8221 5.00939 23.3733
O -5.42999 -12.9326 0.521988
H -5.02366 -12.1777 0.94785
H -5.03097 -12.9611 -0.347614
O 24.1734 -14.3897 0.478001
H 24.1247 -15.2069 0.97399
H 24.3988 -14.6619 -0.411554
O -13.6979 -17.1136 -14.9406
H -13.371 -16.4626 -14.3197
H -13.1749 -16.9759 -15.7304
O 17.696 12.6512 6.16502
H 17.914 13.5351 6.46095
H 18.5358 12.1924 6.14062
O -3.59694 5.03339 7.63632
H -4.07481 5.17117 6.81846
H -4.24027 4.64189 8.22714
O 2.31764 16.5436 -13.6978
H 1.78075 16.5417 -14.4903
H 2.37758 17.4664 -13.4508
O 13.2572 -20.4227 -2.28317
H 13.5728 -19.8431 -1.58993
H 13.7409 -20.15 -3.06283
O 18.7616 -26.4022 25.4787
H 19.0217 -27.1443 26.0245
H 17.8438 -26.2491 25.7033
O -26.0791 -4.69926 -22.337
H -26.1871 -5.65025 -22.3238
H -25.2055 -4.55191 -21.9748
O 21.8717 -23.0377 7.40163
H 22.4 -23.6313 6.86792
H 21.8842 -23.4261 8.2764
O 25.1179 15.524 19.6461
H 25.3328 16.4415 19.4781
H 24.1633 15.4863 19.5868
O -9.48254 -20.1872 27.2546
H -8.96301 -20.439 28.0181
H -8.84976 -19.7964 26.6521
O -2.48211 -4.76188 11.7735
H -2.72928 -4.56415 10.8701
H -3.13292 -4.30456 12.3059
O -5.60195 13.9254 -22.5815
H -6.258 13.3866 -22.1393
H -4.7661 13.5132 -22.3632
O 12.6779 6.57478 -4.50532
H 12.0717 5.93321 -4.13498
H 12.4746 6.58501 -5.44063
O 9.8114 27.9801 -8.3054
H 9.72762 27.6573 -7.40819
H 10.4494 27.3942 -8.71269
O 5.54941 -15.3025 3.7602
H 4.62578 -15.1635 3.96949
H 5.78747 -14.5527 3.2149
O 16.0875 26.5924 12.0516
H 16.4524 25.7129 11.9542
H 16.7276 27.0597 12.5885
O -14.4292 20.439 -29.4502
H -13.6355 19.9148 -29.343
H -14.2009 21.0866 29.8829
O -15.7981 -0.169291 12.3004
H -15.8024 -0.423038 11.3775
H -14.8858 -0.269454 12.5726
O 13.9402 5.83501 17.0256
H 13.5172 5.55834 16.2127
H 13.215 6.02823 17.6197
O 21.0325 7.54856 23.837
H 20.4857 8.32129 23.9787
H 21.7011 7.83824 23.2162
O -5.07831 13.1573 19.7317
H -5.89507 13.2497 19.2412
H -4.39068 13.2465 19.0718
O 20.6228 -28.7727 9.57449
H 21.1635 -28.0244 9.3215
H 20.6336 -29.3465 8.80841
O -21.9997 -11.7092 -6.57873
H -22.3981 -11.3509 -7.37189
H -22.276 -11.1143 -5.88158
O -8.78813 -10.644 0.151309
H -9.2699 -11.445 -0.0550391
H -9.37128 -9.93597 -0.12229
O -8.76814 -15.2726 3.37568
H -9.6042 -15.2657 2.90964
H -8.48258 -14.359 3.36977
O -25.087 13.3959 -7.06649
H -25.647 12.9933 -6.4028
H -24.4315 12.7272 -7.2652
O -4.98022 22.4922 -14.9688
H -4.40509 22.2731 -14.2356
H -4.81692 21.8056 -15.6154
O 20.7015 3.02212 22.2741
H 21.4831 3.57434 22.2953
H 20.0302 3.53916 22.7194
O 0.196283 -18.9902 -23.3493
H 1.03192 -19.4569 -23.3371
H -0.326214 -19.4157 -22.6695
O 24.5377 -16.2892 -10.161
H 23.8121 -15.8746 -9.69427
H 24.2673 -16.2829 -11.0792
O -10.0314 -4.43278 15.2632
H -9.8128 -5.28767 15.6341
H -10.5007 -4.63525 14.4538
O 9.78446 20.2053 13.6024
H 10.0575 20.7992 12.9032
H 9.50742 20.783 14.3136
O -15.7251 1.99972 24.6663
H -14.812 1.96931 24.9517
H -16.1056 2.72858 25.1564
O -27.0118 15.59 9.6383
H -27.2798 16.5072 9.69465
H -27.7494 15.15 9.21572
O -27.8786 9.23628 -0.29109
H -27.0077 8.83918 -0.277628
H -28.3412 8.7764 -0.99159
O 4.69081 -7.49002 15.1187
H 4.28208 -7.57939 14.2578
H 4.22077 -6.76673 15.5336
O -4.42717 10.7266 27.0383
H -3.65251 11.2097 26.7505
H -4.51651 10.016 26.4033
O 4.79732 -23.4831 12.2039
H 3.94827 -23.1657 12.5115
H 5.35517 -23.4683 12.9816
O 19.8849 -0.958464 -4.70927
H 19.5622 -0.179467 -4.25622
H 19.0962 -1.38608 -5.04288
O 4.37869 6.22018 -4.61545
H 5.32802 6.09786 -4.62151
H 4.14346 6.31826 -5.5381
O 27.8004 -15.1759 -27.7796
H 27.5389 -14.3749 -27.3255
H 28.6995 -15.0089 -28.0624
O 20.9088 -6.5889 -27.8004
H 21.5959 -7.1767 -27.4863
H 20.4485 -6.31271 -27.008
O 6.1829 26.5368 10.5029
H 5.59941 26.2807 9.78864
H 5.94305 25.9593 11.2276
O 16.1152 12.5465 -24.1683
H 15.6211 12.4644 -24.984
H 17.0301 12.5937 -24.4457
O 1.75455 -22.7701 0.00208886
H 2.14856 -23.1116 0.804811
H 2.50024 -22.5381 -0.551389
O 2.53537 3.59277 -5.14079
H 3.1161 4.2129 -4.69985
H 1.7415 3.58554 -4.60604
O -10.7769 15.2149 -20.5147
H -10.447 14.6854 -19.7887
H -10.0787 15.8464 -20.6878
O -8.61961 -8.32134 -15.2091
H -8.61374 -9.18761 -15.6162
H -7.89946 -7.85289 -15.6312
O 24.5544 -19.3855 -9.11881
H 25.5095 -19.3392 -9.07596
H 24.2737 -18.4747 -9.20728
O -6.15695 3.87126 -10.7539
H -5.30839 4.31338 -10.7274
H -6.79379 4.5796 -10.8483
O 10.1522 -23.0202 21.0291
H 10.4543 -22.6328 20.2076
H 9.44431 -22.4451 21.3196
O -21.8614 0.938887 -9.22631
H -22.6728 0.948548 -8.71859
H -22.0327 0.325442 -9.94085
O 13.7805 11.5677 -14.5932
H 13.5484 10.6883 -14.8917
H 13.6472 12.1245 -15.3604
O 18.5816 25.664 2.42941
H 19.318 25.3907 2.97648
H 17.8082 25.5025 2.96975
O -11.3854 23.1896 22.0646
H -11.5997 23.9137 21.4764
H -10.6976 23.5371 22.6324
O 3.38156 13.6401 -7.59113
H 4.08846 13.3806 -8.18204
H 3.35233 14.5946 -7.65655
O 17.4293 8.90701 -28.3825
H 17.0711 9.7607 -28.6256
H 16.9754 8.28539 -28.9515
O 11.2111 -24.6809 28.6719
H 10.8105 -24.4897 27.8239
H 10.7838 -24.0783 29.2805
O -15.8259 -26.7403 -25.8689
H -15.5 -27.6183 -25.6711
H -16.5874 -26.633 -25.2989
O 20.2005 -25.5632 2.82056
H 19.7857 -26.0245 3.54952
H 20.4049 -26.2506 2.18665
O -24.3974 29.4841 2.45435
H -23.563 29.9263 2.29776
H -24.3176 28.6502 1.99115
O -29.9202 23.4958 1.06486
H -29.9051 23.7111 0.132322
H 29.2884 23.9201 1.39632
O 22.369 -19.2154 19.2578
H 22.8966 -19.8254 19.7733
H 22.6639 -19.3455 18.3565
O -1.40635 17.0818 14.3534
H -1.54412 17.0628 13.4064
H -2.28136 17.2068 14.7208
O 10.3599 -1.36018 -9.25667
H 10.3374 -0.408548 -9.35729
H 10.4525 -1.49973 -8.31424
O 10.5239 27.6025 13.4583
H 10.5771 27.6893 14.4101
H 9.69847 28.027 13.2244
O -19.0438 -4.65017 -5.34811
H -19.2235 -3.73403 -5.55945
H -19.3974 -5.14131 -6.08975
O -29.4991 17.6474 -28.7374
H -29.0623 16.9373 -29.2079
H -28.908 18.3948 -28.8285
O -20.6051 20.8083 0.433486
H -20.8907 20.7811 -0.479703
H -19.6931 21.0961 0.391236
O 4.32099 11.152 -26.7409
H 3.91095 10.491 -27.2988
H 3.96578 11.984 -27.0538
O -13.4564 -29.3558 -27.354
H -13.3384 -29.7057 -26.4709
H -12.7759 -29.783 -27.8743
O -6.25177 -13.1401 12.9693
H -7.12246 -13.1674 13.366
H -5.85592 -13.9802 13.2013
O -5.91977 -5.29154 -25.8492
H -5.82719 -5.32334 -24.8971
H -5.15525 -5.76268 -26.1806
O 3.87334 24.0252 -18.679
H 3.74713 24.8031 -19.2223
H 4.66122 23.6115 -19.0316
O -0.69544 9.96234 24.7027
H 0.19098 10.307 24.8107
H -1.26492 10.6561 25.0352
O 2.68845 -22.8137 -12.5801
H 2.78165 -22.9277 -11.6343
H 2.69277 -23.7044 -12.9308
O -8.2385 -26.4342 27.2756
H -7.50154 -25.8376 27.4064
H -8.33676 -26.882 28.1159
O 24.9523 -3.79018 22.1895
H 24.2505 -3.14115 22.1397
H 25.5718 -3.42576 22.8217
O 29.3249 1.99468 -0.774423
H 29.2466 2.1924 0.158854
H -29.8008 2.30294 -1.01252
O -23.2528 13.9832 17.8159
H -22.5183 14.5571 18.0337
H -22.8954 13.369 17.1746
O 24.9727 -11.8626 18.0496
H 25.8382 -11.803 18.454
H 24.4156 -12.2415 18.7296
O 25.0511 29.7037 5.82149
H 25.3782 -29.8197 6.58445
H 25.2582 28.7872 6.00413
O 24.4358 -28.9703 0.712451
H 23.7369 -29.4268 1.18092
H 24.1514 -28.9697 -0.201531
O 21.2862 -19.8804 -24.2447
H 21.9181 -20.2248 -23.6136
H 20.52 -20.4462 -24.1503
O -7.94448 -18.0335 -6.31836
H -8.60167 -18.2794 -6.9694
H -7.12933 -17.9627 -6.8151
O 20.3681 16.1653 -10.412
H 19.4468 16.3745 -10.2579
H 20.5234 15.3727 -9.8983
O 14.2131 -25.9907 -14.815
H 14.6115 -26.6864 -15.338
H 14.9558 -25.508 -14.4522
O -10.339 -24.7228 11.0579
H -10.9411 -24.3558 11.7052
H -9.95329 -23.9591 10.6287
O -28.5594 2.93368 -24.2057
H -29.2171 3.62685 -24.1495
H -27.8072 3.35013 -24.6265
O 13.4337 16.6101 20.9071
H 13.5383 17.0913 21.728
H 14.3191 16.3249 20.6816
O -4.23803 16.9446 -6.9235
H -4.57856 16.9961 -6.03041
H -4.3081 16.0181 -7.15392
O -1.05167 12.3089 -3.77771
H -0.607552 12.3967 -2.93433
H -0.483151 12.7665 -4.39708
O -13.6219 -1.44697 -0.463964
H -13.9656 -0.58412 -0.69545
H -13.7195 -1.49697 0.486934
O -13.5079 -28.7215 -20.1104
H -14.0333 -28.802 -19.3143
H -14.1508 -28.6512 -20.8161
O 21.5512 -27.7149 29.7782
H 22.1714 -27.2999 -29.6223
H 20.6899 -27.4862 -29.8723
O 2.07859 -16.1088 -24.3279
H 1.60692 -16.1794 -25.1578
H 2.87769 -16.6185 -24.4619
O 22.6449 3.99843 -20.5775
H 23.0823 4.82598 -20.3773
H 21.8039 4.2566 -20.9548
O 25.0176 28.949 -21.3231
H 25.6169 29.6946 -21.2872
H 25.4853 28.2897 -21.8358
O 3.77588 -7.25951 -22.5642
H 3.00969 -7.82574 -22.4716
H 3.98975 -7.29568 -23.4965
O -14.5011 14.1226 11.4001
H -15.3334 13.8984 10.9839
H -13.9081 14.3009 10.6702
O 16.9334 -25.9617 13.6284
H 16.8449 -26.8149 13.2037
H 17.1265 -26.1677 14.543
O 10.9881 -21.5544 7.92288
H 10.2403 -22.1043 7.68902
H 10.7025 -20.6631 7.72232
O -22.0577 -25.8726 -3.91464
H -22.1501 -24.9454 -4.13353
H -21.768 -26.2837 -4.72907
O 12.0862 -20.1168 -22.1321
H 12.095 -21.0454 -21.8998
H 12.8519 -20.003 -22.6951
O 7.08331 27.0597 8.01408
H 6.69858 27.2285 8.87415
H 8.02607 27.0236 8.17579
O -25.7543 -27.4985 -8.73191
H -25.5691 -28.4347 -8.80515
H -26.3656 -27.4314 -7.99837
O -15.1593 28.4376 -23.0415
H -14.5291 29.1327 -22.8521
H -14.7245 27.6346 -22.7544
O -1.53788 -29.5328 26.7349
H -0.604895 -29.7442 26.7018
H -1.95617 29.7911 26.2018
O -13.3701 -3.89065 7.29286
H -13.6001 -3.15817 7.86453
H -12.5612 -3.61416 6.8622
O 13.006 7.71739 -26.9157
H 13.0998 8.33985 -26.1946
H 13.1277 8.24467 -27.7052
O -17.7012 17.7867 18.4779
H -18.213 18.3965 19.0093
H -17.6437 16.9937 19.0109
O 24.4682 29.3208 3.08475
H 24.7929 29.326 3.98519
H 25.0245 29.9499 2.62544
O 10.0683 -13.5465 8.1721
H 10.3413 -12.9121 7.50935
H 9.2923 -13.1554 8.57343
O 1.90263 -17.6917 24.4877
H 2.14237 -18.2531 25.225
H 0.955513 -17.5798 24.5693
O 24.4149 -24.7861 -2.20825
H 24.932 -24.3075 -1.56041
H 23.755 -25.2503 -1.69315
O 2.9871 -9.29134 26.651
H 2.35502 -9.11196 25.955
H 3.16191 -10.2298 26.5805
O 6.48882 -15.9946 -18.4572
H 5.77808 -16.5879 -18.214
H 6.20674 -15.6097 -19.287
O -3.65533 16.4341 25.1726
H -3.87427 17.3642 25.2302
H -2.98117 16.3045 25.8397
O -13.7133 -18.5191 21.3733
H -13.867 -18.1399 22.2387
H -14.1301 -17.9079 20.766
O -25.9647 14.3932 -28.9325
H -25.2854 14.1281 -29.5526
H -25.5173 14.9801 -28.3229
O -24.6878 -29.6918 -9.70835
H -24.2749 -29.422 -10.5287
H -24.3395 29.4325 -9.54097
O -11.699 -2.08107 19.288
H -12.1237 -2.55425 18.5725
H -11.673 -2.70971 20.0094
O 10.097 26.2058 0.0573845
H 10.974 26.357 -0.295092
H 9.8412 25.3527 -0.293299
O 15.4074 -13.6118 -1.33287
H 16.2397 -13.4204 -0.900489
H 15.6366 -13.7247 -2.25534
O 17.7231 -25.647 -15.6549
H 18.4525 -26.0591 -15.192
H 17.7054 -26.0797 -16.5085
O -2.69487 28.3489 1.30368
H -3.48785 28.2353 0.779735
H -2.85049 29.1499 1.80402
O -10.2758 17.7197 3.75816
H -10.1361 17.1883 4.542
H -10.4206 18.6053 4.09122
O -5.9166 0.752655 27.1737
H -5.7591 1.54318 27.6899
H -5.04211 0.430665 26.955
O -0.699971 10.7627 -11.2642
H -1.29796 11.1885 -11.8785
H -0.334832 11.4811 -10.7477
O -8.26464 -7.67475 -0.837664
H -9.01437 -7.88225 -1.39541
H -7.50696 -7.74422 -1.41845
O -17.5175 28.9829 -24.5435
H -18.1157 28.67 -23.865
H -16.6442 28.8177 -24.1883
O 18.972 3.46301 -11.159
H 18.7965 3.55236 -12.0957
H 18.1529 3.13018 -10.7921
O -29.0355 -22.2474 0.789151
H -28.5755 -21.4081 0.775044
H -28.3539 -22.8974 0.618284
O 18.376 11.0752 26.1825
H 18.1562 10.2383 26.5919
H 19.2634 10.9518 25.8456
O 15.5772 11.8615 -21.6326
H 15.8405 11.9743 -22.5459
H 15.1343 12.6797 -21.4077
O 23.7649 0.181694 15.1801
H 23.64 -0.741981 14.9623
H 24.1866 0.170725 16.0394
O -25.4267 -8.596 -7.70826
H -25.9288 -8.67465 -6.89714
H -25.7729 -9.2871 -8.27282
O -22.7739 14.13 -23.4859
H -23.4835 14.4638 -24.0349
H -23.1238 14.1623 -22.5955
O 20.8979 20.6145 -7.21967
H 21.2766 20.9448 -6.40497
H 20.0316 21.0195 -7.26317
O 2.72471 -26.8586 -18.9745
H 2.54785 -27.7839 -19.1445
H 2.08972 -26.3896 -19.5158
O -20.6121 -14.8574 1.71839
H -20.9435 -14.585 0.862706
H -20.5989 -15.8137 1.67731
O -23.5368 -8.26501 -11.3203
H -22.7478 -7.9714 -11.7758
H -23.7328 -7.56121 -10.7019
O -26.2591 11.9451 -27.0594
H -25.5113 11.3555 -26.9631
H -25.996 12.5559 -27.7479
O -16.2952 19.6994 20.4782
H -16.0804 18.9562 19.9145
H -16.7462 20.3157 19.9013
O -11.6869 -27.2147 1.61646
H -12.4503 -26.8786 2.08608
H -12.0434 -27.5704 0.802415
O -17.4027 -16.1064 6.35014
H -18.0104 -15.6597 6.9394
H -17.6142 -17.035 6.4462
O -12.781 -18.0353 -26.8456
H -13.0821 -18.401 -27.6773
H -12.3192 -18.7573 -26.4192
O 27.5181 -28.3928 -12.2203
H 27.9349 -27.7129 -12.7497
H 27.1869 -29.0246 -12.8585
O 7.89962 -13.7293 -25.0684
H 7.8887 -13.164 -24.296
H 7.26524 -14.4182 -24.8705
O 5.50061 15.4301 -22.322
H 5.32588 14.91 -23.1063
H 5.8457 16.2584 -22.6552
O -27.1471 -3.04325 17.7956
H -26.5489 -3.65856 17.3716
H -28.0038 -3.24266 17.4181
O -5.98693 -8.60455 14.5655
H -6.93909 -8.50649 14.5697
H -5.831 -9.45113 14.9841
O -1.11734 -15.5749 5.60533
H -1.05017 -14.7238 5.17245
H -2.04985 -15.7883 5.57175
O 17.3223 20.6044 -0.0517201
H 16.9708 20.9194 -0.884446
H 18.0842 21.1601 0.1127
O 23.6485 20.363 -15.212
H 22.9194 19.9416 -14.7569
H 23.7089 19.9007 -16.048
O 0.0491851 28.3888 -9.0102
H 0.611816 27.6645 -8.73599
H 0.0833188 28.3704 -9.96661
O 0.369449 10.9848 -1.50037
H 1.28044 10.9677 -1.20706
H -0.0768655 11.5441 -0.864584
O 27.6629 16.9232 -8.40567
H 27.4924 16.7673 -9.33457
H 28.3824 17.5544 -8.39637
O -22.802 2.80194 -28.6277
H -22.4876 2.10626 -29.2051
H -23.5713 3.15526 -29.0745
O -21.5678 -6.11775 6.22725
H -22.331 -6.29968 6.77549
H -21.5137 -5.16245 6.20053
O 4.51896 3.98972 6.02325
H 4.115 4.114 6.88209
H 4.64156 4.87677 5.68509
O -28.0933 -12.9742 19.4699
H -28.9252 -12.6042 19.7654
H -27.969 -13.751 20.0153
O -5.29765 26.6793 -4.25391
H -6.06601 26.7027 -4.82428
H -5.31438 25.8051 -3.86439
O -4.63304 -3.45453 21.4169
H -3.7154 -3.51757 21.6818
H -5.05288 -4.21251 21.8236
O 13.9202 -1.99041 -16.743
H 13.0298 -1.8881 -16.4069
H 14.3902 -1.22394 -16.4146
O 23.5413 7.7007 8.81381
H 23.339 8.13376 7.98449
H 24.0712 8.33711 9.29386
O 0.591011 27.5424 14.2107
H 0.29824 28.1515 13.5328
H 0.0841772 26.7459 14.0528
O 18.0847 -16.9549 4.86053
H 17.4379 -16.6666 4.21648
H 18.888 -17.0789 4.355
O 22.5933 -8.38068 -25.9558
H 22.24 -9.1183 -25.4585
H 22.167 -7.61097 -25.5789
O -25.1013 -22.8352 -20.9886
H -25.0846 -22.5787 -21.9107
H -24.1791 -22.8918 -20.7385
O 29.4741 20.2401 24.9446
H 29.9428 20.5911 25.7018
H 29.9393 19.4321 24.7278
O 8.93601 -22.426 15.5364
H 9.44661 -22.4475 14.7271
H 9.11342 -23.2686 15.9546
O 26.5358 27.5176 10.6411
H 27.0594 26.9637 11.22
H 26.8809 28.4001 10.7765
O -23.3198 -18.1582 -10.5108
H -23.0507 -17.2414 -10.4527
H -23.5661 -18.3931 -9.61615
O -25.5126 -26.4104 -29.4761
H -25.0662 -26.7005 29.7285
H -25.4657 -27.163 -28.8865
O -28.0804 0.572872 -26.391
H -27.3208 0.233953 -25.9173
H -28.0085 1.52399 -26.3107
O 26.4854 10.235 28.7068
H 25.6869 10.2473 28.1791
H 27.1805 10.4797 28.0959
O 23.0005 -20.4228 3.78608
H 22.2818 -21.0192 3.99596
H 22.8749 -19.6789 4.37519
O 7.8207 10.8247 -26.5437
H 6.98995 10.9384 -26.082
H 7.56956 10.5488 -27.4252
O -13.4741 -20.9018 20.5767
H -13.2909 -19.963 20.6147
H -12.9065 -21.229 19.8788
O -17.5491 -3.38604 -16.5511
H -17.916 -2.50374 -16.4951
H -16.8005 -3.29765 -17.1411
O -22.4835 6.03005 -24.5447
H -21.8177 5.93769 -23.8632
H -22.0016 6.34338 -25.3101
O 18.6154 2.75828 5.45655
H 18.2884 2.70768 6.35474
H 19.5161 2.43885 5.51069
O -23.5087 -14.9979 -21.1848
H -23.3694 -14.5038 -20.3769
H -22.6339 -15.2892 -21.4418
O 10.2919 -7.02774 -9.37458
H 10.4072 -7.79798 -8.81812
H 9.43551 -6.67897 -9.12707
O 18.6846 -12.3954 -18.0514
H 18.0708 -11.7382 -18.3794
H 18.3565 -12.6163 -17.1797
O 1.91293 0.198836 -27.7192
H 2.58794 0.875105 -27.7762
H 2.35246 -0.5448 -27.3068
O -27.5204 -26.3918 -20.4895
H -27.767 -25.6054 -20.0027
H -27.5561 -27.0959 -19.8421
O -14.2813 8.01202 -1.86307
H -14.9923 8.65254 -1.84214
H -13.5371 8.4665 -1.46815
O 29.2479 -10.7597 3.20419
H 29.265 -11.5902 2.72867
H -29.996 -10.2766 2.87079
O -15.6081 -3.73671 -7.48282
H -14.6518 -3.74404 -7.44276
H -15.8422 -4.61243 -7.79037
O -11.7079 -9.27636 18.4527
H -12.4992 -8.73811 18.4344
H -11.0406 -8.73648 18.029
O -20.8722 2.28037 7.31534
H -20.6076 3.19161 7.18941
H -21.7899 2.2573 7.04427
O 18.391 9.70225 -13.2749
H 17.4382 9.66507 -13.3596
H 18.7082 9.79711 -14.173
O -18.208 5.02645 -27.9491
H -17.8563 4.66024 -27.1376
H -18.0286 4.35888 -28.6112
O -2.42349 -20.0674 27.3324
H -3.21259 -19.9338 26.8074
H -2.63535 -20.8089 27.8995
O -20.5841 -23.1484 2.79151
H -19.7174 -23.0329 2.40212
H -21.1224 -22.4694 2.38469
O -7.41968 -12.2656 -26.8978
H -7.81217 -12.833 -26.2343
H -8.16059 -11.9607 -27.4216
O -20.2238 24.5121 23.0969
H -19.5855 25.2022 22.9165
H -20.8187 24.8976 23.7402
O -11.2464 19.1824 -9.26532
H -11.5114 18.2774 -9.42957
H -11.0576 19.5385 -10.1335
O -18.264 13.1006 28.1264
H -17.8408 13.0127 27.2723
H -17.5392 13.1926 28.7449
O 9.56493 -12.8965 -5.77411
H 9.38717 -13.6692 -5.23786
H 9.00315 -13.0027 -6.5418
O 28.4969 -19.3305 -21.3662
H 27.6344 -19.1056 -21.715
H 28.6528 -18.685 -20.6768
O 5.04271 8.38182 -13.0652
H 5.89049 7.98967 -13.2743
H 4.40081 7.72968 -13.3461
O -17.3311 0.0365186 6.74318
H -16.7835 -0.72179 6.53989
H -17.4389 0.486277 5.90513
O -17.1361 27.386 16.6259
H -16.8735 27.4184 15.706
H -17.4922 28.2564 16.8046
O 25.0029 4.45687 18.2057
H 24.7412 5.05603 17.5066
H 24.1914 4.26956 18.6775
O 25.6318 7.86203 -8.87804
H 25.1504 7.50738 -9.62548
H 25.2201 7.45834 -8.11398
O 21.4357 12.426 11.774
H 21.9157 13.2435 11.6415
H 20.5232 12.6514 11.5928
O -15.1122 26.6388 -10.7937
H -15.0909 27.3592 -11.4236
H -15.0883 25.848 -11.3325
O -22.1582 -4.51343 -29.9491
H -22.7035 -4.14774 29.3544
H -21.3439 -4.01214 -29.9935
O -17.3157 -14.1668 -1.95125
H -16.8215 -14.8884 -1.56223
H -17.7266 -13.7282 -1.20624
O -11.9928 -6.36066 -12.6687
H -12.5077 -6.45716 -11.8676
H -11.6872 -7.24613 -12.8657
O 25.3432 -14.8445 -1.7848
H 25.363 -14.5477 -2.69462
H 26.2411 -15.1223 -1.60342
O -29.3747 -7.26725 12.8806
H 29.7525 -7.61714 13.0595
H -29.1645 -7.58416 12.0022
O -3.63552 -26.7271 -5.41652
H -3.35351 -27.1938 -4.62982
H -2.89734 -26.1586 -5.63586
O -28.9085 -7.33365 0.574305
H -29.0239 -6.38449 0.529265
H -28.0038 -7.47884 0.297372
O -19.6068 -19.3257 -13.8146
H -19.0039 -19.8968 -13.3385
H -19.1543 -18.4835 -13.8598
O -13.514 4.22958 21.3989
H -13.5659 3.81023 20.54
H -12.9333 3.66359 21.9076
O 12.0307 20.0707 -1.77316
H 11.8188 19.8313 -0.870908
H 12.7017 20.7482 -1.69044
O 20.4623 -16.9426 2.41524
H 21.2224 -16.8133 2.98245
H 20.8299 -17.0169 1.53456
O 18.4654 -2.69846 25.3201
H 18.0661 -3.55086 25.494
H 18.2243 -2.16193 26.0752
O -0.194115 -18.2875 5.70712
H -0.914463 -18.6406 6.22928
H -0.397243 -17.3565 5.61652
O 22.6275 -8.7366 -10.624
H 23.5099 -8.8885 -10.2855
H 22.7627 -8.24613 -11.4349
O -16.0682 6.13673 -23.5077
H -15.2951 6.35521 -22.9872
H -15.7854 6.24743 -24.4155
O 6.4074 -27.8509 -9.21663
H 6.60159 -28.0452 -10.1336
H 6.39867 -26.8949 -9.17053
O -8.08028 -21.1162 29.2023
H -7.85447 -22.046 29.2288
H -8.05773 -20.8375 -29.8822
O 15.1729 19.2273 -10.49
H 14.3235 19.4962 -10.1403
H 15.2615 19.7167 -11.3079
O 14.7585 8.9769 -16.0522
H 14.6187 8.04971 -15.8598
H 14.8727 9.01037 -17.002
O 11.009 -11.5906 -16.782
H 10.1134 -11.4223 -16.4891
H 10.98 -12.4751 -17.1467
O 25.6889 2.75596 -4.29374
H 26.2972 3.29444 -3.78743
H 25.9138 1.85543 -4.05978
O 13.9992 22.367 -19.2807
H 14.4355 22.9054 -18.6204
H 13.8011 21.5467 -18.8289
O -23.9098 -15.8245 -24.613
H -24.0249 -14.8874 -24.7706
H -23.0009 -15.9096 -24.3252
O 18.7996 2.71995 16.2986
H 18.9738 2.31541 17.1485
H 19.6149 2.61032 15.8091
O 7.00264 13.0244 7.90725
H 6.763 12.6689 7.05146
H 7.94832 12.889 7.96715
O 13.2258 29.4248 16.2198
H 13.4443 -29.7342 15.8183
H 13.5503 29.496 17.1175
O -28.1194 17.621 -1.98051
H -28.9582 18.0366 -1.78078
H -28.0926 17.5819 -2.93654
O -29.5237 -23.445 9.88521
H -28.8842 -23.5519 9.18104
H 29.6675 -23.8167 9.53334
O 7.43143 -13.9092 -1.91713
H 6.74344 -14.3421 -1.41164
H 7.07203 -13.0459 -2.12139
O 22.4401 12.118 25.6688
H 22.5815 12.599 24.8534
H 21.5283 12.2974 25.8982
O 1.34644 -11.0592 -8.09189
H 2.27612 -10.9067 -8.2612
H 0.914143 -10.8492 -8.91968
O 6.12883 -5.31813 27.3209
H 6.96068 -5.6958 27.6066
H 6.32836 -4.39704 27.1535
O -24.6685 16.9743 8.81381
H -24.2571 17.3212 8.0222
H -25.338 16.3708 8.49161
O -21.7269 26.8459 16.4815
H -22.1071 25.9698 16.4167
H -21.1313 26.9048 15.7345
O -5.13153 -15.501 -28.7537
H -5.28157 -15.2998 -27.8299
H -4.31685 -15.0469 -28.9689
O 9.54545 4.92762 -5.14091
H 8.8843 4.52195 -4.58005
H 9.52362 5.85513 -4.90536
O -13.4369 -18.5758 0.811652
H -13.7666 -17.9592 1.46542
H -13.351 -18.0554 0.0128691
O 21.0253 8.82485 9.58139
H 21.4691 8.00243 9.37427
H 20.1708 8.75013 9.15639
O -21.5591 10.0965 26.1271
H -21.8911 9.28081 25.7521
H -22.3205 10.6761 26.1531
O 20.5358 2.96507 -8.03256
H 19.6692 3.26036 -7.75327
H 20.5696 3.1702 -8.9669
O 26.2187 -2.64859 -25.9509
H 25.3803 -2.67965 -25.4901
H 26.223 -1.79501 -26.384
O -9.55194 8.80964 5.20508
H -10.4959 8.72452 5.33887
H -9.29413 7.98905 4.78507
O -3.68183 21.8553 6.66497
H -3.42656 22.3889 7.41752
H -2.86251 21.6916 6.19792
O 9.30408 22.9961 1.45005
H 8.47069 23.4449 1.59254
H 9.10453 22.07 1.58732
O -22.4308 -29.8023 7.242
H -22.1282 -29.2321 6.53525
H -23.3579 -29.9474 7.05307
O -28.3011 -28.0307 -25.8685
H -28.7469 -27.7216 -26.6571
H -28.0331 -27.2313 -25.4154
O 12.6986 -15.1525 -23.8332
H 12.4624 -14.6978 -24.6417
H 13.1646 -14.4957 -23.3158
O 4.16335 6.75988 15.1609
H 4.20257 6.8367 14.2076
H 3.36369 7.22514 15.4064
O 3.36123 -8.03355 1.54601
H 4.01322 -7.61294 2.10658
H 2.55793 -8.02817 2.0665
O 17.0592 -0.158338 -29.115
H 16.7876 0.693488 -29.4569
H 16.8029 -0.782292 -29.7941
O 28.8722 4.78529 21.8554
H 28.196 4.62178 21.198
H 29.021 5.73007 21.8167
O 19.2763 0.404342 -7.12696
H 19.38 0.453173 -6.17665
H 19.9394 1.00242 -7.47178
O 21.7692 10.4605 17.0201
H 21.0604 10.0804 16.5012
H 21.6721 11.4056 16.9031
O -7.07599 7.25574 14.2054
H -6.95659 7.06539 13.2749
H -7.91391 6.84995 14.4278
O -11.8233 -9.29792 27.6065
H -10.9721 -9.18641 28.0298
H -11.8381 -10.2158 27.3353
O 26.8331 -11.6004 -26.9259
H 27.0811 -11.5108 -27.8461
H 26.0415 -11.0695 -26.8379
O -0.950734 -28.1875 3.74745
H -0.954693 -27.6389 2.96305
H -0.321237 -27.7655 4.33221
O 13.8077 -10.0177 -6.665
H 14.3965 -10.7284 -6.9189
H 14.0715 -9.27963 -7.21438
O -24.5295 13.4824 -17.0517
H -25.3532 13.5164 -17.5382
H -24.7905 13.2906 -16.151
O 29.8614 -20.5037 -14.2455
H -29.1949 -20.5292 -14.0877
H 29.4898 -20.1765 -13.4262
O -24.3269 -21.3599 -8.30076
H -24.8905 -21.9588 -7.81103
H -24.0439 -20.7136 -7.65382
O 17.9334 18.3072 6.76963
H 18.6307 18.515 7.39155
H 17.6808 19.1535 6.40072
O -25.6391 -5.6877 2.05297
H -24.8047 -5.35642 2.38508
H -25.4842 -5.83625 1.12015
O -21.9165 21.3002 -2.59434
H -21.052 21.2438 -3.00145
H -21.9545 22.186 -2.23368
O 24.4789 -8.04794 -28.5288
H 23.8798 -8.23913 -27.8072
H 24.129 -7.25061 -28.9264
O 17.8214 -15.9291 -21.7513
H 17.5069 -15.5356 -22.5652
H 17.9175 -16.8592 -21.9558
O 28.5789 29.6354 -18.478
H 29.1452 29.3208 -19.1826
H 28.7472 29.0376 -17.7496
O -25.9803 -4.68537 29.407
H -25.4995 -3.95666 29.7995
H -26.8979 -4.41568 29.4449
O 16.164 5.36869 28.4626
H 16.5988 4.69926 27.9344
H 16.8787 5.82903 28.9025
O 13.0749 1.84205 15.4049
H 12.7531 2.00973 14.5192
H 12.283 1.74522 15.9337
O 27.5484 -20.3261 -26.9265
H 27.4263 -21.2104 -26.5812
H 28.0973 -19.8881 -26.2761
O 12.5595 -19.3927 -18.899
H 12.2864 -19.9759 -19.6072
H 12.5338 -18.5174 -19.2856
O -17.8774 -25.3275 -27.847
H -17.9428 -25.977 -27.1468
H -16.941 -25.2738 -28.0378
O 18.4026 9.28692 19.6204
H 19.0814 9.55273 20.2407
H 17.8541 8.67577 20.1122
O -9.36534 -25.4274 -21.7115
H -8.60266 -24.8869 -21.9174
H -9.01234 -26.156 -21.2008
O 27.473 -14.7585 -20.353
H 26.65 -15.0411 -20.7518
H 27.335 -13.8339 -20.1472
O -13.365 6.04253 -18.9489
H -13.9557 5.57107 -18.3614
H -12.588 5.48631 -19.0051
O 17.7261 11.0359 -6.9126
H 17.3463 10.901 -7.78081
H 17.3668 11.8739 -6.62108
O -0.57918 6.73433 12.4269
H -1.44683 6.45964 12.1303
H -0.74505 7.4986 12.9789
O -28.6307 20.3265 -29.3979
H -29.0625 20.5623 29.7811
H -29.2822 20.5131 -28.7219
O 23.2849 -5.85477 4.31825
H 22.854 -6.705 4.23067
H 24.0528 -6.02979 4.86221
O 25.7056 14.6425 13.8754
H 25.4154 15.524 14.1097
H 26.6392 14.6332 14.0862
O 1.86652 8.17015 15.6841
H 1.60721 8.39518 16.5776
H 1.28386 7.45138 15.4389
O 21.1161 -20.4621 11.2988
H 20.6301 -19.7137 10.9526
H 21.1804 -20.2926 12.2387
O -12.3087 6.19255 -8.98029
H -11.9581 5.92236 -8.13157
H -12.9712 5.53339 -9.18711
O 15.7017 10.7256 25.0394
H 16.6255 10.7137 25.2896
H 15.5743 9.91114 24.553
O -17.1192 -15.4143 -14.4207
H -16.4881 -14.6963 -14.3724
H -17.2244 -15.7028 -13.5141
O -7.46859 -17.6497 16.6592
H -6.60294 -17.3292 16.4059
H -8.04347 -17.3798 15.943
O 28.8755 17.5473 -22.6025
H 28.0508 17.3197 -22.173
H 28.6765 17.512 -23.5381
O -14.0988 17.0431 -1.76133
H -13.9462 17.5599 -2.55242
H -14.624 17.6133 -1.19977
O 10.0065 -10.9396 -3.00094
H 9.31898 -11.2578 -3.58595
H 9.911 -11.468 -2.20855
O -4.42821 10.5848 -13.3861
H -3.9623 11.4037 -13.217
H -5.20731 10.8486 -13.8756
O 6.56159 12.9728 -16.6144
H 6.35356 12.2769 -17.2378
H 6.01801 13.7113 -16.8889
O -4.86648 16.8858 -4.32426
H -5.1242 17.7476 -3.99692
H -5.01063 16.2953 -3.58484
O -8.71093 -8.72427 2.38992
H -8.89103 -9.02389 1.49884
H -9.47 -8.18893 2.62112
O 2.33511 4.59294 -7.73459
H 2.29513 4.0022 -6.98248
H 3.07113 5.17451 -7.5441
O 5.35701 14.7682 22.6082
H 5.09024 15.0632 21.7375
H 4.53946 14.5147 23.0366
O 3.31021 17.4594 23.2393
H 3.36183 16.7392 22.6109
H 3.89599 17.1999 23.9504
O 10.9329 21.3734 -4.95553
H 10.5293 22.2201 -4.76487
H 11.8737 21.5498 -4.95198
O 29.5921 26.5542 10.1999
H 29.075 27.3042 9.90594
H 29.1325 26.2354 10.9766
O 7.1658 4.40586 -9.64957
H 6.21115 4.41381 -9.58019
H 7.47118 4.30951 -8.74752
O 16.7645 -19.9376 -23.659
H 15.8877 -20.2161 -23.3946
H 16.7088 -18.9832 -23.7072
O 28.2982 11.3924 16.8006
H 27.6143 11.6587 16.1861
H 28.0488 11.8013 17.6293
O -4.34534 -16.6513 -11.6741
H -3.50201 -17.0168 -11.4068
H -4.18654 -15.7103 -11.7479
O 23.5915 7.42127 21.6472
H 23.4066 6.50905 21.8706
H 23.0218 7.60565 20.9005
O -8.17888 15.6958 -23.5334
H -7.73445 16.1859 -24.2251
H -7.47306 15.2561 -23.0594
O -28.1865 8.7769 -24.6354
H -29.0662 8.4017 -24.6746
H -28.1792 9.44374 -25.322
O -11.7759 22.0664 16.7437
H -11.1971 21.3486 16.4867
H -12.5414 21.6338 17.1219
O -20.3705 1.01781 -15.0231
H -20.741 0.136075 -14.9851
H -19.8027 1.00645 -15.7936
O -21.766 20.9714 -22.9172
H -21.7404 21.7911 -23.4109
H -21.0905 20.4267 -23.3213
O -4.39358 -5.05425 -29.4685
H -5.2795 -5.10874 -29.8268
H -3.82974 -4.95812 29.764
O -14.2846 -25.175 17.6885
H -14.7656 -25.7357 17.0797
H -14.9572 -24.6265 18.0921
O 22.3146 -2.32438 -29.1227
H 21.485 -1.88823 -29.3168
H 22.181 -3.22989 -29.4027
O -28.1888 -17.9944 -23.1173
H -27.3582 -17.5535 -23.2959
H -28.5328 -17.5529 -22.3408
O 9.09287 23.98 20.9743
H 9.98128 23.728 21.2262
H 8.97078 23.594 20.1069
O 19.8615 -17.092 -0.617163
H 20.4789 -16.3772 -0.462031
H 19.9467 -17.2843 -1.55098
O 20.4024 8.59877 -20.4597
H 20.3333 9.32985 -19.8457
H 19.7464 8.78644 -21.1311
O 12.6422 -6.21162 -21.9276
H 11.8491 -6.69866 -21.7039
H 13.3356 -6.63749 -21.4234
O 28.4952 3.57747 1.70731
H 28.2753 2.67497 1.93831
H 27.6968 3.92475 1.30962
O -5.22795 16.5942 -20.2906
H -5.85859 16.0824 -19.784
H -4.38157 16.1908 -20.098
O 9.22895 -2.80227 -2.55196
H 9.17001 -2.04875 -1.96462
H 8.56971 -3.41407 -2.22434
O -24.5711 20.043 24.7572
H -24.0342 19.8854 25.5338
H -25.3848 20.4135 25.0992
O -18.7675 24.655 -28.4701
H -18.0603 24.7782 -27.8369
H -18.3215 24.5505 -29.3106
O -5.10786 -17.5971 -3.08591
H -5.03162 -16.653 -3.22406
H -4.45808 -17.9792 -3.67583
O 25.6831 -18.7004 24.5502
H 26.3488 -19.1501 25.0705
H 25.9442 -18.8536 23.6421
O 3.97668 -0.806525 29.9078
H 4.56587 -1.47247 -29.7378
H 3.97152 -0.114323 -29.4311
O -11.8348 -8.53315 7.54076
H -11.4437 -7.92262 8.16564
H -12.4685 -8.0057 7.05446
O 19.0324 13.6665 24.8541
H 18.3338 13.9208 24.2512
H 18.6274 13.0191 25.4313
O 19.9662 -29.531 5.1348
H 20.5309 -29.2617 4.41035
H 20.563 -29.6462 5.87425
O 6.21012 10.6779 13.2646
H 6.81522 10.7015 14.0059
H 6.53574 9.96777 12.7116
O -24.9943 21.885 21.4676
H -24.2011 21.3564 21.3793
H -25.5731 21.5668 20.7748
O -13.4507 26.7929 -8.28802
H -13.4123 27.7387 -8.43011
H -13.6559 26.429 -9.14924
O -29.2601 16.0634 28.3875
H -29.0202 15.5242 27.6339
H 29.8672 16.3955 28.1769
O -15.8407 -5.65916 11.8973
H -15.9674 -6.01153 11.0164
H -14.8973 -5.51118 11.9632
O -18.3533 -17.2378 29.4092
H -17.6308 -17.7633 29.7529
H -18.5684 -17.6452 28.5702
O 2.62657 11.3274 15.9736
H 2.04423 11.2497 15.2179
H 3.50763 11.2605 15.6055
O 12.9554 -5.31794 13.6406
H 13.3428 -4.85452 12.898
H 13.6959 -5.51202 14.2152
O 7.37492 13.1063 0.0393505
H 7.17279 13.2633 -0.883001
H 7.96633 13.8194 0.280159
O -3.42253 -13.6332 -4.66722
H -3.17099 -13.08 -3.92769
H -3.95099 -13.0624 -5.22507
O -17.5748 -15.1839 -17.408
H -18.3924 -15.6515 -17.5782
H -17.3128 -15.4694 -16.5327
O -15.3691 16.2596 -5.81785
H -15.8116 15.4119 -5.86046
H -14.5368 16.1188 -6.26921
O 20.4131 8.01204 27.1934
H 20.2708 7.06902 27.1116
H 21.2497 8.08959 27.652
O -11.641 -18.9009 -20.9884
H -11.8362 -19.2251 -21.8676
H -10.6911 -18.9854 -20.9068
O 24.5574 20.2637 -7.5323
H 25.4541 20.0499 -7.27457
H 24.0998 20.4157 -6.70542
O -9.98226 -11.061 -16.1463
H -9.56988 -11.2884 -15.3129
H -10.8753 -11.3974 -16.0718
O 24.8856 26.4484 -15.0912
H 25.7617 26.268 -14.7502
H 25.0377 26.808 -15.9652
O -18.8945 -19.8351 17.9969
H -18.307 -19.0814 18.0525
H -19.1864 -19.845 17.0853
O -18.0116 16.5668 6.06147
H -18.407 15.7297 5.81833
H -18.7011 17.2122 5.90542
O 8.50199 28.5958 -29.6284
H 8.96673 29.3596 -29.9701
H 8.67099 28.6136 -28.6864
O 20.8459 18.0489 -13.6638
H 20.8173 17.7796 -14.5819
H 19.9269 18.1137 -13.404
O 8.25355 27.6561 2.6471
H 8.23338 28.6081 2.55
H 7.84747 27.3245 1.84623
O -18.841 -13.8681 11.4038
H -18.9733 -13.1572 10.7766
H -18.9936 -14.6662 10.8978
O 27.3186 -19.2072 14.7258
H 26.6307 -18.5415 14.7325
H 27.2873 -19.5758 13.843
O -12.9013 17.0321 -25.1437
H -12.2664 16.7794 -24.4734
H -12.6915 17.945 -25.3409
O 13.495 -11.6012 3.64264
H 12.7148 -12.1496 3.72485
H 13.1559 -10.7312 3.43254
O 22.0972 16.3805 -28.5392
H 22.4661 16.4085 -29.422
H 22.6587 15.7683 -28.0638
O 24.3969 9.53505 -6.97285
H 24.807 9.42403 -7.83061
H 23.4613 9.41654 -7.13695
O 7.08883 -18.3221 26.02
H 7.93774 -18.7346 25.8607
H 7.04831 -18.2156 26.9704
O -8.14051 2.61632 12.0505
H -8.46888 1.96197 12.6672
H -8.34543 2.25683 11.1874
O 10.6594 -3.16292 1.9827
H 9.92255 -3.69334 2.28598
H 10.7265 -3.3576 1.04791
O -4.07583 11.3763 -23.9751
H -3.61512 11.7295 -23.214
H -4.8866 11.0139 -23.618
O -16.9416 -7.38369 7.3823
H -17.3293 -8.11107 6.89569
H -16.9327 -6.65636 6.7601
O 29.4086 -20.9913 11.3317
H 29.254 -20.5615 10.4905
H -29.6454 -21.135 11.3575
O 23.2492 -29.9075 -16.0506
H 23.9254 29.9204 -16.7058
H 22.4395 29.7784 -16.4531
O 23.8443 23.2329 24.8026
H 22.9489 23.509 24.6069
H 24.0235 22.5352 24.1722
O 28.136 -3.2251 7.63382
H 28.3788 -3.63316 8.46496
H 28.4758 -3.82055 6.96584
O -20.8009 -22.5136 -25.3217
H -21.071 -22.5231 -24.4035
H -20.4565 -21.6315 -25.4615
O 10.5664 -18.5589 7.04638
H 10.1292 -18.24 6.25687
H 10.6652 -17.7818 7.5965
O -18.5877 29.177 -17.726
H -18.4569 -29.9409 -18.074
H -19.2234 29.2897 -17.0192
O 14.5777 -26.9782 -4.95862
H 14.8026 -27.7846 -5.42265
H 13.8195 -26.6334 -5.43023
O 3.5722 -13.6542 2.22096
H 3.74886 -14.393 1.6386
H 4.23584 -13.0037 1.99147
O -8.10073 23.7252 4.99502
H -8.97375 23.3358 4.94577
H -8.25997 24.6458 5.20335
O 17.8542 -14.635 -0.448822
H 17.4448 -15.4998 -0.42087
H 18.6398 -14.7585 -0.981636
O -20.0753 -14.8192 8.35445
H -20.4609 -14.2322 9.00487
H -20.7315 -15.5051 8.23128
O 25.0392 14.9444 -17.4402
H 24.4558 14.7763 -18.1802
H 24.535 14.6775 -16.6716
O -15.9329 -26.4091 12.5975
H -15.1184 -26.4972 12.1025
H -15.9584 -27.185 13.1576
O 24.6167 -26.9087 4.16333
H 24.7201 -25.9622 4.06498
H 25.4838 -27.2661 3.9718
O -2.06946 -14.4525 17.7188
H -1.85977 -13.8663 16.9918
H -2.67413 -15.0929 17.344
O -7.12733 5.86814 17.9029
H -7.85162 5.70514 18.5071
H -6.98679 5.02879 17.4647
O -25.084 -4.69277 12.7195
H -25.3189 -4.58992 11.7973
H -24.2192 -5.10268 12.7027
O -0.358146 10.0596 -20.22
H -0.281823 10.7908 -20.8331
H -0.975694 9.45945 -20.638
O 28.5363 13.6418 9.81965
H 28.9159 13.0952 9.13163
H 28.2066 13.0184 10.4669
O -0.769779 0.810984 -27.6214
H -1.04233 1.64601 -27.241
H 0.178019 0.785407 -27.49
O 15.634 1.24533 15.3424
H 15.4219 1.24096 14.409
H 14.7836 1.24168 15.7818
O -9.98184 8.20396 -1.14487
H -10.3002 7.66079 -0.423863
H -9.17366 8.59454 -0.812404
O 28.4072 -27.7257 -22.3872
H 29.2379 -28.1653 -22.5684
H 28.6573 -26.8429 -22.1144
O -18.5348 -3.12959 -8.22624
H -17.7107 -3.08823 -7.74099
H -19.1594 -3.50694 -7.6068
O 14.7771 14.5272 26.6983
H 15.7173 14.4718 26.8696
H 14.6813 14.2402 25.7902
O 20.8416 -20.8813 -1.92452
H 21.0644 -20.6031 -2.81292
H 21.6809 -21.1168 -1.52923
O -26.0161 29.0404 -28.8485
H -25.7358 28.9888 -29.7623
H -25.4188 28.4566 -28.3809
O -18.1254 18.7008 11.277
H -17.9348 19.6342 11.1844
H -17.3932 18.3559 11.788
O 28.8498 -2.98308 10.4495
H 28.1435 -2.84764 11.0812
H 29.215 -3.83803 10.6775
O -12.7509 4.98769 13.1904
H -12.8656 5.25352 12.278
H -13.6288 5.04121 13.5681
O 5.52134 -25.3495 7.31125
H 4.62013 -25.0793 7.48751
H 6.04421 -24.5657 7.47994
O -24.802 18.886 6.4648
H -25.2339 19.1029 7.29103
H -24.6637 19.7312 6.03723
O -5.54032 1.89602 0.41079
H -5.08422 1.22532 0.919074
H -5.04091 1.96128 -0.403186
O -19.5251 26.9038 -19.8764
H -20.3464 26.9646 -19.3886
H -18.9527 26.3775 -19.3181
O 8.11174 -1.47863 -23.6541
H 8.40102 -1.68115 -22.7644
H 8.60895 -0.697325 -23.8961
O 13.5195 4.14936 2.22069
H 12.7564 4.5431 2.64361
H 13.9803 3.69872 2.92841
O -2.89332 -19.9002 -22.3003
H -2.53446 -19.6396 -23.1485
H -2.43007 -20.7089 -22.082
O 11.2053 1.74496 4.68473
H 11.7066 1.41065 5.4285
H 11.6549 1.39496 3.91556
O -20.0958 22.3193 24.9048
H -19.2343 22.4491 25.3014
H -20.2639 23.1305 24.4253
O 18.8301 -23.0559 -8.86811
H 18.4538 -23.3534 -8.03982
H 18.8068 -23.828 -9.43342
O -18.1623 -28.33 -24.7628
H -18.1311 -29.2855 -24.7149
H -18.5651 -28.1452 -25.6112
O 15.3485 -20.9117 27.5497
H 15.2049 -21.5006 26.8089
H 14.844 -21.2988 28.2652
O -26.4465 15.4975 12.2969
H -26.7131 14.7007 12.7554
H -26.645 15.3228 11.3769
O -25.2388 12.9259 20.1149
H -25.3662 12.2202 20.7489
H -25.5237 12.5532 19.2805
O -5.20764 -11.7362 4.04883
H -5.47043 -10.9712 3.53708
H -4.34513 -11.5082 4.3957
O 11.2722 -29.593 -26.2306
H 12.1621 -29.246 -26.1692
H 10.7271 -28.9327 -25.8025
O -27.1308 27.1071 1.52714
H -27.3363 26.2401 1.87708
H -27.8798 27.3257 0.972594
O 27.3154 -25.5317 -13.8914
H 26.6318 -25.7909 -14.5093
H 28.1118 -25.9418 -14.2286
O -6.56844 -22.5688 -18.5602
H -6.38585 -23.4103 -18.1422
H -5.70592 -22.1776 -18.6989
O 17.6258 -29.4145 7.45144
H 16.9665 -28.8388 7.83904
H 17.5051 -29.3158 6.50701
O 6.6575 -24.0607 -6.0064
H 6.18357 -23.2309 -6.0616
H 7.47928 -23.8391 -5.56846
O 2.68888 18.792 10.3446
H 2.84756 19.2673 9.52906
H 3.29614 19.1834 10.9725
O 13.4794 -13.4909 21.0005
H 13.1066 -13.8037 20.1762
H 13.2772 -12.5555 21.0157
O 6.75927 -21.7153 13.6451
H 6.44595 -22.1956 14.4115
H 7.55271 -22.1797 13.3786
O 16.4591 -14.5825 -3.87677
H 15.6716 -14.8421 -4.35497
H 16.7724 -13.803 -4.33546
O 15.6046 13.8795 9.32684
H 15.2353 12.997 9.29532
H 15.1086 14.3708 8.67196
O -9.41166 18.9584 -29.88
H -9.23377 18.8995 -28.9414
H -9.0695 19.8149 29.8641
O -2.07214 9.68512 5.80846
H -1.66438 10.3296 6.38687
H -1.39736 9.01887 5.67802
O -7.79249 29.8694 -2.82712
H -6.87743 -29.9047 -2.66017
H -7.75965 28.9802 -3.17976
O 0.0243297 -8.02217 -2.01574
H 0.706891 -8.51152 -1.55652
H 0.288247 -7.1059 -1.93186
O -28.9541 7.35774 -2.19592
H -28.2732 6.69963 -2.05645
H -29.7668 6.85475 -2.24857
O 7.19511 -22.7536 -9.26233
H 6.49061 -23.1198 -8.72766
H 7.6268 -22.12 -8.68927
O 8.32085 -23.2199 4.3257
H 8.74334 -23.5863 3.54886
H 8.20409 -23.9683 4.91091
O -24.9626 -15.4754 22.5758
H -25.0795 -16.3926 22.8234
H -24.2338 -15.4854 21.9553
O -25.8573 -1.96372 -21.9501
H -26.126 -2.88107 -22.0002
H -26.0545 -1.6082 -22.8167
O -6.76993 16.3615 16.6037
H -7.59783 16.8416 16.6203
H -7.02553 15.4463 16.488
O -26.1519 -25.4781 -0.927191
H -25.7609 -26.0351 -1.60032
H -25.9905 -24.5849 -1.23126
O -12.1086 -14.6247 -26.2527
H -12.9998 -14.9515 -26.3767
H -11.5569 -15.4049 -26.3096
O -6.07328 -7.46914 19.1928
H -5.33683 -6.87442 19.3348
H -6.81151 -6.89353 18.993
O -13.7657 14.0973 -8.3927
H -13.1203 14.1913 -9.09332
H -13.2797 14.2908 -7.59112
O 3.27601 12.2698 -1.60999
H 3.03946 12.5974 -2.47773
H 3.2929 13.0498 -1.05541
O 23.0501 -6.90878 6.98002
H 23.8007 -7.48354 6.83032
H 22.2871 -7.46105 6.80929
O -8.79408 28.0348 -15.7673
H -8.40744 27.6973 -14.9593
H -8.06034 28.4311 -16.2372
O 7.58225 12.8542 4.68448
H 6.94 13.5169 4.43043
H 8.27252 13.3467 5.12853
O -5.96702 -14.5654 -18.5886
H -6.02689 -15.4039 -18.1307
H -5.85062 -13.9193 -17.892
O -2.30413 4.18991 -16.8233
H -1.52614 3.63842 -16.906
H -3.02907 3.57084 -16.737
O -16.9815 27.2615 20.2861
H -17.2724 26.4569 19.857
H -16.0382 27.1452 20.3998
O -8.01661 19.4384 -8.39351
H -7.31096 19.3571 -9.03514
H -7.61638 19.1815 -7.56281
O 26.1479 25.8364 -6.42789
H 25.519 25.2552 -6.00021
H 26.8296 25.9774 -5.77092
O -7.02618 -29.6263 15.384
H -6.63365 -29.4 16.2272
H -7.95474 -29.4185 15.4881
O 24.2872 19.9751 6.77369
H 24.2115 19.2606 6.14123
H 24.7283 19.5829 7.52723
O 18.4199 -0.422532 15.5919
H 19.3174 -0.0898289 15.5991
H 17.9525 0.134422 16.2144
O -17.9986 -29.8576 17.0639
H -17.63 -29.8827 17.947
H -18.9323 29.9723 17.1887
O 26.4869 -17.1403 27.693
H 26.9775 -17.2134 28.5117
H 27.1481 -17.2373 27.0076
O 29.3543 11.8075 -4.44742
H 28.8565 11.0868 -4.8335
H -29.9795 11.3785 -3.91044
O -17.7072 22.2422 25.8317
H -17.8918 21.9803 26.7337
H -17.0332 21.6297 25.5371
O 0.216928 3.43644 -26.0746
H -0.496055 3.67298 -25.4814
H 0.847753 2.97689 -25.5204
O 25.9253 24.3072 -16.8688
H 26.2169 25.2139 -16.7736
H 25.1011 24.268 -16.3836
O 26.9622 -21.5921 -19.8805
H 26.0256 -21.5139 -20.0621
H 27.3863 -21.3812 -20.7123
O 21.874 -9.42828 -6.97941
H 21.9528 -10.222 -7.50856
H 22.0135 -9.72462 -6.07999
O 23.0241 -17.7143 23.0257
H 23.5409 -17.9259 23.8031
H 22.1166 -17.7283 23.3297
O -27.1296 7.11084 3.60069
H -26.301 7.5892 3.57244
H -27.6073 7.50133 4.3325
O 4.17556 17.9939 -20.5744
H 5.07459 18.2435 -20.788
H 4.01238 17.2111 -21.1006
O 10.0242 -12.2155 2.0093
H 10.7883 -11.6517 2.12928
H 9.28646 -11.6091 1.94344
O -19.7909 -7.66792 -16.647
H -20.1722 -6.92166 -16.1845
H -20.301 -7.73611 -17.4541
O -12.1876 26.5782 8.35096
H -12.562 27.2386 8.93397
H -11.3549 26.3418 8.7595
O -20.363 23.3752 6.49147
H -19.7157 22.6707 6.52098
H -20.6845 23.4436 7.39049
O -25.3314 7.15744 18.8409
H -25.2064 6.86803 17.9371
H -25.4026 8.11006 18.7801
O 13.8009 -27.0449 19.0259
H 14.7464 -27.0298 19.1743
H 13.7003 -26.8365 18.0971
O -27.7875 28.4927 -26.4894
H -26.9097 28.3076 -26.8235
H -27.8128 29.445 -26.3959
O 12.3697 -21.2551 -9.07237
H 12.798 -20.9017 -9.8521
H 12.3505 -22.2011 -9.21702
O -23.9364 -27.0756 22.5226
H -24.3747 -27.7094 23.0905
H -23.3907 -27.6087 21.9444
O -11.8414 -13.1305 -6.96606
H -11.3892 -13.9265 -7.24556
H -12.6878 -13.437 -6.64069
O -4.19878 7.76449 -17.1571
H -4.7551 8.23921 -16.5396
H -4.60059 6.89839 -17.2253
O 7.14984 -7.36795 1.87316
H 7.69776 -7.07014 1.14699
H 7.08122 -6.60701 2.44979
O 6.45797 -16.0216 6.42713
H 6.37972 -15.6988 5.52939
H 6.29218 -16.9619 6.35941
O -14.8361 14.1886 25.5016
H -14.7671 14.9896 24.9821
H -14.544 13.4939 24.9114
O -25.8606 -28.4398 5.07617
H -25.7794 -28.7626 4.17874
H -24.9664 -28.213 5.33151
O -12.1919 2.67109 -2.03266
H -11.9409 3.55297 -2.30748
H -11.6034 2.46985 -1.30508
O 21.2971 -20.4072 13.9281
H 21.1745 -20.82 14.783
H 20.7606 -19.6154 13.9648
O 11.1495 8.65927 26.5711
H 11.5791 8.52646 25.7261
H 10.3611 9.16071 26.3632
O 3.71623 -7.88944 -2.97145
H 3.94504 -6.96321 -3.04874
H 3.19653 -8.07434 -3.75373
O -12.2117 -6.25107 13.7979
H -11.6573 -6.86964 13.3222
H -12.478 -5.61095 13.1379
O 12.4484 19.7663 -14.2034
H 13.1912 20.319 -14.4465
H 12.8449 19.0008 -13.7875
O 10.2784 -3.42042 -15.0515
H 10.8725 -4.17073 -15.0661
H 9.56841 -3.6879 -14.4678
O 23.306 24.2469 -6.21008
H 23.0738 23.3601 -5.93443
H 22.4661 24.6718 -6.38385
O -14.5108 8.55323 4.93743
H -14.0224 8.70976 4.12923
H -14.7688 7.63283 4.88746
O -28.0433 -19.3491 -19.8549
H -27.9061 -19.9328 -20.601
H -28.98 -19.4139 -19.6687
O 21.4142 23.5807 7.6995
H 20.5141 23.2951 7.54335
H 21.9287 22.7738 7.68093
O -13.9275 0.17723 5.59489
H -14.0008 -0.77699 5.57689
H -14.8164 0.489435 5.42579
O 8.18264 4.62063 25.0328
H 7.75426 3.90998 24.5556
H 9.01088 4.24454 25.3307
O -9.81331 -27.4895 -5.08369
H -10.0029 -27.4747 -6.02181
H -8.9196 -27.8273 -5.02478
O -12.2601 -0.344724 -27.8101
H -11.5098 0.207132 -28.0309
H -13.0236 0.188796 -28.0306
O -24.0761 -5.46877 -28.1266
H -24.0707 -6.42218 -28.0417
H -23.405 -5.2825 -28.7832
O -15.2599 -12.9482 13.8851
H -16.1639 -12.6649 13.7481
H -14.7623 -12.1342 13.9618
O -11.8943 2.61334 11.7955
H -11.9529 3.20284 12.5473
H -12.7824 2.58984 11.4392
O 8.6013 -23.7383 -11.5144
H 8.85419 -23.0803 -12.1619
H 8.30156 -23.2304 -10.7604
O -15.002 -3.29906 14.3411
H -15.8528 -3.73733 14.3243
H -14.407 -3.91346 13.9112
O -11.2001 29.2053 -5.54364
H -10.9311 29.7204 -4.78307
H -11.8433 29.7554 -5.99082
O 12.8408 -27.7541 2.26901
H 13.654 -27.9299 2.74227
H 12.3948 -27.0913 2.7963
O 5.21906 19.6129 2.33004
H 5.22304 20.4119 2.85721
H 4.98607 19.9075 1.4496
O 28.9104 0.670793 29.5716
H 29.1225 0.59538 28.6413
H 29.2521 -0.133788 29.9617
O -20.8536 7.24918 -0.0142941
H -20.0096 7.29194 -0.463835
H -20.6732 7.57735 0.866609
O -0.389479 -6.53379 -15.6971
H -1.11259 -5.94166 -15.4904
H -0.577257 -6.84154 -16.5838
O -21.5451 -16.2974 28.6496
H -21.9753 -16.8499 27.997
H -21.5203 -16.8354 29.4408
O -11.9061 26.4609 -0.707039
H -11.3211 26.2968 0.0326109
H -11.8519 27.4056 -0.851008
O 28.1057 7.05089 19.4912
H 29.0243 7.07097 19.2229
H 27.7432 6.28343 19.0487
O 5.13332 -4.72436 -5.58022
H 5.23387 -5.396 -4.90567
H 5.99512 -4.31188 -5.63854
O 28.0515 28.423 20.9611
H 28.9392 28.6 20.6498
H 27.5158 28.4172 20.1679
O 3.07971 20.5625 -19.7153
H 3.32446 20.4082 -20.6277
H 3.78682 21.1046 -19.3655
O -15.7607 -28.6619 -21.8442
H -16.0831 -29.4759 -21.4574
H -16.0858 -27.9746 -21.2626
O -8.54966 -25.0653 -18.5057
H -8.4 -25.2202 -19.4383
H -7.77841 -25.4333 -18.0745
O 18.158 -3.94735 -22.9011
H 18.1419 -3.03386 -23.1866
H 17.7994 -3.92785 -22.0139
O 28.6891 -5.52308 29.7085
H 29.1444 -6.31801 29.986
H 28.3269 -5.15944 -29.4835
O 18.7378 -24.153 -22.5209
H 18.6108 -23.2264 -22.3172
H 18.6762 -24.5955 -21.6743
O -14.6285 -22.3697 3.64276
H -15.0143 -23.0861 4.14691
H -13.9714 -21.9917 4.2272
O 27.8219 -7.88425 9.74249
H 28.6132 -8.21653 9.31859
H 28.0177 -7.92087 10.6787
O -29.2905 -5.06665 2.99355
H -28.473 -5.47335 3.28096
H -29.0174 -4.39348 2.37025
O 15.0772 -29.3904 -6.29122
H 14.2455 -29.5797 -5.85689
H 14.8271 -29.0112 -7.13377
O -4.37397 22.777 -26.2948
H -4.24468 21.9245 -25.8792
H -4.12532 23.4118 -25.6229
O 5.26836 20.6824 -9.13745
H 6.00599 20.0939 -8.97658
H 5.58228 21.5425 -8.85846
O -5.33366 -5.69237 27.0866
H -5.44666 -4.95381 27.685
H -6.13034 -6.21206 27.1937
O -24.2988 -8.03023 12.7043
H -24.1078 -7.61898 13.5473
H -24.6004 -8.9103 12.9295
O -4.9813 17.8469 -22.8887
H -4.9596 17.2837 -22.1151
H -5.22416 18.7091 -22.5512
O -28.8998 -28.0369 22.6804
H -28.4068 -27.9809 23.499
H -28.9914 -27.1285 22.3928
O -14.77 -12.8212 8.63208
H -15.4645 -13.3255 8.20825
H -15.2105 -12.0396 8.96571
O 22.9733 16.9018 21.8941
H 22.6312 16.0876 22.2634
H 23.4826 16.6245 21.1325
O -11.2729 9.19152 28.3533
H -10.8627 8.32671 28.348
H -11.0856 9.54069 29.2246
O 13.1661 -15.9639 -27.087
H 13.5059 -16.8483 -27.2236
H 12.7612 -15.7307 -27.9224
O 16.3836 8.1972 17.6101
H 15.9764 8.24069 16.7449
H 17.3237 8.24195 17.4354
O 16.6347 -9.54181 23.9822
H 17.0496 -9.41791 24.8359
H 16.5806 -10.4917 23.8773
O -28.8446 -26.1631 18.594
H -28.9202 -25.2268 18.7782
H -29.5769 -26.3521 18.0073
O -4.01153 -24.8508 23.3696
H -3.92445 -24.2397 22.6381
H -4.93861 -24.8131 23.6048
O 3.95844 10.0851 -15.014
H 4.64294 9.65071 -14.5051
H 3.18815 10.0654 -14.4461
O 7.77334 -5.72719 5.92483
H 8.61115 -5.96353 6.32289
H 7.52245 -6.49912 5.41748
O -17.4779 -9.33872 -14.9665
H -16.5235 -9.32879 -14.8936
H -17.7018 -8.47182 -15.305
O -18.9575 -11.8318 -15.8658
H -18.4844 -12.6421 -16.0551
H -18.271 -11.19 -15.684
O 16.7737 16.5659 11.1284
H 16.9417 17.4894 10.9406
H 16.9921 16.1119 10.3145
O 16.2823 4.43654 -28.8576
H 16.2068 4.75478 -27.958
H 15.4298 4.62363 -29.2507
O 26.2792 2.71298 -25.6568
H 25.6036 3.06811 -25.0791
H 25.9593 1.84238 -25.8933
O -18.3385 -23.5757 16.2445
H -19.0105 -24.1755 15.9207
H -17.9467 -24.0333 16.9884
O 12.3437 -20.0597 -6.35545
H 12.3587 -20.6355 -7.12
H 13.1583 -19.5606 -6.41477
O 19.8438 -19.2635 20.5871
H 19.0961 -19.8292 20.3946
H 20.5705 -19.6523 20.1002
O -5.28992 3.18633 -5.27737
H -6.07676 3.57997 -4.90033
H -4.86814 2.74163 -4.54213
O 9.07734 14.9421 6.0436
H 9.23882 14.4703 6.86064
H 8.16003 15.21 6.09843
O -0.548473 -1.57337 27.8896
H -0.281976 -2.32299 28.4218
H -1.40121 -1.31945 28.2426
O -27.2137 -14.6197 1.581
H -27.4328 -14.0497 2.31813
H -27.8652 -14.4084 0.912337
O -26.8105 23.6475 -18.5184
H -26.5041 22.9832 -17.9011
H -26.4732 23.3604 -19.367
O 1.24789 19.5402 24.6738
H 0.328739 19.5391 24.4066
H 1.50282 18.6177 24.6607
O 25.0751 -22.0484 -29.0439
H 24.8853 -21.1198 -28.9104
H 25.9583 -22.1655 -28.694
O -0.187628 -24.0561 9.52818
H -0.544802 -23.3457 10.0611
H 0.184458 -23.6181 8.76268
O -2.05932 -26.7692 29.0528
H -1.52927 -27.142 29.7573
H -2.92058 -27.1726 29.1613
O -8.16633 21.2533 -29.9586
H -7.34388 21.632 -29.6482
H -8.35588 21.7237 29.2296
O 1.87691 20.3637 -6.02437
H 1.70839 20.9286 -6.77849
H 1.49237 20.8317 -5.28321
O -27.6285 17.5013 18.7317
H -28.5046 17.5359 18.3478
H -27.7816 17.4593 19.6757
O 27.043 -12.302 -19.4344
H 26.1793 -11.941 -19.634
H 27.6576 -11.6988 -19.8522
O -19.8096 7.45579 -6.23345
H -20.3232 6.6972 -5.95597
H -19.7265 7.35549 -7.18175
O -3.60947 -11.2804 -6.88212
H -4.2714 -11.4753 -7.54552
H -2.87449 -10.9169 -7.37599
O 15.2537 -18.7253 22.511
H 15.8048 -19.3461 22.0344
H 15.6368 -17.8691 22.3206
O -5.76918 -23.5853 4.42813
H -5.66899 -24.4315 3.99203
H -5.18273 -22.9984 3.95082
O 15.6444 -6.88823 17.3983
H 15.1224 -6.51706 16.687
H 16.2787 -7.4554 16.9599
O 26.2967 -20.8984 -2.03029
H 26.2913 -20.0248 -2.42144
H 25.5257 -20.9122 -1.46317
O -23.0281 -11.3598 11.0999
H -23.8846 -11.5151 10.7017
H -22.9621 -10.407 11.1633
O 21.5745 -7.13698 16.9793
H 21.7507 -7.48491 16.1052
H 20.9269 -6.44666 16.8368
O -27.1499 27.0809 9.97417
H -28.0822 27.0232 9.7649
H -26.7281 26.4817 9.35826
O -26.236 2.03812 18.5588
H -26.8095 2.80053 18.6363
H -26.8331 1.30003 18.4367
O -18.2413 -16.7897 -12.2041
H -17.6942 -17.4405 -12.6438
H -18.8393 -16.4798 -12.8843
O 12.7304 -25.5902 21.797
H 12.8916 -25.5832 22.7405
H 13.0623 -26.4385 21.5031
O -17.7948 -17.8091 -15.8674
H -17.123 -17.6009 -16.5167
H -17.6916 -17.1388 -15.1919
O 27.5712 14.3301 -10.897
H 26.8023 14.8545 -10.6734
H 27.6834 14.4582 -11.8389
O -5.9434 17.3167 3.93695
H -6.318 16.4468 3.79829
H -6.5728 17.7613 4.50476
O -10.7687 5.16213 -2.75502
H -11.3429 5.8623 -3.0652
H -10.2128 5.58104 -2.09792
O 7.68474 9.69939 -29.0071
H 7.41263 10.2357 -29.7517
H 8.41535 9.17864 -29.3406
O 2.60495 -21.1565 -17.9428
H 1.8988 -21.1991 -17.298
H 2.66633 -22.0462 -18.2906
O -14.3633 10.1323 7.17431
H -14.3775 9.45615 6.49694
H -14.9433 9.79866 7.85872
O 6.7132 28.0652 14.2402
H 5.87048 28.2698 13.835
H 7.03314 27.3034 13.7569
O 20.5249 -25.2357 20.1469
H 20.5874 -24.2858 20.0468
H 21.4123 -25.5535 19.98
O -21.0838 26.6073 -22.6794
H -21.0534 26.2775 -21.7814
H -21.9448 26.3425 -23.0033
O 24.741 23.8884 2.64162
H 25.0485 24.7815 2.48679
H 23.8102 23.9132 2.41976
O -24.7043 -13.6705 24.8861
H -24.2348 -12.8365 24.8739
H -24.7142 -13.9538 23.9718
O 11.109 18.0161 20.8196
H 11.7411 17.2978 20.847
H 10.4544 17.7851 21.4786
O -10.4891 1.69613 -28.1657
H -11.104 2.4259 -28.0912
H -10.3279 1.61301 -29.1056
O -19.9924 25.3045 -0.524147
H -20.4904 25.3841 0.289402
H -20.4209 24.5925 -0.999202
O 12.4938 -8.80665 3.58428
H 12.9891 -8.19526 3.03922
H 11.5947 -8.4794 3.55576
O 11.4492 -12.4753 15.0828
H 10.8977 -13.1487 14.6845
H 11.6482 -11.8731 14.3659
O 28.7729 27.2225 -24.3901
H 28.4262 27.9149 -23.8274
H 29.7064 27.1883 -24.1811
O 5.68629 -13.8179 15.5332
H 5.75656 -14.6453 15.057
H 4.90071 -13.9167 16.0711
O 23.131 -25.4866 -4.73848
H 23.3458 -25.1481 -3.86928
H 23.3727 -26.4121 -4.70211
O -16.7983 14.0233 -9.25456
H -17.4142 13.9998 -9.98694
H -15.9376 14.0969 -9.66701
O -3.77575 -8.55392 -14.9499
H -2.83713 -8.43906 -14.8015
H -3.89352 -9.50128 -15.0197
O -3.63175 28.9467 7.75327
H -2.82938 29.4416 7.58745
H -4.29241 29.3699 7.20496
O -8.29072 -25.766 4.53418
H -8.36361 -24.8523 4.81014
H -9.19626 -26.0669 4.45891
O 1.96596 -18.8729 -9.04879
H 1.30102 -19.5052 -8.77618
H 1.5013 -18.2721 -9.6313
O -23.7686 24.0663 9.72506
H -23.6907 24.0581 10.679
H -24.6141 23.6531 9.54974
O 5.58996 -6.85321 -10.2242
H 4.6795 -6.81811 -9.93077
H 5.58743 -7.49 -10.9388
O 12.3283 24.8418 -26.5114
H 13.1251 24.614 -26.9904
H 12.62 24.9739 -25.6094
O -15.2867 -20.6704 -18.566
H -15.0105 -21.1283 -17.7721
H -16.1302 -20.2803 -18.3368
O -8.52987 -22.4787 -3.37261
H -9.08507 -23.2319 -3.57415
H -8.59884 -22.3768 -2.42335
O 4.3636 -24.6331 -1.28392
H 3.50148 -24.2177 -1.30451
H 4.68293 -24.4793 -0.394764
O 7.23773 -9.54624 -3.55901
H 7.57656 -10.3549 -3.94294
H 7.55336 -9.55891 -2.65544
O -27.2967 -20.9506 11.2114
H -26.8088 -21.7396 10.9753
H -26.839 -20.6059 11.9782
O -18.3749 10.1973 -29.8712
H -17.7815 9.56678 29.7206
H -18.9069 9.67321 -29.2725
O -9.83773 28.1068 12.3498
H -9.85735 27.9152 13.2875
H -8.94482 28.4099 12.1854
O -14.0781 -6.42168 -18.9449
H -13.7198 -6.21782 -18.081
H -14.8342 -5.84152 -19.0341
O -23.417 15.265 14.3372
H -24.1931 14.7143 14.2348
H -23.1855 15.522 13.4447
O -3.28523 21.493 24.2356
H -3.11673 22.3354 24.6578
H -2.66212 21.4595 23.5097
O -21.6005 23.9989 -2.37822
H -21.0102 23.7582 -3.09225
H -22.1113 24.7303 -2.72527
O 9.95406 -22.5354 -15.7761
H 9.11549 -22.7528 -16.1832
H 10.1473 -23.2832 -15.2107
O -25.7977 10.2359 -14.9822
H -25.3843 10.6688 -15.7291
H -26.393 10.8937 -14.6229
O -5.13867 -24.6666 1.47841
H -4.27932 -24.4939 1.86303
H -5.41587 -23.8227 1.12164
O 10.9593 1.78066 -16.6071
H 10.81 1.02057 -17.1694
H 11.5606 1.46554 -15.9323
O -1.21504 -12.8504 -20.6212
H -0.662269 -13.5823 -20.895
H -0.980247 -12.7019 -19.7052
O -0.175782 -24.6737 21.4497
H -0.154874 -23.9358 20.8404
H -0.285399 -25.4432 20.891
O -10.6635 -6.75101 -25.1906
H -10.541 -6.9507 -26.1187
H -10.027 -7.30582 -24.7397
O 5.37559 -18.6782 5.99233
H 4.5831 -18.1418 6.01322
H 5.18302 -19.3661 5.3552
O 11.3392 25.0071 23.8086
H 12.2124 24.6157 23.7876
H 11.2097 25.3523 22.9252
O 22.9449 0.450291 -2.35461
H 22.4021 -0.336734 -2.30777
H 22.4611 1.10578 -1.85215
O -1.10512 20.4881 0.444995
H -0.408692 21.0459 0.791593
H -1.55087 21.0349 -0.201983
O -25.504 -0.578504 17.4527
H -26.3025 -0.449534 16.9408
H -25.08 0.27967 17.4563
O -1.62805 6.57947 -18.7948
H -1.94986 5.69148 -18.6394
H -2.16136 7.13151 -18.2229
O -2.52784 9.13082 19.5432
H -3.34808 9.47232 19.1871
H -2.57474 9.32223 20.4799
O -17.9496 -14.2741 -10.2925
H -18.3707 -14.6132 -11.0824
H -17.0644 -14.0421 -10.5732
O -7.24738 -1.67105 -18.0776
H -6.48509 -1.59818 -17.5033
H -6.88308 -1.90404 -18.9315
O 27.3601 -18.2451 -8.45744
H 28.0636 -18.5419 -9.03471
H 27.7505 -18.2454 -7.58349
O 22.0675 -15.5692 18.7656
H 21.5653 -15.2706 18.0075
H 22.9722 -15.331 18.5631
O -3.84892 -2.66057 -6.63132
H -2.9992 -3.04822 -6.84092
H -3.99353 -2.01231 -7.32058
O 23.7679 24.7797 -12.7366
H 23.9003 24.571 -13.6613
H 24.3615 24.1911 -12.2704
O -10.6223 5.85478 28.354
H -11.333 6.08514 28.9524
H -10.3356 4.98877 28.644
O 1.01256 20.9937 -22.461
H 0.652856 20.6983 -23.2974
H 1.8063 21.4737 -22.6972
O -25.8895 12.928 26.4047
H -25.1664 12.9767 25.7794
H -25.4686 12.9798 27.2629
O 13.7931 -17.3344 5.62251
H 12.9261 -17.0173 5.36974
H 13.6194 -18.019 6.26862
O -18.3703 -7.5294 23.2951
H -18.6539 -7.95475 24.1044
H -17.4557 -7.79264 23.1933
O -10.2293 -7.19601 -3.2276
H -10.6886 -8.00399 -2.99846
H -9.40436 -7.49012 -3.61376
O 9.95797 -25.1166 -14.5068
H 10.6653 -25.4585 -15.0537
H 9.17755 -25.1783 -15.0576
O 20.5736 -4.37659 -18.8092
H 20.8549 -3.63571 -19.346
H 20.363 -3.99061 -17.959
O 15.8195 20.4416 17.5575
H 15.2565 19.9527 18.1577
H 16.7029 20.3224 17.9063
O 20.1332 -7.14401 -18.2429
H 21.0495 -7.41612 -18.2939
H 20.1699 -6.19058 -18.1664
O -14.139 12.4915 -26.1604
H -13.7822 12.4357 -25.274
H -15.0848 12.5678 -26.0341
O 26.006 0.520234 -12.6193
H 26.0083 0.40873 -11.6686
H 25.2063 0.0821191 -12.9104
O -21.0422 -1.64211 -14.909
H -20.3679 -2.28567 -15.1268
H -21.7222 -2.1481 -14.4642
O -4.1845 4.59331 25.2867
H -4.66865 5.34236 25.6342
H -4.64501 3.82864 25.6323
O -17.997 -24.4525 0.156264
H -17.79 -25.0479 0.876641
H -17.3351 -24.6414 -0.508908
O 17.7655 14.2076 -22.2085
H 17.1116 14.6539 -22.7465
H 18.2452 13.6535 -22.8243
O -9.34536 -10.4527 12.2694
H -10.1704 -9.97068 12.3252
H -9.41068 -11.1201 12.9524
O 2.95505 -27.7452 7.14003
H 3.72449 -28.2941 6.98843
H 2.21307 -28.3445 7.05901
O 29.471 -26.8658 -2.88482
H 28.7213 -26.8241 -2.29104
H -29.9498 -27.5203 -2.4945
O 10.2005 17.5432 7.90369
H 9.74694 16.9153 8.46606
H 11.1298 17.3547 8.03436
O -15.22 -8.16271 -11.247
H -14.3873 -7.85109 -10.8924
H -15.7864 -7.39106 -11.243
O 22.0433 21.6346 28.461
H 22.9847 21.8005 28.5102
H 21.6847 22.4119 28.0326
O 14.0698 -19.0731 3.51733
H 14.3248 -19.8262 4.05031
H 14.0653 -18.3367 4.12887
O -20.3027 8.29456 -3.24479
H -20.0229 8.9356 -3.89822
H -20.8454 7.67539 -3.73307
O -11.7549 -10.6075 -11.3292
H -12.36 -10.1775 -11.9335
H -10.8902 -10.4678 -11.7155
O 7.73048 -13.4007 -27.7899
H 7.17223 -12.6255 -27.8495
H 8.07115 -13.383 -26.8956
O -8.35479 0.930645 -19.8453
H -8.84508 0.152921 -20.1117
H -7.9194 1.22555 -20.6451
O -8.20181 -27.7834 10.5134
H -8.98606 -27.7406 11.0606
H -7.47395 -27.7253 11.1324
O -27.0863 14.9082 -8.14967
H -26.1933 14.5863 -8.02611
H -27.2779 14.7363 -9.0716
O 15.4031 14.39 -3.7261
H 15.1209 14.779 -2.89833
H 15.882 15.0902 -4.16942
O 19.6844 -9.34802 22.257
H 19.8371 -9.84476 23.0609
H 18.7405 -9.41145 22.1114
O -6.26483 13.4956 -0.0801887
H -6.26733 13.0321 -0.917701
H -6.55149 12.8413 0.557002
O -3.88778 1.95043 21.3625
H -3.09076 2.46296 21.2272
H -4.34511 1.99178 20.5226
O -10.4087 1.87233 -12.065
H -10.9188 2.16406 -11.3094
H -11.0557 1.75454 -12.7604
O -26.9683 24.8674 -12.3542
H -26.0849 24.5633 -12.1464
H -26.9672 24.9762 -13.3052
O 5.10849 5.6076 -0.291507
H 5.54535 6.15918 -0.940462
H 5.77148 5.45941 0.382824
O 3.2358 -22.8052 -9.93284
H 3.63742 -22.0287 -9.54297
H 2.76151 -23.2181 -9.21116
O 15.7298 5.28362 13.6628
H 16.4297 5.71912 13.1763
H 16.1471 4.98982 14.4725
O 25.8178 25.8023 27.2689
H 25.0836 25.3481 27.6824
H 25.4674 26.1151 26.4348
O 17.4928 -0.725796 11.0296
H 18.384 -1.04814 10.8954
H 16.9972 -1.4975 11.3037
O -12.8298 -11.412 -26.2632
H -13.0455 -12.3316 -26.4177
H -13.5122 -10.9246 -26.7247
O 7.91954 26.575 -2.78448
H 8.84242 26.7346 -2.58677
H 7.92378 26.2041 -3.66687
O 13.2264 29.347 -21.8562
H 12.8514 29.6117 -21.0163
H 12.5414 28.822 -22.2701
O -3.34467 -0.678201 -16.6979
H -3.61262 0.222644 -16.8793
H -3.24996 -0.713338 -15.7461
O -16.1591 -4.83262 28.1327
H -16.8796 -5.27757 28.579
H -15.7257 -5.52233 27.63
O 19.5294 1.93585 18.9207
H 19.7074 1.04001 19.2071
H 18.9692 2.30011 19.606
O 16.8676 27.0418 20.9714
H 16.4014 26.7913 20.1738
H 16.8216 27.9978 20.986
O 23.0139 -25.9623 24.4462
H 23.0515 -25.2131 25.0408
H 23.8178 -26.4504 24.6241
O -6.3434 22.8705 -6.59432
H -5.86432 22.356 -7.24393
H -7.05989 22.2996 -6.31693
O -4.43518 16.1366 9.79676
H -4.91163 15.3076 9.75199
H -4.50029 16.4989 8.91316
O -17.4373 -11.2879 14.3562
H -17.215 -10.8561 13.5314
H -18.3387 -11.5867 14.2354
O 22.3455 5.27845 -10.1926
H 22.9941 5.9059 -10.5116
H 22.0682 4.80131 -10.9747
O -6.16761 1.40412 16.4602
H -5.41621 1.13744 16.9898
H -5.90523 1.21544 15.5592
O -7.93438 22.1045 -17.2066
H -8.33798 21.477 -17.8062
H -7.58204 21.5665 -16.4976
O 18.2802 23.0215 23.4323
H 17.3283 23.1145 23.4703
H 18.5591 23.0328 24.3479
O 27.3166 -26.6758 -26.7001
H 27.6071 -27.5618 -26.9166
H 26.3655 -26.748 -26.6197
O 26.3274 13.0417 1.22026
H 27.0154 13.0686 1.88522
H 26.2062 12.1098 1.03797
O 4.6784 12.4193 -4.50791
H 3.89299 11.8764 -4.43995
H 4.94541 12.3415 -5.42381
O -9.62347 0.0081484 19.8878
H -9.19633 0.0766503 20.7416
H -10.0038 -0.870205 19.8795
O -5.81435 8.66241 16.0636
H -5.74432 9.46845 15.5521
H -5.6791 7.9612 15.4262
O -0.937516 11.0634 18.4369
H -1.36037 10.2127 18.5541
H -1.66269 11.68 18.3361
O -25.9081 -23.9786 -16.3061
H -26.6075 -23.3797 -16.5676
H -26.2993 -24.5195 -15.6201
O -19.4444 13.9402 9.68194
H -20.0842 13.4124 10.1598
H -18.8618 14.2828 10.3597
O -12.1574 7.18293 5.95799
H -12.3141 8.09454 6.20426
H -11.4604 6.89193 6.54592
O -7.78791 -22.5616 26.2111
H -7.97507 -23.3376 25.683
H -8.62332 -22.3463 26.6258
O 4.11117 -19.5773 10.268
H 3.32508 -20.1155 10.3607
H 4.59522 -19.7172 11.0818
O -17.415 -13.5786 8.1658
H -17.7884 -12.8075 8.59281
H -18.1743 -14.1001 7.90559
O 28.9486 -24.2237 -6.67127
H 29.6018 -24.0715 -5.98838
H 28.657 -25.1241 -6.52814
O 18.0917 15.3387 6.52458
H 17.9245 16.1974 6.9129
H 18.5208 15.5317 5.69097
O -24.5572 -28.7005 -19.6249
H -23.9688 -29.4398 -19.7782
H -24.4533 -28.1468 -20.3987
O 5.02767 -25.1742 25.1496
H 4.82463 -25.6313 24.3335
H 4.24134 -25.2788 25.6853
O 24.3802 -11.4629 -20.3067
H 24.4924 -12.1438 -20.9701
H 23.6705 -11.7842 -19.7506
O 22.4861 19.3411 -27.9771
H 22.7671 18.4295 -27.8978
H 22.0427 19.3828 -28.8244
O 3.44756 7.91947 -2.41445
H 3.84756 7.17379 -2.86188
H 4.18652 8.47484 -2.16598
O 23.5802 -23.5803 23.1203
H 23.3436 -24.5006 23.236
H 23.2074 -23.139 23.8835
O 7.84772 1.88961 -22.0049
H 6.92127 2.10447 -22.1133
H 8.26971 2.24554 -22.7869
O 19.0943 28.7523 28.3288
H 18.2861 28.8803 28.8254
H 19.5188 28.0047 28.7496
O 26.397 3.59532 15.2317
H 25.5352 3.19876 15.3594
H 26.2109 4.46464 14.8769
O 7.40719 -6.05501 13.348
H 7.74015 -6.04849 12.4506
H 6.59416 -6.55778 13.2987
O 22.6771 -22.774 -3.17483
H 23.1513 -23.483 -2.7404
H 21.798 -23.125 -3.31709
O -20.9106 17.8918 -8.89262
H -19.981 17.744 -8.71846
H -21.2662 17.0182 -9.05533
O -3.00684 -4.06365 4.89145
H -2.57769 -4.83862 5.25406
H -2.42299 -3.77143 4.19148
O 4.4076 25.6587 -13.2007
H 3.72447 25.1076 -13.5826
H 4.65248 25.2107 -12.391
O -5.03259 23.9008 22.6707
H -5.60996 24.3446 23.292
H -4.86224 23.0472 23.069
O -28.6904 24.3795 -8.94285
H -28.8896 24.0867 -9.83212
H -28.3323 25.2601 -9.05469
O 10.8904 12.9346 -24.7832
H 11.6168 12.32 -24.6794
H 11.2893 13.798 -24.6754
O -7.50129 24.3573 21.6386
H -6.77999 24.0585 22.1924
H -7.07512 24.6941 20.8505
O -24.6323 -17.0884 -4.76726
H -24.5057 -16.9555 -3.82783
H -25.4798 -17.5281 -4.83537
O 13.5388 -17.6785 8.7712
H 13.6676 -18.4223 9.35977
H 12.6825 -17.3262 9.01348
O -17.3103 -24.4068 8.43041
H -16.8488 -23.5828 8.58619
H -18.2378 -24.1729 8.46601
O 23.842 -17.2307 -27.2441
H 23.6941 -17.8499 -26.5293
H 22.9673 -17.0455 -27.5859
O 14.0838 -27.6199 15.7674
H 13.5959 -26.8222 15.972
H 15.003 -27.3696 15.8607
O 21.5571 -15.0717 -1.23186
H 22.2066 -14.7876 -0.588623
H 21.2404 -14.2598 -1.62782
O -1.68971 -23.1462 25.3367
H -2.14367 -23.3571 26.1526
H -1.47577 -23.9971 24.9542
O 12.3451 13.1433 -10.0328
H 12.0866 14.0639 -9.98968
H 13.098 13.1328 -10.6238
O 1.73182 2.49816 5.76533
H 1.41751 2.07705 6.5654
H 2.6858 2.47211 5.83927
O -18.9518 -6.27647 20.5307
H -18.4649 -6.45298 21.3357
H -19.7851 -5.91226 20.8293
O -23.8817 14.3369 -3.47269
H -23.785 13.5418 -2.94844
H -23.3001 14.203 -4.2211
O 22.8362 21.6056 0.0846013
H 22.1741 21.5224 -0.601596
H 23.46 22.2447 -0.260024
O 28.5315 1.6254 16.804
H 27.9795 0.990282 16.3477
H 27.9541 2.37105 16.968
O -22.1216 -15.636 -10.0559
H -21.5233 -15.1321 -10.6075
H -21.5518 -16.0847 -9.43124
O -16.3158 5.05252 13.4848
H -15.81 4.50241 12.8866
H -16.6685 5.74862 12.9305
O 16.0224 4.48844 -20.0861
H 16.9368 4.21043 -20.1402
H 15.9972 5.32289 -20.5544
O 24.5289 5.39937 13.9053
H 24.3915 4.50194 13.602
H 24.063 5.44447 14.7403
O -8.78116 28.1519 26.6918
H -9.1676 28.9725 26.9976
H -9.07885 28.0694 25.7858
O 2.54418 11.3166 -19.802
H 2.21799 10.8469 -20.5696
H 2.87492 10.6298 -19.2231
O 15.8185 15.7661 15.1599
H 15.1838 15.9314 14.4627
H 16.6513 16.077 14.8049
O 1.84624 -9.25839 22.8978
H 1.44494 -8.71012 22.2236
H 2.78742 -9.12177 22.7895
O -1.49413 -26.1028 -15.0935
H -0.619854 -26.0785 -15.4824
H -1.68781 -25.1898 -14.881
O 23.4005 12.6559 -19.5352
H 23.2512 13.3392 -20.1887
H 22.815 12.8828 -18.8127
O -26.7401 26.2906 28.296
H -26.5722 25.4849 27.8073
H -26.438 26.1001 29.184
O 14.8541 21.5415 -1.9193
H 14.8056 22.3512 -1.41112
H 14.8167 20.8445 -1.26431
O -16.5372 -7.82947 20.3756
H -16.1206 -7.8747 19.515
H -17.3791 -7.40414 20.2126
O -29.287 -3.13528 0.712859
H -29.7923 -3.34889 -0.0715367
H -29.5933 -2.26443 0.965889
O -14.4568 -27.3791 19.3723
H -15.3189 -27.4534 19.7815
H -14.454 -26.5082 18.9751
O -20.0937 9.44651 4.62096
H -20.008 8.60181 5.06296
H -19.216 9.63319 4.28779
O -28.5253 -2.91537 -2.55765
H -28.0217 -3.61636 -2.14382
H -29.3491 -2.89203 -2.07076
O 19.1918 -23.4482 17.6202
H 19.3881 -24.0513 16.9033
H 18.2773 -23.6261 17.8398
O -28.8014 -22.8002 -11.8938
H -29.4316 -22.1189 -12.1282
H -28.1987 -22.8353 -12.6365
O -17.8918 24.9791 -18.4117
H -17.2443 24.3708 -18.7681
H -17.4236 25.8104 -18.3351
O 25.1018 27.667 22.9617
H 25.4279 26.7847 23.1385
H 25.8801 28.2229 23.001
O -27.9089 -4.53448 -4.72092
H -27.0301 -4.17896 -4.85381
H -28.3568 -3.87537 -4.19062
O 4.20045 27.7399 7.79858
H 4.30719 28.6905 7.83504
H 4.27567 27.5255 6.86875
O -19.1156 -10.136 -8.86316
H -19.5179 -11.0029 -8.91632
H -18.5489 -10.0867 -9.63305
O -5.02485 24.1378 29.7419
H -5.53763 24.761 -29.7434
H -4.75697 24.6303 28.9661
O -12.1928 -22.7716 8.83244
H -11.7215 -23.5184 8.46307
H -11.5195 -22.1041 8.96396
O 17.82 -0.293926 27.8782
H 18.3682 0.451699 28.1225
H 18.3964 -1.05344 27.9623
O 2.97596 25.3053 14.0153
H 2.54006 24.9645 14.7964
H 2.52452 26.1284 13.8283
O 22.6099 18.8059 -24.869
H 21.8277 19.184 -25.2709
H 22.5589 19.0697 -23.9502
O -13.2459 -4.39738 12.2467
H -13.5833 -3.53261 12.0131
H -12.8542 -4.72848 11.4385
O -7.33472 27.5454 -9.89706
H -7.29081 28.4668 -10.1524
H -6.87186 27.5059 -9.06014
O -24.006 25.1857 -6.22674
H -24.2072 24.3966 -5.72363
H -24.3122 24.9902 -7.11234
O -8.58182 -17.31 -28.7442
H -8.94587 -17.0395 -29.5871
H -7.95804 -16.6195 -28.5195
O -16.2677 -1.4876 28.6799
H -16.9105 -1.33456 27.9872
H -15.4245 -1.49705 28.227
O -29.8346 26.8022 14.2147
H 29.5642 27.544 14.2827
H -29.1552 27.0988 13.6091
O 11.7788 -22.8908 23.975
H 12.7231 -23.0198 24.0636
H 11.6302 -22.8467 23.0304
O 23.7769 8.96933 -20.9406
H 23.4848 8.66566 -20.0811
H 23.0199 8.83788 -21.5115
O -22.8272 12.7342 15.4229
H -22.1416 12.8625 14.7674
H -23.371 13.5193 15.3582
O 14.4751 -3.65506 -23.3772
H 14.0461 -3.16515 -22.6756
H 13.8835 -4.38595 -23.556
O 11.4788 20.5693 4.26382
H 11.5689 21.0231 3.42586
H 10.9715 19.784 4.05815
O 28.2586 5.56349 24.8787
H 28.9098 5.55219 24.1773
H 27.7972 6.39435 24.7645
O -16.9873 -9.19192 26.1273
H -16.6536 -9.03736 27.0111
H -17.1904 -10.1271 26.1077
O -10.5456 29.0292 -2.46427
H -9.67238 29.2489 -2.78897
H -10.7988 28.2526 -2.96336
O -1.05251 0.200718 -7.58972
H -1.25665 -0.722394 -7.43998
H -0.631303 0.21701 -8.44911
O -11.9031 -15.7408 4.10035
H -11.2695 -16.2669 4.58831
H -12.0882 -14.9962 4.67265
O 0.525178 -3.0059 4.19787
H -0.298474 -3.46673 4.35745
H 0.274772 -2.08486 4.12567
O -23.3628 -23.936 -1.75973
H -22.4652 -23.6437 -1.91811
H -23.4493 -24.7364 -2.27747
O 7.25129 25.3089 0.199482
H 6.6453 24.7559 -0.293678
H 7.85535 25.6504 -0.459871
O -11.704 -8.349 -21.625
H -11.3557 -8.68537 -22.4507
H -11.195 -7.55635 -21.4551
O 7.72395 27.4602 -13.2321
H 6.82198 27.6259 -13.5064
H 8.17832 28.288 -13.3886
O 28.6059 -28.2971 13.5041
H 29.0289 -27.9043 12.7405
H 29.2113 -28.1299 14.2264
O 24.8523 -22.0437 27.5827
H 24.9581 -21.4396 28.3176
H 25.6292 -22.6019 27.6172
O 18.8468 -27.3928 -29.2328
H 18.4003 -26.6006 -29.5318
H 18.2454 -27.7821 -28.598
O 5.07272 22.3874 -14.2788
H 5.14295 21.5213 -13.8773
H 4.1323 22.5637 -14.306
O -10.9545 2.89411 28.3013
H -10.9 1.9471 28.4296
H -11.8564 3.11609 28.5327
O 13.7716 -25.855 0.442906
H 13.4809 -26.3168 1.22936
H 13.3125 -25.0156 0.474007
O 6.59308 5.76637 17.6945
H 6.11961 5.15675 18.2605
H 7.4679 5.82091 18.0791
O 12.7111 26.9539 17.3922
H 12.0669 27.2648 18.0283
H 12.2047 26.4218 16.7785
O -29.9569 -14.1193 -9.31427
H -29.9126 -14.66 -10.1029
H 29.6131 -13.3132 -9.59979
O 13.6358 20.0581 9.45343
H 13.4019 20.3858 10.3218
H 13.0674 20.541 8.85349
O -4.6074 -21.6584 10.0334
H -5.22286 -22.3749 9.87851
H -5.07526 -20.874 9.74692
O 20.7744 18.7063 18.8657
H 20.366 19.4345 19.334
H 21.6422 19.0316 18.6263
O -1.34261 17.5451 -3.6144
H -0.741463 16.8116 -3.48502
H -1.25094 17.7701 -4.54025
O -11.8201 -27.7254 -1.33003
H -10.956 -27.3229 -1.24362
H -12.4189 -27.0976 -0.925485
O 12.9935 28.8069 11.9156
H 12.2608 28.3798 12.3594
H 12.5843 29.3325 11.2282
O 6.01668 23.92 9.00831
H 5.55929 24.6231 8.54712
H 6.72228 23.6629 8.41476
O 13.6073 -3.94282 -5.98391
H 12.8288 -3.86155 -6.53489
H 13.3914 -3.454 -5.18977
O 9.69787 -19.5011 20.4747
H 10.5902 -19.2684 20.7311
H 9.27875 -18.6636 20.2771
O -17.8712 -15.9271 3.43254
H -17.256 -15.7005 4.12992
H -18.7223 -15.9712 3.86833
O -27.9645 2.1389 4.89324
H -28.6712 2.40779 5.48018
H -27.4262 2.92372 4.7904
O -13.5063 -15.7976 19.287
H -13.474 -15.2088 18.533
H -12.7098 -15.6003 19.7799
O 6.16706 29.0358 25.3758
H 6.65084 29.7779 25.7384
H 6.21891 28.3615 26.0532
O 14.0166 20.3938 22.0049
H 14.6831 21.0716 22.1174
H 14.3743 19.6285 22.4549
O -0.544405 -17.3549 10.6415
H 0.0643117 -16.6181 10.6938
H -0.595117 -17.5585 9.70755
O -21.0201 14.8744 18.537
H -20.858 15.7026 18.9888
H -20.8044 15.0541 17.6219
O -17.5442 26.067 0.521786
H -18.3785 26.0758 0.0525929
H -16.9996 26.7007 0.0548263
O -14.7702 4.74811 -6.73259
H -14.2298 4.65769 -5.94772
H -15.6635 4.58716 -6.42874
O -9.5606 24.0368 -28.6294
H -10.0575 23.2213 -28.6947
H -8.64645 23.7689 -28.7233
O 20.823 -27.8951 -17.8274
H 19.9575 -28.2252 -18.0685
H 20.6446 -27.1587 -17.2425
O 4.50253 -18.9199 -10.422
H 4.33719 -19.3015 -11.2842
H 3.73912 -19.1666 -9.89995
O -6.90231 2.49149 -26.2758
H -6.87258 1.71613 -25.7153
H -7.73968 2.90599 -26.0679
O -5.52035 -16.9993 23.2124
H -5.82738 -17.5013 22.4574
H -6.32091 -16.6962 23.6407
O -23.1705 23.8365 21.127
H -23.0113 23.8428 22.0709
H -24.02 23.4063 21.0298
O 5.62064 -15.2319 -28.9004
H 5.14959 -14.4008 -28.9609
H 6.52313 -14.9823 -28.7017
O -2.16346 -23.4712 -7.4572
H -1.90082 -23.0567 -6.63531
H -2.49878 -22.7518 -7.99228
O -3.79981 -27.05 19.7089
H -2.89225 -27.0774 20.0119
H -4.01299 -26.1175 19.6738
O 12.9597 -24.355 4.95274
H 13.2422 -25.1442 4.49054
H 13.6296 -23.7032 4.74627
O 4.27549 8.27916 17.9411
H 4.50063 8.94597 17.2923
H 4.44475 7.44727 17.4989
O 21.7934 10.4869 -25.2685
H 22.1138 9.6829 -24.8597
H 22.5863 10.9634 -25.5148
O 18.93 29.8298 -14.5978
H 18.6723 -29.7348 -15.4104
H 19.8286 -29.8786 -14.4437
O 6.026 -3.38133 9.32821
H 6.97636 -3.29323 9.40098
H 5.70565 -2.48148 9.26582
O 27.9157 17.565 -4.20565
H 28.595 16.992 -4.56122
H 27.0934 17.1264 -4.42364
O 6.18686 -23.6772 27.1884
H 5.43198 -23.2259 27.5663
H 5.81277 -24.4332 26.7359
O -2.77279 -23.3424 14.9462
H -2.46079 -23.0043 14.1068
H -1.97675 -23.5943 15.4143
O -25.673 -14.3898 -27.2488
H -26.0084 -15.2789 -27.134
H -26.1902 -14.0293 -27.9691
O 20.5224 -16.3625 13.2482
H 21.4614 -16.4291 13.4217
H 20.1151 -16.9126 13.9174
O 29.6888 -27.0087 -13.9274
H 29.7689 -26.2059 -13.4124
H -29.8414 -26.8205 -14.7399
O 20.8228 19.0464 28.992
H 21.0851 19.8702 28.5812
H 20.1794 18.6723 28.3901
O 21.5851 -4.50013 13.1353
H 20.7768 -4.69185 13.6109
H 22.2742 -4.56758 13.7961
O 1.41768 -0.347492 15.9442
H 2.28425 -0.00985133 15.7178
H 1.57488 -0.936252 16.6824
O 28.5078 -9.56608 -1.35457
H 28.7012 -9.25855 -2.24015
H 29.366 -9.66735 -0.942895
O -28.3772 13.5804 27.2298
H -27.6352 13.1438 26.8113
H -28.9468 12.8657 27.5142
O -7.83003 28.6218 3.12835
H -6.90687 28.8738 3.10495
H -7.81979 27.6946 3.36557
O 5.06279 -28.5013 12.796
H 5.54142 -27.7006 12.5816
H 4.31405 -28.5004 12.1997
O -9.2208 -19.1759 8.15741
H -9.81059 -18.4262 8.23698
H -9.54638 -19.6578 7.39711
O 21.2225 -10.7726 -25.131
H 20.3505 -11.1502 -25.0162
H 21.7883 -11.2989 -24.5661
O 18.6836 -23.2499 28.5377
H 18.7754 -24.1019 28.9642
H 18.3522 -22.6719 29.2249
O 27.0894 24.7888 -8.69158
H 26.9409 25.382 -7.95519
H 27.5177 24.0261 -8.30278
O -11.1674 -28.4649 10.9528
H -10.657 -28.6585 11.7391
H -12.0793 -28.5348 11.2354
O -11.2817 -8.37798 -14.2524
H -10.4524 -8.03395 -14.5841
H -11.9462 -7.99762 -14.8269
O 21.7686 6.22772 0.156017
H 22.4051 6.86329 0.483455
H 20.945 6.71341 0.112758
O 14.124 9.29665 -22.8547
H 14.974 8.92496 -23.0906
H 14.3271 9.96145 -22.1966
O 27.191 17.3978 -1.2818
H 27.4747 17.1814 -2.17002
H 26.7267 18.2297 -1.37415
O -25.1734 28.1924 -17.7195
H -25.5948 27.653 -18.3887
H -25.2843 27.6976 -16.9076
O -2.02222 -21.8827 -4.90904
H -1.72294 -20.9844 -5.04938
H -1.83693 -22.056 -3.98607
O -28.3309 5.18172 29.5608
H -29.1497 5.55615 29.2359
H -27.8467 4.94164 28.7707
O -1.53816 -21.1408 -1.59835
H -2.13903 -20.4509 -1.31689
H -2.04023 -21.9501 -1.50253
O -23.41 4.01746 16.4508
H -23.1568 3.15783 16.7872
H -22.9788 4.64055 17.0357
O -14.6519 20.1516 -11.614
H -13.777 20.4649 -11.8433
H -14.5266 19.228 -11.3959
O 6.80498 28.2335 -7.06251
H 6.38223 27.3848 -6.93086
H 6.14253 28.8743 -6.80406
O -7.10064 29.2962 6.64395
H -7.38826 -29.9568 6.119
H -7.23813 29.5725 7.55003
O -22.0795 -29.8327 -27.2799
H -21.4681 -29.7195 -28.0076
H -21.6714 29.5029 -26.7247
O 8.58337 -0.576621 22.5024
H 9.0535 -1.27843 22.9526
H 7.69725 -0.918743 22.3842
O 27.4295 3.53021 -18.3623
H 28.179 2.99362 -18.6203
H 27.7373 4.0222 -17.6011
O -2.10813 4.38274 27.4709
H -1.18169 4.62023 27.5101
H -2.4185 4.76207 26.6487
O 8.52902 23.2577 6.877
H 9.18558 22.8009 6.35112
H 9.03717 23.7409 7.52854
O 12.8206 13.9888 -5.4209
H 12.1878 14.4563 -5.96603
H 12.4546 13.1091 -5.32894
O 16.2682 -17.9147 -26.6627
H 15.9897 -17.0111 -26.8117
H 16.4902 -18.2441 -27.5336
O -26.2086 6.37201 -7.96735
H -26.7435 5.74688 -8.45649
H -25.4818 5.85071 -7.62629
O 4.47211 -23.2201 -21.7529
H 5.34333 -23.1576 -22.1444
H 4.43247 -24.1074 -21.3961
O 26.0533 16.5457 -5.84792
H 26.1956 15.6624 -5.50755
H 26.3444 16.5016 -6.75871
O -18.069 18.7743 -10.514
H -17.2924 19.2344 -10.1956
H -17.9192 17.8588 -10.2779
O 11.7385 -29.8863 -7.58627
H 12.3001 29.7634 -8.27773
H 10.9747 29.5367 -7.58205
O -7.61038 -14.4047 7.63281
H -7.44783 -14.3283 8.57301
H -7.36202 -15.304 7.41859
O 27.0861 -0.707349 -10.2562
H 27.5881 -1.15983 -10.9341
H 27.7094 -0.57923 -9.54123
O 26.2138 -6.72285 -23.4602
H 25.5189 -7.18589 -22.9924
H 26.4636 -6.00892 -22.8736
O -17.972 12.0407 21.163
H -18.3217 11.172 20.9651
H -17.0665 12.0109 20.8541
O -4.6562 1.74219 24.5959
H -3.97687 1.59269 23.9383
H -5.45508 1.39534 24.1988
O 21.1176 -25.467 -25.7135
H 21.8472 -25.9774 -26.0649
H 20.6524 -25.1491 -26.4874
O -7.51511 24.5632 8.69468
H -7.55251 23.7789 8.14723
H -7.32316 25.274 8.08294
O -8.34816 -20.9317 23.4738
H -9.20463 -20.7912 23.0702
H -8.45531 -21.7289 23.9928
O -10.96 -29.9797 -27.2126
H -10.3702 29.2665 -27.2061
H -10.596 -29.396 -27.8782
O -15.7728 -12.5088 -27.7558
H -15.6142 -11.6638 -27.3349
H -15.3629 -13.1479 -27.173
O 28.9193 10.3526 26.8511
H 29.3015 10.0231 27.6644
H 28.3039 9.67069 26.5817
O -25.364 -2.39258 14.297
H -25.1793 -2.97062 13.5567
H -25.1979 -1.51181 13.961
O 11.7909 18.1171 -4.38009
H 10.9079 18.3632 -4.65584
H 11.9558 18.6483 -3.60103
O 10.2893 1.67814 15.9762
H 9.89594 2.09092 16.7451
H 9.54666 1.47028 15.4091
O 2.58523 -13.0567 8.77759
H 1.72239 -13.1349 8.37063
H 2.80005 -12.1266 8.70784
O -29.8146 27.8911 -1.72368
H -29.7671 28.5241 -1.00725
H 29.9873 28.4188 -2.49739
O 11.9971 22.2796 1.90392
H 11.1384 22.6443 1.68993
H 12.3342 22.8491 2.59551
O 17.3268 -18.4346 9.83282
H 17.5095 -19.2725 9.40765
H 17.4504 -17.7832 9.1424
O -13.8996 17.8469 9.12814
H -13.848 17.4567 10.0007
H -13.1905 18.4896 9.11032
O 15.3362 -8.46311 19.6632
H 15.9522 -9.03433 19.2043
H 15.1143 -7.78651 19.0235
O -17.3311 10.6176 -7.98292
H -17.2063 11.0135 -8.84543
H -17.9442 11.2021 -7.53704
O 9.69781 3.9141 -17.5077
H 9.50877 4.44218 -16.7321
H 10.1956 3.16756 -17.1743
O 25.8398 -14.2388 2.72081
H 25.9849 -15.1725 2.87369
H 25.333 -14.2043 1.90954
O -3.2273 -7.54448 -8.38252
H -4.04096 -7.35078 -7.91704
H -2.56122 -7.58199 -7.69611
O 2.75396 8.93055 2.87522
H 3.57837 9.18809 3.28784
H 2.86386 7.99999 2.67974
O -23.6154 -24.505 2.23033
H -23.5678 -25.4596 2.17847
H -23.0118 -24.2726 2.93591
O 17.0241 11.1576 10.0803
H 17.5748 11.6599 10.6809
H 16.2518 10.9288 10.5974
O 20.1832 -7.19626 -4.44724
H 20.9449 -7.07957 -5.015
H 20.4397 -6.79644 -3.61624
O 13.3809 12.7704 1.05134
H 12.4592 12.9688 1.217
H 13.3636 12.1144 0.354427
O 27.8434 24.3586 2.21965
H 26.9365 24.3615 2.52584
H 27.8925 25.0931 1.60781
O 10.0148 24.2925 -2.38489
H 10.1095 23.4213 -1.99983
H 10.7093 24.3412 -3.04184
O 10.8778 -10.646 8.95228
H 10.0493 -10.2804 9.26231
H 11.4942 -9.91501 8.99631
O 9.73294 -10.1707 -7.91901
H 9.63416 -11.003 -7.45666
H 10.3985 -10.3436 -8.58484
O 19.3749 9.52664 -24.6823
H 19.9174 10.1303 -25.1898
H 18.969 10.0751 -24.0111
O 10.8123 4.64757 11.4249
H 10.236 3.90303 11.2524
H 10.3828 5.38789 10.9964
O -4.74067 12.682 8.19022
H -4.69271 12.0133 7.50701
H -5.67727 12.7882 8.35674
O 25.3995 2.9651 21.3912
H 26.2816 2.76607 21.705
H 24.8643 2.23395 21.6998
O -22.0023 -14.008 4.67883
H -22.3943 -14.4245 3.9113
H -22.6458 -14.1354 5.3759
O -13.3365 -18.1027 -8.35374
H -13.8288 -17.6734 -7.65405
H -13.4855 -19.0378 -8.21314
O -10.9941 19.7945 -12.3182
H -10.7785 20.7235 -12.2362
H -10.4084 19.4718 -13.003
O -24.6805 24.86 -1.3985
H -24.0632 25.2795 -1.99784
H -24.8548 24.0054 -1.79287
O 4.70065 2.53804 -6.37885
H 5.01407 1.69449 -6.05262
H 4.17381 2.89176 -5.66222
O 27.1942 -8.31731 -25.5875
H 26.7821 -7.77832 -24.9123
H 26.473 -8.5756 -26.1615
O 0.469362 10.5855 13.6732
H 1.0614 9.85394 13.4986
H -0.238229 10.2031 14.1921
O 17.0522 -12.4912 -15.1901
H 17.7592 -12.0318 -14.7368
H 16.2597 -12.0139 -14.9445
O 9.37271 10.5627 -3.84856
H 9.59521 11.2509 -3.22163
H 9.52762 10.9596 -4.7057
O 19.0432 -24.6204 -10.9206
H 18.8126 -23.8071 -11.3697
H 19.8459 -24.9135 -11.3519
O 7.40784 -26.9599 19.5413
H 7.50328 -27.3267 20.4203
H 7.52188 -26.0171 19.6611
O -3.53948 -6.63553 3.41761
H -3.56977 -6.81161 2.47723
H -3.26127 -5.72191 3.48186
O -26.6535 -20.4983 0.799529
H -25.9196 -20.7871 0.257065
H -27.364 -20.3405 0.17782
O -8.11144 -24.4938 9.31796
H -8.7543 -25.1832 9.48446
H -7.28181 -24.9596 9.21305
O 5.35022 -7.63758 -0.633588
H 4.6515 -7.36599 -1.22879
H 5.07499 -7.31271 0.223699
O 13.3578 -4.17398 27.0348
H 13.9315 -3.42844 27.2116
H 13.8985 -4.94197 27.2193
O -23.4541 11.5205 -7.91247
H -22.5044 11.4849 -7.79807
H -23.7178 10.6061 -8.01523
O 5.13014 -22.8343 22.6153
H 5.53456 -23.6688 22.8524
H 5.22726 -22.2899 23.3967
O -14.1284 -16.4594 -6.33924
H -14.078 -15.5152 -6.488
H -15.0021 -16.5986 -5.97387
O -5.54038 -10.9236 -27.9221
H -4.74168 -11.2179 -27.4843
H -6.23241 -11.4726 -27.5533
O 19.4149 -19.232 -12.6108
H 20.2724 -18.8258 -12.485
H 19.1574 -18.9794 -13.4975
O 0.312374 -17.1882 1.40092
H -0.329092 -16.5133 1.62293
H 1.14027 -16.8558 1.74777
O -17.7707 -9.50072 -11.1684
H -16.8604 -9.23749 -11.0331
H -18.128 -8.83537 -11.7565
O -28.1445 2.56842 29.3889
H -28.7539 2.07378 29.9368
H -28.2322 3.47316 29.6889
O 3.92039 -4.7945 3.79741
H 4.29007 -5.25781 4.54902
H 4.27196 -3.90685 3.86601
O 27.1571 -27.2609 -1.33208
H 26.9583 -28.1533 -1.04861
H 26.3015 -26.8667 -1.5016
O -1.08225 1.48 10.2733
H -0.67645 2.32946 10.1002
H -0.531314 1.08398 10.9485
O 18.7433 -15.5137 -17.0041
H 18.8174 -16.1674 -16.3089
H 18.1103 -15.8867 -17.6178
O 26.5505 27.1896 5.76221
H 27.1004 26.4123 5.85991
H 25.6595 26.8737 5.91248
O -12.9376 4.58569 -13.7954
H -13.3355 4.84702 -12.965
H -12.2698 5.25108 -13.9614
O 1.28469 4.96095 3.37898
H 1.69458 5.82434 3.4317
H 1.98613 4.34837 3.60023
O -2.38929 8.76454 -1.70566
H -1.86047 9.54825 -1.55602
H -1.80817 8.03697 -1.48392
O -28.7922 7.85292 6.39098
H -28.3568 7.81805 7.24271
H -29.5062 8.47887 6.51187
O 0.878998 -10.1088 -10.9929
H 0.721472 -9.2842 -11.4526
H 0.623349 -10.7857 -11.6196
O 28.9649 -27.5513 20.4479
H 29.1912 -28.4804 20.4919
H 29.5485 -27.1936 19.7789
O 10.6013 -2.6802 -18.8306
H 10.7747 -1.84373 -18.3988
H 11.3857 -2.84775 -19.353
O 19.7415 -7.6608 0.709086
H 19.8532 -7.49929 1.64592
H 20.1829 -8.49611 0.555254
O -5.24864 -28.8311 -3.38964
H -5.31752 -28.2806 -4.16967
H -5.15405 -28.2115 -2.66621
O 11.5547 -5.96384 2.03783
H 12.28 -6.29622 1.50904
H 11.8391 -5.09292 2.31499
O -26.1098 4.75727 23.6177
H -26.6132 4.52243 24.3973
H -25.9494 5.69647 23.7096
O 29.239 21.7701 15.2919
H 28.9349 21.7774 16.1995
H -29.832 21.5475 15.3519
O -2.11473 -2.16047 -13.5748
H -1.69379 -2.35972 -12.7385
H -2.98316 -2.55727 -13.5069
O 11.5973 -0.755757 -13.71
H 11.678 -1.69816 -13.5631
H 11.8915 -0.358933 -12.8902
O -9.34063 20.8419 3.77439
H -9.6448 21.5703 3.23297
H -8.70425 20.3841 3.22518
O 4.20143 -6.78823 6.32656
H 4.13103 -6.04629 6.92722
H 3.29909 -7.082 6.20122
O -8.19914 12.2619 -16.0871
H -7.8224 13.0555 -15.707
H -9.13546 12.449 -16.1542
O 21.4729 -4.78242 6.25661
H 22.2415 -5.34826 6.32961
H 21.6624 -4.21551 5.50899
O -12.1336 8.05799 -18.0161
H -12.7983 8.74629 -17.9902
H -12.5796 7.30836 -18.4103
O 0.74249 -2.0333 -18.6888
H 1.59621 -1.60141 -18.7183
H 0.567863 -2.15621 -17.7557
O -15.993 5.16182 -1.26874
H -15.961 5.96462 -0.748431
H -16.9234 5.0318 -1.45231
O -26.5561 25.6816 24.0858
H -27.2232 25.8448 24.7526
H -26.469 26.5157 23.6242
O 29.5003 24.0742 8.45083
H 29.5034 24.9894 8.73128
H 29.0754 23.6047 9.16865
O 6.15752 -25.6962 4.53956
H 5.88525 -25.5533 5.44602
H 5.95726 -26.617 4.37119
O 22.1064 -4.20339 22.0159
H 21.237 -4.59636 21.9382
H 22.7103 -4.9441 21.9619
O 25.6215 15.2298 -29.6765
H 25.5909 14.381 29.8822
H 26.5489 15.4669 -29.6764
O 22.2327 -1.39878 8.01149
H 23.1279 -1.0775 7.90331
H 22.3207 -2.35169 8.03285
O 8.40494 29.7937 -4.75798
H 8.1394 29.2471 -5.49749
H 7.73671 29.6362 -4.09097
O 13.3419 -4.10346 -13.9552
H 12.9161 -3.93591 -13.1145
H 14.1206 -3.54694 -13.945
O -7.07979 -21.1713 18.4896
H -7.92 -20.7552 18.6823
H -6.43597 -20.6407 18.9588
O 25.22 28.3075 28.4131
H 26.1465 28.3488 28.1759
H 25.049 27.3759 28.5512
O 21.4714 -18.0037 -11.79
H 21.733 -17.0848 -11.7312
H 22.2154 -18.4884 -11.4327
O 27.403 -15.0636 12.5477
H 27.1953 -15.1624 11.6185
H 28.0503 -14.359 12.5753
O -7.92398 -29.061 -0.285246
H -7.99121 -29.6887 -1.00475
H -8.42788 -28.3026 -0.580517
O -15.2952 -2.61737 -3.69078
H -15.4747 -3.33245 -3.08031
H -14.3564 -2.68144 -3.86607
O 4.24706 -16.3874 15.7873
H 3.71076 -17.037 16.2419
H 4.3187 -16.7192 14.8923
O 26.7915 -5.70786 20.7891
H 26.198 -5.11447 21.2493
H 26.2152 -6.34976 20.3743
O -17.5946 -7.6571 -29.5185
H -18.3299 -7.34751 29.9525
H -17.3939 -6.92534 -28.935
O -9.98988 -25.8515 -24.5834
H -9.60201 -26.2255 -23.7922
H -10.8594 -25.5596 -24.3095
O 2.7587 4.70541 19.0978
H 2.81825 3.80522 18.7779
H 2.96112 4.64228 20.0313
O 11.5416 -21.8605 -24.896
H 11.0265 -22.1807 -24.1554
H 10.8992 -21.4525 -25.4765
O -10.9208 19.128 9.7538
H -11.0066 18.5916 10.5419
H -11.0977 18.5244 9.03227
O -5.91448 27.6445 8.72013
H -6.32911 28.4505 9.02783
H -6.12103 27.6098 7.78612
O 4.73236 28.6972 -12.676
H 4.5651 29.0462 -11.8005
H 4.45327 27.7829 -12.6273
O 19.8355 10.778 -9.33477
H 18.9608 10.4619 -9.10826
H 19.6827 11.6205 -9.76277
O -6.08573 -7.77154 -2.89805
H -5.94897 -8.64708 -3.25995
H -5.6107 -7.77846 -2.06707
O -20.7124 -28.3359 -5.20663
H -20.6547 -29.1393 -5.72382
H -20.9046 -28.6358 -4.31815
O 16.8786 12.2044 -14.5383
H 17.1882 12.7765 -13.8361
H 15.9708 12.009 -14.306
O -12.4934 -4.64041 -20.7845
H -11.652 -4.91238 -21.1509
H -12.8464 -5.43289 -20.3801
O 5.75333 -18.2253 -5.63915
H 6.70978 -18.205 -5.60692
H 5.47711 -17.8673 -4.79548
O -14.6664 -28.3987 9.62703
H -14.0195 -27.7122 9.78957
H -14.5926 -28.5811 8.69027
O 12.0209 15.531 13.0753
H 12.7158 16.0363 12.6534
H 11.7077 14.9374 12.3928
O -21.3615 -21.7685 -28.4379
H -21.1572 -22.3217 -27.6839
H -21.444 -20.8872 -28.0736
O -14.4845 29.6235 11.8574
H -13.9772 -29.7325 12.3513
H -14.4643 29.9428 10.9552
O -25.2945 11.5444 -4.69359
H -25.3737 12.4294 -4.3375
H -24.8414 11.0505 -4.01027
O 13.8509 -16.3612 -15.1526
H 13.178 -15.9737 -15.7123
H 14.6728 -15.9903 -15.4736
O 18.2336 -18.9408 0.331862
H 17.5257 -19.0111 -0.308553
H 18.7703 -18.2132 0.0175408
O 13.0302 5.95561 13.3481
H 13.9777 5.86955 13.4533
H 12.8805 6.89886 13.284
O -28.4516 -10.9931 29.1742
H -28.1899 -11.8637 28.8746
H -29.4018 -11.0497 29.2755
O -16.3327 27.3619 24.3089
H -15.7221 27.6441 24.9899
H -15.8953 26.6231 23.8856
O -11.3413 -5.70834 -8.90316
H -10.5384 -5.87101 -9.39816
H -11.43 -4.75528 -8.89608
O 27.0428 26.6842 -21.5235
H 27.0798 27.2829 -22.2694
H 27.3337 25.8432 -21.8761
O 19.3087 13.5199 -8.11197
H 19.345 12.7808 -7.50491
H 19.8502 14.1942 -7.70171
O 2.36898 -14.6233 5.89061
H 3.075 -14.1043 6.27586
H 1.56695 -14.2311 6.2358
O -10.3043 25.8392 1.45407
H -9.75693 26.6035 1.27423
H -11.1768 26.2003 1.61078
O -22.4291 -23.3605 23.253
H -21.9916 -23.4343 22.4048
H -23.2456 -23.8482 23.1451
O -10.4638 5.20521 -15.9703
H -10.8063 4.67226 -16.6879
H -9.52503 5.01839 -15.9595
O 7.86789 0.495848 -16.263
H 8.46181 1.03964 -16.7805
H 8.00121 -0.390887 -16.5979
O -11.3537 2.22915 -4.83834
H -11.3212 2.31439 -3.8855
H -11.3097 1.28615 -4.99657
O -2.15357 22.0693 -8.1178
H -2.07708 23.0015 -7.91422
H -2.36374 21.6571 -7.27984
O -12.6615 14.6358 15.4893
H -12.7378 15.5805 15.3556
H -13.1042 14.4748 16.3226
O -29.5969 16.3528 -5.09493
H -29.9389 15.6736 -5.67629
H -28.8024 15.9714 -4.72152
O 28.3412 -14.9629 -5.38251
H 29.2483 -14.6951 -5.23569
H 28.2927 -15.1418 -6.32159
O 13.5659 -26.9527 29.8875
H 13.3909 -26.0247 -29.9564
H 12.7002 -27.3438 29.7701
O 17.2571 -18.6596 -4.72589
H 16.8525 -19.5152 -4.86856
H 18.1582 -18.7664 -5.03069
O 28.8473 6.06782 29.5929
H 28.0956 5.47714 29.6407
H 28.5092 6.91131 29.8937
O -19.1263 -28.3278 -13.1585
H -19.491 -29.1414 -13.5067
H -18.3625 -28.1526 -13.7082
O -6.66004 -6.25865 -22.9461
H -6.10386 -6.96138 -23.2823
H -7.27415 -6.07734 -23.6576
O -2.54039 -5.47465 28.6093
H -1.83576 -5.82534 29.1541
H -2.65415 -6.12491 27.9162
O 14.4771 -17.7658 -6.82796
H 14.5734 -17.5483 -7.75514
H 15.2215 -18.3362 -6.6366
O 20.2673 19.1557 7.95639
H 20.9405 18.4764 7.9153
H 20.3331 19.6099 7.1164
O -20.481 9.59848 -12.1922
H -20.2637 10.4271 -11.7651
H -21.4345 9.54043 -12.1322
O 14.165 16.7341 -5.21674
H 13.8316 15.8584 -5.02119
H 13.493 17.3273 -4.8809
O 26.7096 9.75385 -11.1946
H 27.0459 9.04024 -10.6525
H 25.869 9.98147 -10.7973
O 24.3931 13.8844 8.40339
H 25.1552 14.143 7.88516
H 24.0089 13.1546 7.91754
O 19.0552 3.70195 9.57046
H 19.6495 4.41749 9.34439
H 18.1964 4.11787 9.64547
O -9.65454 -0.0896429 -22.6199
H -10.3029 -0.504512 -22.051
H -9.99625 -0.215856 -23.5051
O -12.0774 16.2515 -15.2074
H -12.4709 17.1003 -15.0052
H -12.7977 15.6268 -15.1227
O 18.1619 -11.4696 1.36571
H 19.0628 -11.1581 1.27936
H 18.2247 -12.2274 1.94711
O 24.84 26.1034 13.1509
H 25.3111 26.5937 12.4771
H 25.2929 25.2614 13.1958
O -26.6627 15.4324 -3.56167
H -25.7466 15.1554 -3.57931
H -26.9284 15.3247 -2.64843
O 28.037 22.345 -17.3132
H 28.7927 22.6922 -17.7873
H 27.5075 23.1156 -17.1083
O 7.4886 13.7181 12.8413
H 6.64679 14.1227 12.6318
H 7.74157 14.1096 13.6774
O -10.3935 -14.2203 -22.6276
H -11.0408 -14.9182 -22.7286
H -9.72371 -14.595 -22.0557
O -0.245752 3.66204 -11.1816
H 0.578034 3.96899 -11.5603
H -0.401494 4.24666 -10.4399
O -27.6907 -28.0936 2.60168
H -28.2097 -27.3092 2.77919
H -27.1263 -27.8471 1.86891
O -21.9862 9.92647 -1.87977
H -21.4064 10.3125 -1.22318
H -21.4483 9.26581 -2.31618
O -9.8154 14.2215 -7.37014
H -9.97398 14.8347 -8.08778
H -10.5962 13.6681 -7.35035
O -27.5791 -5.71202 -1.64359
H -28.3329 -6.29154 -1.75395
H -26.8876 -6.27981 -1.30337
O -13.2899 21.699 4.19761
H -13.752 20.8802 4.37735
H -13.1987 22.1161 5.0543
O -2.45098 -3.94606 -2.11472
H -2.85853 -4.56068 -1.50448
H -3.1158 -3.79957 -2.78762
O 11.6067 -15.5122 -29.2344
H 11.2259 -15.64 29.8967
H 11.549 -14.5687 -29.0835
O 28.1528 27.4631 -5.15369
H 28.0397 27.7528 -6.05897
H 29.0898 27.2848 -5.07407
O 10.1256 19.0851 10.5121
H 10.4564 18.5623 9.78167
H 10.9081 19.3286 11.0067
O -3.74303 20.9229 21.2356
H -4.29423 21.6573 20.9653
H -4.12475 20.1623 20.7974
O 29.9849 -29.1614 -23.9744
H 29.2052 -29.1697 -24.5296
H -29.3026 -28.9168 -24.565
O -25.4642 9.87863 18.7829
H -25.7522 10.3253 17.9869
H -24.7083 10.3842 19.0816
O -18.5903 14.5974 -12.3897
H -19.34 15.1854 -12.298
H -18.9083 13.8886 -12.9489
O -15.5391 24.8096 -12.6105
H -16.0049 25.2758 -13.3047
H -15.54 23.8951 -12.8933
O -4.89357 1.93593 14.0367
H -4.27706 2.61347 13.759
H -4.90546 1.31073 13.3119
O 26.6703 15.882 -15.3339
H 26.788 15.7001 -14.4016
H 27.4818 16.3154 -15.5982
O 4.92183 -10.1121 3.65861
H 5.55405 -9.49283 4.02328
H 4.43387 -10.4318 4.41753
O -8.90159 10.1413 -20.2103
H -9.33693 9.84932 -21.0112
H -9.59315 10.5653 -19.7021
O -2.29665 19.2725 -20.457
H -1.71075 20.0069 -20.6403
H -1.71408 18.5619 -20.1891
O 0.905541 25.2999 8.54357
H 1.37099 24.8195 9.22823
H 1.3625 26.1391 8.48624
O 6.34024 22.394 28.0292
H 6.60238 22.4461 28.9484
H 5.50792 22.8651 27.99
O -1.43868 9.46202 22.2245
H -1.69128 10.347 21.9615
H -1.07684 9.56722 23.1044
O -0.525623 7.13482 21.2177
H -0.438163 6.84592 20.3093
H -0.636855 8.08366 21.1581
O 5.00579 -9.2401 7.07072
H 5.92023 -9.18 7.34715
H 4.83523 -8.41107 6.62368
O -2.2297 -2.81989 -18.47
H -1.56796 -2.73955 -19.1569
H -2.57641 -1.93377 -18.3659
O 15.4063 -9.56429 7.77855
H 15.7913 -10.423 7.95355
H 15.9243 -8.95691 8.30676
O 28.6941 -2.61524 -25.0496
H 27.7933 -2.88072 -25.2348
H 28.8023 -1.78871 -25.5201
O -14.4936 22.4948 -26.0657
H -15.0755 22.0828 -25.4271
H -14.8356 23.3835 -26.1636
O -2.38289 27.8253 21.3565
H -2.28562 27.658 22.294
H -1.80173 27.1904 20.9378
O -18.5967 -12.8823 -27.1328
H -18.4091 -12.4222 -27.9509
H -17.9533 -13.5903 -27.1025
O 29.2747 0.351754 24.4761
H -29.9904 0.533614 25.0618
H 29.0767 1.19574 24.0703
O 2.20325 7.67381 -6.50091
H 1.98069 8.59993 -6.5957
H 2.23655 7.53057 -5.55508
O 20.7416 -27.0214 22.4027
H 21.2125 -26.7982 23.2055
H 20.6981 -26.1998 21.9136
O -9.9251 13.8512 8.08502
H -9.27729 14.5507 8.17086
H -10.4289 13.8897 8.89798
O -7.48936 -2.16212 17.5626
H -6.55255 -2.07985 17.741
H -7.87758 -1.37865 17.952
O 21.6082 17.8999 -7.52109
H 21.6071 17.4501 -6.67618
H 21.1982 18.7463 -7.34284
O 0.294355 -21.41 -9.42128
H 0.401104 -21.0768 -10.3123
H 0.459204 -22.35 -9.4952
O 20.2143 -25.4062 28.808
H 20.5412 -25.0567 27.979
H 20.4819 -26.3252 28.8032
O 24.5861 3.65688 -11.6473
H 23.7894 3.46559 -12.1422
H 24.273 4.03075 -10.8236
O -1.0735 25.6354 -17.8525
H -1.14012 25.4397 -16.9179
H -0.204562 25.321 -18.1022
O 4.86487 20.7278 -11.8857
H 5.34575 20.7492 -11.0583
H 3.97059 20.4935 -11.6375
O 5.9036 -8.88986 -7.31572
H 5.44443 -8.06107 -7.17972
H 6.61671 -8.8767 -6.67734
O 14.8214 10.0911 27.9797
H 14.0702 10.4021 27.4745
H 15.0228 9.23294 27.6067
O 15.3262 -3.87335 -11.1315
H 14.5543 -3.43157 -10.7775
H 16.0677 -3.39772 -10.7571
O 21.4263 -14.7505 -17.0345
H 21.8044 -14.1716 -17.6965
H 20.5907 -15.0295 -17.4087
O 3.87054 29.457 27.6686
H 4.12007 -29.8372 28.2651
H 4.29926 28.6789 28.0249
O 3.15082 21.925 -3.6432
H 2.98445 21.0872 -3.21118
H 4.07273 22.109 -3.46303
O 23.3375 -10.011 17.16
H 23.0771 -9.54382 17.9539
H 23.7447 -10.8167 17.4783
O -25.3403 7.664 0.151181
H -24.4013 7.53171 0.0202653
H -25.5874 7.00477 0.799704
O 15.3775 -26.4325 -10.957
H 15.5931 -25.9669 -11.7651
H 14.4783 -26.1693 -10.761
O 3.26337 0.201488 -5.53909
H 3.08531 1.0816 -5.87065
H 2.65452 -0.362406 -6.01611
O -10.9843 10.8054 -26.7436
H -11.1224 9.9662 -26.3045
H -11.6623 11.3783 -26.3853
O -18.6762 12.3985 14.3779
H -17.9153 12.2037 14.9249
H -19.194 11.5936 14.3916
O -27.249 17.7847 -12.8587
H -27.836 17.4382 -13.5307
H -27.4364 18.7232 -12.837
O 19.4541 -17.9474 -27.7048
H 18.8264 -17.8154 -26.9944
H 19.4767 -18.8958 -27.832
O -6.32912 -17.1808 3.46308
H -6.17017 -17.5057 4.34931
H -7.02323 -16.5299 3.56699
O -5.18855 14.7065 -8.02979
H -4.39504 14.2835 -8.3578
H -5.4815 14.1441 -7.31278
O -2.58046 13.7191 21.838
H -2.40967 14.0591 22.7163
H -3.44363 13.3104 21.9025
O 12.6146 -18.7611 21.2714
H 13.416 -18.4348 21.6806
H 12.635 -19.7059 21.4234
O 3.85195 -1.44351 -2.4277
H 3.28311 -1.7029 -3.15253
H 3.27205 -1.41247 -1.66679
O 2.73531 17.324 19.3982
H 2.25205 17.8339 20.0484
H 2.94186 16.502 19.843
O 12.515 8.73221 13.4491
H 13.4546 8.64765 13.6109
H 12.1112 8.60589 14.3077
O 26.9013 7.87762 6.45848
H 26.6426 7.83671 5.53782
H 26.5098 8.68897 6.78197
O -1.35651 -23.4795 -26.8839
H -1.24418 -24.287 -27.3856
H -1.27475 -22.7805 -27.5327
O 15.5442 18.3172 -19.7676
H 15.5289 19.1717 -20.1987
H 15.8555 17.7136 -20.4421
O 4.96437 13.8415 26.5332
H 5.70094 13.3571 26.9062
H 5.29739 14.1832 25.7034
O -8.63875 11.0617 27.5262
H -9.47668 10.7757 27.89
H -8.87649 11.6503 26.8098
O -25.0233 -10.3396 8.49321
H -25.6904 -9.71082 8.21761
H -24.3643 -10.3097 7.79965
O 20.5178 10.8973 -18.2452
H 20.9099 10.1384 -17.8133
H 21.1651 11.1625 -18.8986
O -19.7069 -25.8465 2.89506
H -19.9611 -26.5356 3.50884
H -20.3538 -25.154 3.03039
O -10.4147 -12.0523 -29.1376
H -9.62906 -11.506 -29.1153
H -11.0807 -11.5334 -28.6866
O 28.3004 8.09348 -3.56358
H 27.465 7.91959 -3.12982
H 28.7873 8.63182 -2.93962
O 19.6715 25.1151 21.3339
H 19.5368 25.8486 21.9339
H 18.8306 25.0118 20.8885
O -22.6347 11.1126 4.72359
H -22.1115 10.3821 5.05365
H -22.7841 10.9034 3.80155
O -16.4537 2.11675 21.8916
H -15.7388 1.94809 21.2778
H -16.07 1.96304 22.755
O -29.0015 29.1228 -13.9179
H -28.988 29.9435 -13.4255
H -28.4306 29.2843 -14.6691
O 9.10606 -21.1498 -1.6483
H 9.62795 -20.385 -1.89113
H 9.74707 -21.8515 -1.53486
O -22.014 -0.312972 -3.72451
H -21.3536 -0.522549 -3.06402
H -21.5919 -0.517017 -4.55904
O 5.89029 -19.9004 -27.1364
H 6.34822 -20.7358 -27.2292
H 6.04382 -19.6422 -26.2275
O 7.13738 9.25115 -15.0734
H 6.81658 9.68683 -15.863
H 6.9022 8.33123 -15.1945
O -23.3126 26.1018 -3.54768
H -23.6166 25.7452 -4.38231
H -23.4888 27.0406 -3.60942
O -24.928 18.2327 11.3451
H -25.2863 17.5113 11.8622
H -24.1347 17.8727 10.9484
O -20.8083 24.3257 -17.8956
H -19.9023 24.4057 -17.5974
H -20.7456 23.8679 -18.7339
O -22.3493 -9.10569 25.2018
H -22.781 -9.23806 26.0458
H -22.7713 -9.73361 24.6154
O 16.4769 25.7518 28.5964
H 16.6493 24.8292 28.7846
H 16.8174 25.8839 27.7116
O -21.4957 -6.57737 2.68929
H -21.9314 -5.76254 2.93914
H -21.7967 -7.21786 3.33382
O 20.7401 -1.0121 -15.7374
H 20.6235 -1.01326 -14.7873
H 21.6842 -1.10696 -15.8634
O -26.5581 7.29586 -20.4563
H -26.0748 8.10455 -20.287
H -26.9939 7.44788 -21.2949
O 8.57437 -29.1754 2.24825
H 8.69121 -28.4149 2.81759
H 8.67141 -28.8285 1.36143
O 3.23331 23.0593 -22.1189
H 3.84411 22.3394 -21.9609
H 3.52306 23.4426 -22.9467
O 26.8815 20.8718 -10.499
H 27.3737 21.1022 -9.711
H 26.0572 20.5126 -10.1707
O -26.3788 -16.4484 -8.20555
H -25.7889 -16.3179 -8.94801
H -26.6596 -17.3605 -8.27961
O 21.2249 -13.1498 -29.9349
H 20.4868 -13.2212 -29.3296
H 21.524 -14.051 29.9441
O 1.8987 -2.88973 17.7774
H 2.61594 -3.20516 17.2275
H 1.85085 -3.52129 18.4951
O 29.6863 7.98984 21.9087
H -29.6516 8.64251 21.6809
H -29.8869 7.43182 22.5588
O 22.4994 15.0409 23.6306
H 23.0161 14.733 24.3752
H 22.0521 14.2583 23.3087
O 16.6418 -23.853 10.2845
H 16.5345 -23.6213 11.207
H 17.0676 -23.0901 9.89339
O 13.4219 -14.4469 -8.48155
H 13.2957 -14.5591 -9.42374
H 12.8545 -15.1069 -8.08315
O 14.0601 22.866 27.9496
H 13.462 23.3253 27.3601
H 14.5125 22.2356 27.3892
O 27.632 -27.6427 -16.6364
H 27.7759 -28.3349 -17.2817
H 27.666 -26.8314 -17.1433
O 24.5891 20.6788 29.7668
H 24.5463 20.1967 -29.4074
H 25.3742 20.3437 29.3337
O 20.1476 16.1429 4.53043
H 20.9993 15.7361 4.68999
H 20.236 16.5555 3.67123
O -21.8673 -24.3702 17.3956
H -21.5959 -23.6338 17.9436
H -22.6189 -24.7461 17.8538
O -10.3754 18.7575 -23.7293
H -9.51648 19.178 -23.6872
H -10.3374 18.2124 -24.5152
O -8.54335 5.2673 -10.1288
H -8.40123 5.02775 -9.21304
H -9.46239 5.53203 -10.1678
O 22.5042 -22.3376 -16.7766
H 22.5417 -22.3656 -17.7327
H 22.3398 -21.4176 -16.5698
O -17.6173 1.07707 -22.4926
H -17.8526 1.78508 -21.893
H -17.4078 1.51909 -23.3154
O -3.05461 -23.3822 -1.32309
H -4.00627 -23.4847 -1.31504
H -2.72908 -24.1937 -1.71253
O -4.62519 8.07489 -14.2542
H -4.40536 8.91761 -13.8571
H -3.78344 7.71372 -14.5322
O 23.2737 17.8566 29.1586
H 23.8269 18.1724 28.4441
H 22.4767 18.383 29.0956
O -4.60783 10.658 2.89945
H -4.32374 9.99998 3.53388
H -3.79481 11.0453 2.57497
O 24.058 8.8336 15.4562
H 23.9488 9.64436 15.9532
H 23.1697 8.49055 15.3585
O 2.68015 0.83864 1.38937
H 3.56141 1.20889 1.43971
H 2.10629 1.59794 1.28756
O -12.2646 23.7991 -26.3856
H -12.8874 23.1193 -26.1283
H -11.6185 23.3416 -26.9235
O -24.733 22.1277 5.15899
H -25.2117 22.9562 5.18802
H -24.903 21.7829 4.28239
O -9.34642 27.3088 -7.96806
H -8.94277 27.0117 -8.78355
H -9.75452 26.524 -7.60242
O 18.0523 12.6384 3.10654
H 17.4105 13.3391 3.22186
H 18.6014 12.6847 3.88924
O -7.08693 18.024 24.7316
H -7.42264 17.8177 23.8593
H -7.42251 17.3228 25.29
O -28.5734 -8.33512 -20.5931
H -28.0807 -9.0526 -20.1948
H -28.2945 -7.55617 -20.1118
O 24.1929 25.6073 -24.8817
H 24.211 25.6771 -25.8362
H 23.3024 25.8614 -24.6394
O 9.65482 -23.5492 13.0422
H 10.4411 -23.0099 13.1266
H 9.91871 -24.4106 13.3658
O 15.729 0.47355 26.4134
H 16.6036 0.154944 26.6365
H 15.5517 1.159 27.0576
O 29.3191 7.40266 -24.987
H 29.526 6.49229 -25.1983
H 29.1215 7.80627 -25.8322
O 10.0445 4.39891 -8.02204
H 10.8342 4.87942 -8.27058
H 9.83315 4.7214 -7.14595
O -16.035 -7.66016 17.6549
H -16.3115 -8.57635 17.6746
H -16.3101 -7.34492 16.794
O -23.2244 24.3756 -16.5149
H -23.0577 25.1562 -15.9865
H -22.4328 24.2695 -17.0425
O -23.4581 -23.1603 -29.918
H -22.6916 -22.762 -29.5055
H -23.1713 -24.0418 29.8433
O 10.8234 -17.3641 -13.7389
H 9.90946 -17.4978 -13.9899
H 11.2615 -18.1788 -13.985
O -2.93048 14.4208 -0.194029
H -2.69517 15.3294 -0.382082
H -3.75494 14.4814 0.288489
O -28.1414 2.40818 -0.897081
H -28.0441 2.2769 0.0460648
H -27.8203 1.59508 -1.28696
O 29.4003 22.907 -14.4632
H 29.0826 22.8252 -13.564
H 28.6675 22.6131 -15.0043
O -20.2168 10.4592 17.0015
H -19.8956 11.0269 17.7021
H -20.033 10.9438 16.1967
O 20.2358 29.4559 19.7801
H 20.1701 -29.5983 19.912
H 20.2665 29.3478 18.8295
O -10.6533 -2.02942 12.483
H -11.1613 -2.82271 12.6528
H -10.0517 -2.27552 11.7803
O 12.1091 20.5713 7.24139
H 12.3997 20.5393 6.32995
H 11.2835 20.087 7.24716
O -9.80347 17.98 -20.9353
H -10.738 18.1795 -20.9907
H -9.48273 18.0821 -21.8314
O -16.4999 18.522 7.27044
H -16.737 17.6374 6.99204
H -15.8015 18.3925 7.91207
O -0.168776 -9.24557 5.90058
H -1.04975 -9.27891 6.27341
H 0.406635 -9.1208 6.65528
O 1.55001 26.9559 -21.5513
H 0.667652 26.5852 -21.5344
H 1.41886 27.8778 -21.7732
O -1.59969 -26.7164 17.6327
H -1.93774 -25.9321 17.2004
H -0.675008 -26.7461 17.3871
O 13.6532 10.6518 4.02107
H 13.7473 10.4889 3.08252
H 12.7251 10.5001 4.19918
O -29.6877 -8.69349 18.8323
H -29.1174 -8.77525 19.5967
H -29.7856 -9.58911 18.5091
O -28.5711 29.9243 0.510197
H -28.6832 -29.2973 1.05592
H -28.0859 -29.765 -0.254192
O -25.209 -16.0397 -2.26811
H -26.1484 -16.071 -2.0868
H -24.8066 -15.8581 -1.41882
O 9.72832 -24.2648 8.25952
H 9.39149 -24.6041 7.4303
H 8.9608 -24.2193 8.82968
O 23.4454 23.2034 -15.2761
H 23.6478 22.3525 -14.8871
H 22.5109 23.3272 -15.1098
O -15.4342 -7.5651 -27.2417
H -15.7839 -6.95322 -26.5939
H -16.1981 -7.84064 -27.7484
O 1.98707 19.3417 21.6955
H 1.07628 19.5668 21.5058
H 1.93761 18.7614 22.4552
O 21.8587 -24.2927 -0.210623
H 21.3579 -25.0605 -0.486198
H 21.3134 -23.5474 -0.462389
O -16.9109 -16.656 -0.251916
H -16.5983 -17.1567 0.501684
H -17.7052 -17.112 -0.530216
O 21.6433 8.15243 -17.256
H 21.4065 7.26569 -17.5277
H 22.5894 8.20095 -17.3934
O 2.12488 -6.84361 -27.5311
H 1.66418 -6.04485 -27.2743
H 1.54142 -7.26473 -28.1624
O -14.4145 0.495689 -6.15729
H -14.4066 -0.292213 -5.6138
H -13.6543 0.399184 -6.73084
O 1.44736 -29.6535 -7.57953
H 1.28559 29.4715 -7.93208
H 1.47416 -29.7781 -6.63086
O -26.7896 -9.53797 -5.60745
H -27.722 -9.39049 -5.76581
H -26.5074 -8.77298 -5.10608
O -4.70347 -18.0459 15.046
H -4.99031 -18.8989 15.3721
H -4.37578 -18.2238 14.1644
O -5.55041 -18.7297 29.882
H -5.55715 -17.7757 29.8049
H -5.7297 -19.0435 28.9957
O -23.182 3.50538 27.765
H -22.2328 3.4832 27.6441
H -23.4912 2.68123 27.3889
O -24.7393 -28.9713 19.6501
H -23.9015 -28.574 19.888
H -24.5028 -29.8063 19.2462
O -26.9702 10.7684 23.5558
H -27.5304 11.4966 23.287
H -26.719 10.3435 22.7357
O -0.00494247 13.3843 -19.6667
H 0.648069 12.6863 -19.6151
H 0.500943 14.172 -19.8663
O -4.018 -7.86355 11.7087
H -4.29677 -8.77924 11.7135
H -4.65887 -7.41464 12.26
O 20.2895 20.2577 -25.2402
H 20.6621 20.9744 -25.7537
H 20.2369 20.603 -24.349
O 24.4359 -23.5744 0.561883
H 23.6848 -24.1441 0.396009
H 24.927 -24.0197 1.25229
O -17.2871 8.73031 4.43284
H -17.0452 8.6727 5.35717
H -16.4513 8.76628 3.9678
O 0.771288 1.00164 12.3163
H 0.107313 1.23492 12.9651
H 1.39317 1.729 12.3371
O 1.34639 -7.78581 15.8392
H 0.726466 -8.4166 16.2053
H 0.933052 -7.48515 15.0299
O -29.2561 -7.87421 -10.6905
H -29.2852 -7.61508 -9.76948
H -28.323 -7.95981 -10.8863
O 24.5914 29.8467 -12.6108
H 25.3805 29.7996 -13.1505
H 24.6072 29.0425 -12.0919
O -21.021 -26.8575 11.833
H -21.1948 -26.7477 12.7678
H -20.4997 -27.6585 11.7783
O -29.9161 19.7172 -2.19788
H -29.7943 20.2899 -1.44069
H -29.0287 19.4658 -2.45389
O -9.99839 -7.93001 9.4691
H -9.68753 -8.83435 9.51102
H -9.20925 -7.41211 9.3101
O 1.10732 20.2097 2.88196
H 1.37189 20.2023 3.80184
H 1.03313 21.1381 2.66106
O 26.5636 11.4369 -15.9162
H 26.8481 10.6038 -15.5404
H 25.6601 11.539 -15.617
O 15.833 24.2977 6.22943
H 15.692 25.1079 5.73964
H 16.173 24.5856 7.07667
O 10.8311 19.0085 -26.9813
H 11.6074 19.2131 -27.5025
H 10.7704 18.0535 -27.0058
O -5.09671 -12.9285 6.56918
H -5.94302 -13.0538 6.99846
H -5.31742 -12.6725 5.67364
O 13.3664 -0.237306 -1.65175
H 13.5419 -0.793009 -2.41111
H 12.4143 -0.139828 -1.64066
O -23.4252 -21.0385 19.8628
H -23.2612 -20.4218 19.1493
H -22.7267 -21.6882 19.7837
O 25.1974 19.0687 0.848398
H 24.8052 19.7637 1.37698
H 25.9398 19.488 0.413401
O -1.28582 26.7668 -14.5753
H -0.39888 27.122 -14.6334
H -1.8292 27.4001 -15.0442
O 7.08477 -19.0409 -19.7634
H 7.11608 -18.085 -19.8025
H 7.72074 -19.2743 -19.0872
O 23.7809 18.1802 14.8193
H 23.7014 17.9012 15.7315
H 24.6901 17.9898 14.5884
O 25.9144 -5.26301 -12.7258
H 25.2911 -4.53697 -12.701
H 26.7478 -4.85587 -12.9622
O -28.2679 -24.802 23.1912
H -28.2323 -24.4536 24.0821
H -27.7094 -24.2152 22.6815
O 0.634606 -7.27315 -8.57259
H 0.881764 -6.95782 -9.44191
H 0.0458574 -8.00851 -8.74247
O -9.70712 -20.7829 -27.5199
H -10.1513 -20.2208 -28.1547
H -8.78628 -20.7577 -27.78
O -28.302 29.2232 29.4083
H -27.5991 28.9705 -29.9932
H -28.1029 -29.8705 29.1733
O 4.60105 -16.7164 23.2331
H 4.85361 -17.3447 23.9097
H 3.85466 -17.124 22.7938
O -28.6192 13.3636 23.0163
H -28.0735 13.5128 22.2442
H -28.4178 14.0967 23.5979
O 9.50666 9.59018 18.6538
H 9.52696 10.1835 17.9029
H 9.97618 10.0596 19.3433
O -9.38781 15.3559 -12.6054
H -8.85111 15.5868 -11.8472
H -9.33729 16.1219 -13.1773
O 26.7222 21.9019 18.6416
H 27.007 22.3311 17.8348
H 27.5344 21.7051 19.1083
O -15.0954 16.9478 28.2054
H -14.2712 17.4345 28.1924
H -15.3291 16.847 27.2826
O -26.1146 17.5047 25.1879
H -26.043 17.3515 24.2458
H -25.6295 18.3163 25.3367
O 17.8276 -15.0937 9.43103
H 17.2117 -15.1766 8.70298
H 18.6254 -14.7464 9.03213
O -1.52158 21.7988 19.8237
H -2.1635 21.3022 20.3311
H -1.79968 22.7105 19.9116
O -19.3887 11.0025 24.3199
H -19.558 10.5595 25.1513
H -18.681 11.6168 24.515
O 16.9949 -17.9952 -16.6968
H 16.3077 -18.0005 -17.3632
H 17.52 -18.7724 -16.8874
O 27.57 2.82447 24.4196
H 28.0188 3.66945 24.3917
H 27.6004 2.50668 23.5172
O -0.224081 13.777 -11.7116
H 0.703707 13.7703 -11.9469
H -0.59871 13.0383 -12.1913
O -21.9696 17.7379 6.65259
H -22.5692 17.1222 6.23118
H -21.1368 17.6111 6.19803
O -0.241689 18.4777 -6.4674
H 0.342993 17.7206 -6.50223
H 0.309902 19.1925 -6.14949
O 24.9439 -11.0843 27.9595
H 25.3479 -10.2339 28.1322
H 25.4309 -11.6976 28.5098
O 9.29899 4.13888 -11.3743
H 8.4102 4.17405 -11.0207
H 9.82032 4.6623 -10.7656
O -23.4881 -8.01452 17.1607
H -22.9479 -7.29541 17.4882
H -22.914 -8.77979 17.1927
O 4.17818 6.48709 -19.7476
H 3.25879 6.74745 -19.8038
H 4.64917 7.16241 -20.2358
O 8.49413 -9.2904 9.48258
H 8.16368 -8.48519 9.88092
H 8.63807 -9.06228 8.56417
O -1.96406 16.7143 -16.8269
H -2.91711 16.6777 -16.908
H -1.79494 16.5364 -15.9017
O 5.25114 -21.8792 17.8958
H 4.69179 -21.4321 18.5309
H 5.94375 -21.2483 17.6998
O -16.272 -11.8922 27.8885
H -15.441 -12.3448 28.0324
H -16.6779 -11.8545 28.7545
O -7.8618 -25.3535 2.02239
H -8.09667 -25.3794 2.94997
H -6.91031 -25.2492 2.01859
O 21.3191 28.9308 -3.03021
H 21.3196 28.0289 -3.351
H 21.1848 29.4641 -3.81363
O -28.3527 24.9334 2.68768
H -28.5228 24.3502 1.94793
H -28.9809 24.6617 3.35682
O 8.09536 17.2872 -16.3142
H 7.38237 17.626 -16.8556
H 8.6347 16.7777 -16.9189
O 9.22126 -16.8276 -27.5416
H 8.3796 -17.1024 -27.9054
H 9.87253 -17.1968 -28.1381
O 25.271 19.4577 23.5312
H 25.1792 18.505 23.5167
H 25.5673 19.6837 22.6495
O 17.5174 -11.525 15.7573
H 17.9596 -10.7418 16.0848
H 16.5848 -11.3211 15.8277
O -13.5136 -13.554 -1.58223
H -13.8293 -14.4539 -1.50044
H -13.0805 -13.3748 -0.747613
O 28.153 -20.6004 3.77189
H 28.937 -20.9451 4.19925
H 27.4286 -20.9017 4.32029
O -21.5332 -22.013 -9.35812
H -21.9266 -21.1508 -9.49219
H -21.2252 -21.998 -8.45196
O -15.6645 -19.5795 15.2892
H -16.2163 -18.8869 15.6527
H -14.7757 -19.2271 15.3351
O 13.549 23.1189 11.984
H 13.0587 23.9408 12.0045
H 14.3258 23.3158 11.4606
O -13.1188 25.7865 -16.0569
H -13.5612 26.4798 -15.5672
H -12.9897 25.0859 -15.4175
O 2.75924 -8.78141 -16.9285
H 2.69818 -9.6841 -16.616
H 3.05994 -8.86068 -17.8338
O 6.79442 2.57895 5.34721
H 5.88837 2.35387 5.5585
H 6.75716 3.49674 5.07794
O -19.699 -10.1553 -28.5162
H -20.385 -9.73307 -29.0333
H -19.0116 -10.3591 -29.1503
O -9.59652 18.49 -2.01317
H -9.34503 19.4083 -2.11203
H -9.69095 18.3674 -1.06857
O 8.68571 -22.0666 -6.88047
H 8.34836 -21.9879 -5.98815
H 8.86146 -21.1653 -7.1509
O -14.3016 17.7882 19.4057
H -14.2334 18.3869 20.1494
H -14.1333 18.3369 18.6397
O -17.4373 -17.0015 15.3189
H -17.7223 -16.0878 15.3088
H -17.4048 -17.253 14.3959
O 10.6346 -25.506 19.9949
H 10.386 -24.604 20.1969
H 11.205 -25.7655 20.7184
O 14.205 28.8353 19.8271
H 13.8337 29.4745 20.4352
H 15.1411 29.0344 19.8115
O 27.9564 -14.5313 15.7738
H 28.5123 -15.3105 15.7766
H 27.1304 -14.8272 15.3911
O -29.1789 26.7078 -28.7455
H -29.039 27.2691 -27.9829
H 29.8823 26.7711 -28.9211
O 13.0459 11.2851 -17.3972
H 13.4873 10.5971 -17.8953
H 13.3693 12.1018 -17.7774
O -23.6724 23.0968 -4.27397
H -22.8705 22.7461 -3.88632
H -23.853 22.5191 -5.01554
O 11.156 24.3662 -5.05699
H 11.3638 25.3003 -5.08011
H 10.4153 24.2702 -5.65555
O -29.6881 -13.085 1.39898
H -29.7851 -12.2953 0.86673
H 29.7987 -13.7491 0.938822
O -6.21621 0.406195 7.67395
H -5.42596 -0.131975 7.71983
H -5.91942 1.28802 7.89875
O 17.3298 -7.53135 -3.16603
H 17.0422 -8.05618 -2.41898
H 18.1082 -7.07184 -2.85108
O -26.5854 -2.11115 4.95763
H -26.8426 -2.3381 4.06402
H -25.6721 -1.8348 4.88157
O -0.265754 -1.50389 -9.95952
H 0.0298095 -0.687153 -10.3618
H -0.845605 -1.89668 -10.612
O -25.0049 16.7019 17.5679
H -25.8302 16.2458 17.7325
H -25.2305 17.6309 17.6162
O -12.0545 -10.47 11.1003
H -11.8561 -10.0634 10.2568
H -12.6846 -11.1597 10.892
O 1.67639 -7.50798 3.59527
H 0.769474 -7.23357 3.73101
H 2.06384 -7.49754 4.47048
O 2.6035 25.4769 5.99242
H 1.83629 25.6846 6.5258
H 2.28732 24.8347 5.35698
O 8.17315 -11.2105 22.0552
H 7.96294 -10.6907 21.2795
H 9.11693 -11.3589 21.9962
O 26.4764 0.00478898 -29.3417
H 27.3154 0.105064 -29.7914
H 26.678 0.163265 -28.4195
O -3.72277 -14.8028 21.8504
H -2.92746 -15.083 21.3975
H -3.42292 -14.5374 22.7199
O 4.62816 -10.2021 22.1354
H 5.52264 -9.88099 22.2497
H 4.7338 -11.0958 21.8095
O 19.0584 3.57023 -13.9516
H 18.1111 3.44241 -13.9016
H 19.1677 4.33777 -14.513
O -20.8685 3.0272 -19.0258
H -21.7463 3.04335 -19.4069
H -20.3231 3.49353 -19.6593
O 7.48654 -7.73058 18.5363
H 6.8585 -7.04039 18.7495
H 8.03539 -7.35187 17.8496
O 12.2178 -12.8613 -3.56911
H 11.417 -12.345 -3.47772
H 12.9163 -12.2739 -3.28051
O -1.58434 7.12522 2.90047
H -1.37102 7.52219 3.74495
H -1.3896 7.80787 2.25836
O 22.6914 28.6177 -23.3504
H 23.343 29.1489 -23.8079
H 23.2039 28.0627 -22.7626
O 3.34101 7.23339 9.89555
H 3.11084 8.06892 9.48917
H 3.74439 7.47508 10.7293
O 25.1216 -2.47932 2.64613
H 25.7228 -3.16145 2.94523
H 25.6917 -1.78248 2.32122
O -22.7161 24.1277 -26.0042
H -21.8225 24.3226 -25.7216
H -22.6617 23.251 -26.3844
O 20.2628 0.262204 -20.9424
H 20.7475 -0.0308727 -21.714
H 19.4599 -0.258806 -20.9512
O 3.5298 2.7891 14.7317
H 4.29322 2.21207 14.7532
H 3.41663 3.07129 15.6393
O -24.7957 9.96135 -29.2066
H -24.3516 9.12239 -29.0832
H -24.1678 10.4959 -29.6927
O -6.3458 -22.4009 22.5758
H -7.17037 -21.9158 22.6061
H -6.53282 -23.1576 22.0202
O -0.644114 29.4737 12.1429
H -1.39456 -29.9359 12.0756
H 0.00229014 29.8373 11.5378
O 20.4551 19.0513 11.7047
H 21.1073 18.3827 11.9138
H 20.3192 19.5198 12.5283
O -27.6596 -14.9263 22.2088
H -28.3466 -15.4015 21.7414
H -26.8441 -15.3312 21.9134
O 2.12822 -27.6011 13.0428
H 2.01609 -26.6594 13.1722
H 1.52741 -28.0028 13.6704
O -5.97862 15.8294 19.4647
H -6.42755 15.9252 18.6247
H -5.41997 15.0604 19.3519
O 20.9866 26.0878 -12.6841
H 21.5546 26.2931 -13.4267
H 21.5276 25.5443 -12.1113
O -7.56501 25.1909 -17.4958
H -7.58897 26.1476 -17.5118
H -8.11692 24.9246 -18.2311
O -12.6932 -20.0705 -18.7693
H -12.4743 -19.6294 -19.5902
H -13.6333 -20.2394 -18.8309
O -23.4202 -12.6253 -28.3856
H -23.6794 -13.5462 -28.3528
H -24.2472 -12.1439 -28.4092
O -12.5797 12.1704 -24.0252
H -11.8194 12.4279 -23.5039
H -13.3257 12.292 -23.4379
O -10.2269 21.4129 -20.8954
H -10.7322 21.9684 -20.3018
H -9.69342 22.0255 -21.4017
O -21.1978 -0.330535 6.91028
H -20.4846 -0.967998 6.94461
H -20.7721 0.514069 7.05737
O -13.5845 7.28097 -25.8674
H -13.6165 7.88197 -25.1231
H -13.5374 7.85141 -26.6346
O -28.8681 24.2972 21.5313
H -29.0623 25.1364 21.9488
H -27.9656 24.3849 21.2246
O 1.72789 19.5853 -27.569
H 1.67013 18.6493 -27.7612
H 2.29531 19.9366 -28.2551
O 7.71186 -16.9404 -21.7305
H 8.46553 -17.3371 -22.1674
H 6.95188 -17.3508 -22.1431
O -29.5337 17.5661 -10.3645
H -28.8699 18.0432 -9.86637
H -29.0435 16.8878 -10.8292
O 4.49584 -19.2623 26.4596
H 4.50028 -18.709 27.2406
H 5.40179 -19.249 26.1509
O -18.654 22.0486 -15.1069
H -18.7085 21.333 -14.4736
H -19.5651 22.2506 -15.3197
O 18.3678 -9.05484 16.8973
H 18.9035 -9.08173 16.1044
H 18.7996 -8.40932 17.4568
O -2.43689 -28.727 11.2286
H -3.22292 -29.1582 11.5639
H -2.62379 -28.5737 10.3025
O -20.8407 -7.89713 12.5839
H -20.1428 -8.52088 12.3837
H -21.5138 -8.07094 11.9259
O 8.19503 -25.3639 -20.2892
H 7.69847 -26.1501 -20.0619
H 7.55453 -24.654 -20.2439
O -9.17061 20.0206 22.8908
H -9.86968 20.0535 22.2378
H -8.36277 20.0793 22.3808
O 5.57734 -25.1756 -24.2807
H 4.95285 -25.5113 -23.6375
H 5.17689 -24.3693 -24.6059
O -22.7514 -7.13286 -21.6224
H -22.8619 -7.66121 -22.4128
H -22.2066 -6.39645 -21.9002
O 8.65383 -29.8159 24.3227
H 7.80245 29.7593 24.4276
H 8.44652 -28.8893 24.2023
O 0.265678 14.9861 14.6306
H -0.431978 15.637 14.7065
H 0.860849 15.3476 13.9738
O -10.9228 -7.20823 22.775
H -11.5547 -7.16219 23.4925
H -11.0661 -8.07005 22.3839
O 3.15683 -18.5647 21.613
H 2.68135 -18.8784 20.8437
H 2.48069 -18.4412 22.2792
O 17.9537 3.55997 12.2742
H 18.0856 3.23463 11.3837
H 17.8419 2.77064 12.804
O -27.5904 -18.747 -9.16532
H -27.7469 -19.6646 -9.38795
H -27.5777 -18.2942 -10.0086
O 27.2053 -17.768 18.3225
H 26.2665 -17.9407 18.3943
H 27.6142 -18.6305 18.3941
O 21.3279 2.11132 -11.1532
H 20.6437 2.74969 -11.3548
H 20.9518 1.26836 -11.4066
O -19.8691 -18.1453 15.3325
H -20.3577 -17.3796 15.6344
H -18.9634 -17.8421 15.2682
O 18.1503 -9.67597 -22.0692
H 17.6072 -10.1123 -22.7257
H 18.9658 -10.1771 -22.0609
O -7.81733 -12.6288 -19.4856
H -8.61469 -12.8966 -19.0288
H -7.23714 -13.3873 -19.4205
O -23.4327 18.2555 21.8593
H -23.4092 18.9453 21.1961
H -23.0016 18.6411 22.622
O 1.61666 5.80818 22.5704
H 1.24898 4.92671 22.634
H 0.864863 6.36848 22.3778
O -8.71114 -11.0164 5.56597
H -7.9829 -11.6232 5.433
H -8.3209 -10.2687 6.01862
O 23.8361 1.24768 -10.0881
H 23.0653 1.20537 -10.6541
H 23.4985 1.07324 -9.20954
O -25.6303 9.7899 -20.6746
H -24.7841 10.177 -20.899
H -25.6995 9.89769 -19.726
O 23.6552 -1.887 -16.2217
H 23.9113 -2.5149 -16.8973
H 23.3855 -2.42893 -15.4802
O 15.1388 -22.3411 7.66234
H 14.7457 -23.0803 8.12626
H 15.7799 -21.9851 8.27763
O -5.26855 -24.3553 -5.04583
H -4.68755 -25.1132 -4.98106
H -5.06233 -23.8282 -4.27391
O 0.715891 12.9459 17.0007
H 0.958365 12.0299 16.8648
H 1.25514 13.432 16.3769
O 5.26718 -14.4726 -20.3493
H 5.93496 -14.3301 -21.0201
H 4.76007 -15.2183 -20.6701
O 8.34594 -8.32676 -6.27046
H 8.94177 -8.92737 -6.71821
H 8.3001 -7.562 -6.84427
O -15.2092 -19.6464 6.67554
H -16.1499 -19.5346 6.53839
H -14.8133 -19.3934 5.84156
O 5.69013 7.50961 -23.5308
H 6.12775 8.31336 -23.8113
H 4.91594 7.44994 -24.0905
O 1.49301 -12.1715 3.70559
H 1.94698 -11.8449 4.48246
H 2.06959 -12.8525 3.35922
O 15.1076 -5.49536 -8.99274
H 15.8569 -5.03424 -8.61562
H 15.0044 -5.11313 -9.86423
O -24.5261 -29.4274 -16.7607
H -24.2364 -28.8724 -17.4848
H -24.7343 29.7329 -17.1703
O 0.633461 -11.5546 18.7762
H 1.06271 -12.2453 19.281
H 0.835826 -10.7488 19.2517
O -14.7258 21.5289 7.40344
H -15.5336 21.9591 7.12322
H -14.9156 21.2141 8.28724
O -12.6717 -10.5032 -15.5969
H -12.1285 -9.92746 -15.0587
H -13.3276 -9.92253 -15.9828
O 22.9295 -15.0638 -4.39306
H 22.5127 -14.2218 -4.5762
H 22.4126 -15.4372 -3.67918
O -2.79448 -3.98962 8.77406
H -2.45192 -3.16961 8.41845
H -2.50653 -4.65915 8.15353
O 16.3828 -0.644646 17.683
H 16.1688 0.0235484 17.0319
H 16.1631 -0.240775 18.5225
O 29.4893 -14.043 -1.35482
H 28.9577 -14.8334 -1.4491
H 29.6828 -13.7753 -2.25323
O -6.0986 -15.6018 19.1385
H -6.03773 -15.0206 18.3804
H -5.7882 -15.0719 19.8727
O 8.1222 19.8253 -27.3557
H 8.90807 19.3248 -27.1363
H 8.29831 20.1786 -28.2277
O 19.8198 20.2781 -17.3
H 20.7232 20.2824 -17.6161
H 19.756 19.486 -16.7664
O 21.057 -1.0691 -18.6842
H 20.7862 -1.37289 -17.8178
H 20.4808 -0.327502 -18.8694
O -21.1541 -13.2292 10.0728
H -20.8782 -13.8484 10.7486
H -21.8958 -12.7651 10.4608
O -22.5451 -21.0579 6.55653
H -21.829 -21.6829 6.44389
H -22.3541 -20.6211 7.38657
O -21.6234 -2.74884 12.4946
H -21.8177 -3.13159 13.3502
H -22.2287 -2.01127 12.4186
O -7.64294 19.6477 -24.0173
H -8.15493 19.97 -24.759
H -7.00053 19.0556 -24.4083
O 12.5106 26.2101 -20.4965
H 12.1217 25.7923 -19.7281
H 12.4026 25.5687 -21.1988
O -27.8387 28.4089 19.0733
H -27.7321 29.0579 18.3779
H -28.1646 27.6283 18.6253
O -23.2153 -15.8959 0.0542337
H -22.5141 -16.4434 0.407525
H -23.626 -15.5048 0.825309
O 21.7758 26.6474 -15.7151
H 21.0939 27.2386 -15.3961
H 22.5904 27.0112 -15.3683
O 7.54933 -13.9874 -10.8811
H 7.82953 -14.902 -10.9155
H 7.98843 -13.5738 -11.6242
O -14.1462 29.5683 -5.59277
H -14.332 -29.6777 -6.15251
H -14.6613 28.8558 -5.97127
O -23.916 -9.72663 27.2341
H -23.5138 -10.5382 26.9246
H -24.7496 -9.6783 26.7662
O 3.00713 -10.3492 8.35147
H 3.75057 -9.86231 7.99583
H 2.75837 -9.86573 9.13927
O -11.4316 0.173565 7.40139
H -10.4929 0.323511 7.2891
H -11.8259 0.506259 6.59513
O 8.20306 12.7894 23.6133
H 7.33967 13.116 23.8664
H 8.34083 12.021 24.1672
O 2.8071 -4.82282 7.79109
H 2.33724 -4.98858 6.97378
H 2.78822 -5.66098 8.253
O -22.991 13.5343 2.79368
H -23.6513 12.9067 3.08754
H -22.3099 13.4982 3.46527
O 19.5059 7.37059 -14.4982
H 19.2343 7.76235 -13.6682
H 20.3409 6.94605 -14.3013
O 10.2123 -6.0983 13.952
H 10.8947 -5.50651 14.2688
H 9.51019 -5.51869 13.6565
O -28.5252 4.21677 2.54973
H -28.5066 5.14848 2.33111
H -29.4476 3.97165 2.47751
O 13.8853 5.74063 29.96
H 13.5687 6.57691 29.6186
H 14.6759 5.55797 29.4523
O -27.4071 -6.02972 -19.6815
H -26.5564 -6.42653 -19.4943
H -27.3262 -5.69949 -20.5763
O 22.4031 8.91914 -14.3933
H 21.9794 8.76202 -15.2371
H 23.3207 9.0815 -14.612
O -12.4484 1.85986 1.82045
H -12.4288 0.967027 1.47594
H -12.2848 1.75891 2.75816
O -24.987 9.01741 7.37317
H -25.3735 8.25252 7.79953
H -24.3987 8.6521 6.71239
O 12.3763 0.57241 -8.17621
H 12.4801 -0.157915 -7.56621
H 12.2986 0.158114 -9.0356
O -16.1607 -11.3155 -25.2106
H -16.8897 -11.8564 -25.5141
H -16.4746 -10.9255 -24.3947
O -26.9547 -3.77411 -7.92028
H -27.3431 -4.3118 -8.61041
H -26.3914 -4.37684 -7.43482
O -17.8829 16.7104 28.4601
H -17.9218 17.3654 29.1571
H -16.9474 16.5863 28.2995
O 8.34796 -4.58631 -29.784
H 7.41411 -4.60357 -29.5745
H 8.74095 -5.21682 -29.1804
O -16.8514 -8.20108 -24.7605
H -16.8022 -7.32624 -25.1459
H -17.6135 -8.60404 -25.1765
O 17.1461 -6.94136 -11.3409
H 17.6175 -7.71892 -11.0418
H 16.282 -7.26683 -11.5932
O -23.6038 -4.06715 -21.3374
H -23.2109 -3.30351 -21.7602
H -23.1278 -4.81395 -21.7007
O -9.11958 -26.2892 -1.29681
H -8.56583 -25.8663 -1.95315
H -9.03677 -25.7356 -0.520308
O -2.01222 -18.6863 -24.772
H -2.25653 -17.7751 -24.934
H -1.16032 -18.633 -24.3388
O 21.8146 -4.16546 -25.5387
H 22.6217 -4.4553 -25.1136
H 22.0461 -4.08492 -26.4639
O -17.9665 -20.8309 -15.3905
H -17.9963 -20.0592 -14.825
H -18.333 -21.5349 -14.8555
O -2.94534 -14.5942 -18.9298
H -3.73797 -14.0576 -18.9347
H -2.27249 -14.0319 -19.3136
O 1.4493 -6.0433 -23.7936
H 1.94503 -6.36505 -23.0406
H 0.569436 -5.88473 -23.4516
O 17.3991 14.8363 -10.0523
H 17.7759 14.0671 -9.62501
H 17.6747 15.573 -9.50681
O -7.47621 -3.49652 24.238
H -6.79015 -3.75717 23.6235
H -8.04908 -4.26113 24.2965
O 12.6464 -4.25573 7.3253
H 11.8854 -4.0949 7.88312
H 12.276 -4.45443 6.46535
O -19.6632 -2.35531 1.71509
H -19.1904 -1.70642 1.19391
H -20.5799 -2.08555 1.66005
O -9.18087 0.486891 25.3568
H -9.54325 -0.335931 25.0283
H -9.94511 1.0446 25.5022
O 3.26583 2.03051 -29.8067
H 2.35566 1.73665 -29.7683
H 3.29736 2.61567 29.4365
O -27.2538 0.15004 6.67904
H -27.3003 0.929301 6.12512
H -27.1893 -0.579216 6.06239
O 23.7503 -4.96508 -23.9576
H 24.4362 -5.52086 -24.3277
H 23.2334 -5.55498 -23.4089
O 15.351 -11.1257 18.0228
H 15.4707 -11.7451 18.7428
H 14.4058 -10.9791 17.987
O -15.7343 26.3939 27.911
H -15.1989 27.1285 27.611
H -15.1155 25.6703 28.0093
O 19.2046 -15.0572 28.8191
H 19.6628 -14.3505 28.3643
H 19.8711 -15.7323 28.9468
O 7.69044 28.3961 -17.2066
H 7.34436 28.415 -18.0989
H 6.91594 28.3116 -16.6505
O 24.0447 -11.7092 -15.7736
H 23.7404 -10.814 -15.9231
H 24.915 -11.6056 -15.3887
O 15.0919 22.1409 20.2281
H 15.7309 21.7795 19.6139
H 14.3261 21.5736 20.1391
O -12.7798 24.2904 14.118
H -12.1107 24.7598 13.6198
H -12.2884 23.6624 14.6475
O -4.24108 -0.226839 -22.8766
H -4.52969 0.12418 -22.0341
H -3.35349 0.114017 -22.9872
O 24.4792 8.8048 -17.076
H 25.1857 9.22351 -17.5677
H 24.818 7.93536 -16.8625
O 8.95125 16.477 11.9484
H 8.97401 15.8411 12.6635
H 9.86561 16.7316 11.8245
O 5.52855 -1.81918 -16.616
H 5.01217 -1.95876 -15.8222
H 5.17629 -2.44863 -17.2452
O 25.3043 -8.11928 20.4416
H 25.9391 -8.82786 20.5472
H 24.6836 -8.44809 19.7914
O 6.37571 12.0863 -6.84333
H 5.9641 11.8685 -7.6796
H 6.95428 11.346 -6.66056
O 24.2789 1.48343 9.83287
H 24.2834 2.3297 10.2801
H 24.4059 1.69955 8.90907
O 18.2938 1.52317 -4.31803
H 19.0732 2.05281 -4.48607
H 18.0236 1.76795 -3.433
O 20.4755 4.78526 14.6766
H 20.6565 5.57301 14.1639
H 20.7516 4.06297 14.1124
O -0.414544 -14.9208 23.0125
H -1.10963 -14.6108 23.593
H -0.765726 -15.7221 22.6242
O 17.6303 3.77458 -7.71701
H 17.5669 4.64508 -7.32403
H 17.6208 3.17366 -6.97199
O -3.54147 -26.6315 13.009
H -2.93061 -27.056 12.4066
H -3.87768 -25.8804 12.5201
O -27.6561 -20.4457 -3.06313
H -27.0258 -19.7978 -3.37792
H -28.1952 -19.9692 -2.43194
O -29.5365 -1.81972 12.443
H 29.911 -1.29091 13.0186
H -29.9739 -1.78519 11.5923
O -19.1751 28.8571 -12.4809
H -19.3238 28.0525 -11.9841
H -18.4413 29.2815 -12.0363
O 7.15242 -11.8349 4.97477
H 7.09916 -12.7402 5.2811
H 6.52267 -11.7875 4.25547
O -15.0725 7.04782 0.388082
H -15.0224 7.83249 0.933997
H -14.4051 7.18076 -0.285082
O -14.2485 22.2366 12.4623
H -13.6165 22.0616 11.765
H -13.7454 22.7008 13.1313
O -22.1479 -3.33205 15.4667
H -21.3047 -3.27402 15.9161
H -22.5718 -2.49204 15.6425
O 3.48601 3.73413 -10.509
H 3.3052 4.41173 -9.8575
H 3.36083 2.90976 -10.0389
O -13.5854 25.1623 -21.1518
H -13.384 25.7486 -21.8811
H -14.3327 24.6478 -21.4568
O 9.55291 23.3944 25.7345
H 9.95832 23.6603 26.5599
H 9.78185 24.091 25.1193
O -13.9019 8.1415 20.3908
H -13.1941 8.75946 20.5734
H -13.4859 7.44225 19.8866
O -5.38355 -4.62849 9.95935
H -4.6588 -4.82652 9.36625
H -6.08667 -5.21667 9.68386
O -17.7577 -17.2969 9.95067
H -17.677 -17.868 10.7146
H -16.8563 -17.0626 9.72987
O -28.8077 -9.61216 14.4853
H -28.9802 -10.0784 15.3033
H -28.2513 -8.87652 14.7411
O -1.86507 18.1391 5.37576
H -2.0354 18.5361 4.52159
H -0.914117 18.1833 5.4756
O -15.4511 -29.4633 17.9337
H -14.6921 -29.279 18.4871
H -15.8348 -28.604 17.7587
O -4.45583 -9.71369 -18.6048
H -5.32889 -9.4285 -18.8744
H -4.35417 -10.5802 -18.9986
O -16.8975 -4.38499 17.5021
H -16.4855 -4.86451 18.2208
H -16.8783 -4.99484 16.7645
O 23.5971 28.0454 9.42438
H 24.4927 28.2844 9.6635
H 23.0642 28.3437 10.1614
O 5.74692 -14.8206 -23.672
H 5.32588 -14.037 -24.0255
H 6.42443 -14.4849 -23.085
O 0.14432 -18.402 -16.7949
H 1.03345 -18.3436 -16.4453
H 0.18164 -19.1199 -17.4269
O 1.20696 -21.297 15.1274
H 1.56219 -22.0307 14.6258
H 0.957004 -21.6798 15.9684
O 19.9627 -13.4803 -3.45147
H 20.7643 -12.9869 -3.62568
H 19.442 -12.9027 -2.89329
O 6.94513 4.2896 3.3609
H 6.14115 4.79862 3.4646
H 7.02929 4.16379 2.41574
O 13.7411 2.96195 -20.7504
H 14.6406 2.92809 -20.4247
H 13.7331 2.36166 -21.4959
O -11.3952 7.41674 25.4533
H -11.4334 7.15009 24.5348
H -10.7637 8.1359 25.4683
O 18.5391 -2.6291 -1.64719
H 18.4533 -3.28032 -0.950925
H 17.9152 -1.94241 -1.4118
O -20.5105 16.7086 -13.775
H -20.728 17.2525 -14.5321
H -21.278 16.7711 -13.2063
O -24.1946 -25.8124 -6.12602
H -23.254 -25.6385 -6.16115
H -24.3234 -26.2691 -5.29472
O 11.2042 27.9589 28.5345
H 11.7193 28.7189 28.2638
H 11.2848 27.9416 29.4881
O 13.0621 15.2867 15.7165
H 13.0056 14.9887 14.8087
H 13.632 14.6474 16.144
O 12.9082 -14.08 18.2435
H 11.9745 -14.2905 18.2275
H 13.1908 -14.1735 17.3337
O -23.4792 -27.1219 14.3995
H -23.4789 -28.018 14.736
H -23.8186 -26.5942 15.1223
O 16.0703 11.4483 -29.8875
H 15.5795 11.1675 29.3402
H 16.7339 12.0474 29.7705
O -4.3966 -27.294 22.6185
H -4.58212 -27.328 21.6801
H -4.00476 -26.4314 22.7546
O 6.67324 6.88291 2.46743
H 6.99033 7.7235 2.79774
H 7.44003 6.31051 2.49257
O -25.0263 -6.25983 -1.1559
H -25.1185 -6.90831 -0.457905
H -24.2329 -5.77462 -0.92938
O -26.1015 -16.1887 29.7079
H -25.5229 -15.5227 -29.9207
H -26.8589 -15.6979 29.389
O -20.3394 16.9818 22.8852
H -20.0058 16.9448 21.9888
H -19.8212 17.6678 23.306
O 23.432 19.0484 11.5793
H 22.6654 19.568 11.8214
H 23.6497 19.34 10.6939
O -0.204165 15.0893 -2.81626
H -0.799232 14.6157 -3.39745
H 0.665065 14.7566 -3.03989
O 25.8705 -19.538 5.4087
H 25.9715 -18.9766 4.64008
H 26.4748 -19.1719 6.05442
O -11.579 -21.6627 29.8697
H -11.3155 -21.9039 28.9817
H -11.6867 -20.7121 29.8382
O -12.501 -5.37244 9.86044
H -13.3639 -5.31099 9.45085
H -11.8968 -5.50021 9.12912
O 21.3188 -11.4297 10.3447
H 20.9131 -10.5627 10.3366
H 22.1884 -11.2842 10.7173
O 24.0397 29.9705 -3.19366
H 24.6959 29.2939 -3.02654
H 23.2006 29.5247 -3.0783
O -25.7248 0.0220933 -1.24001
H -26.3438 -0.590243 -0.842303
H -25.8729 -0.0646765 -2.18169
O 29.3529 12.5614 29.4104
H 29.9838 11.8529 29.5378
H 29.7699 13.3278 29.8039
O 10.4333 -9.98555 -29.5988
H 10.983 -10.3215 29.6933
H 10.2527 -10.75 -29.0518
O -24.9555 9.6398 28.1578
H -25.3062 9.82269 29.0295
H -25.7282 9.57904 27.5961
O 13.3202 1.82798 22.7106
H 12.5986 2.42344 22.9131
H 14.109 2.32276 22.9322
O 8.00004 -13.9922 -22.0189
H 8.68395 -14.4864 -22.4708
H 8.37 -13.1163 -21.9085
O -29.1814 23.6693 18.179
H -29.759 23.4471 18.9092
H -28.7543 24.4821 18.4496
O 18.2833 -27.0941 -23.952
H 18.6996 -26.3217 -23.5696
H 17.9805 -26.8026 -24.812
O 26.2158 -27.6297 -7.13094
H 25.5484 -27.0446 -7.4894
H 26.808 -27.052 -6.6496
O -17.6996 -17.6581 -8.29
H -18.0846 -18.2332 -8.95133
H -16.7547 -17.757 -8.40675
O -22.4228 12.8141 -29.6621
H -21.9999 12.0298 29.9885
H -21.7068 13.4365 -29.5351
O -17.9063 19.5359 4.05528
H -18.518 20.1392 3.63327
H -17.1082 19.5972 3.53038
O -11.9476 -10.6023 5.19752
H -11.001 -10.7422 5.22233
H -12.06 -9.81579 4.66364
O -2.18848 -20.7869 16.9415
H -1.3641 -21.267 16.8633
H -2.8376 -21.3556 16.5273
O 18.2191 12.3832 -17.1621
H 19.0126 11.9712 -17.5039
H 18.1912 12.123 -16.2413
O -18.3045 22.2399 0.818753
H -18.8095 22.6456 1.52343
H -17.9912 21.4159 1.19173
O 2.40786 12.6504 -13.6464
H 2.36736 12.6313 -12.6902
H 2.07949 11.7932 -13.9177
O -6.69549 14.4 24.4812
H -6.77474 15.0747 23.8069
H -5.88497 13.9389 24.2652
O -26.0544 12.53 17.4188
H -26.5962 12.1472 16.7287
H -25.2167 12.712 16.993
O 8.67459 -21.4241 -24.1171
H 8.64015 -22.0133 -24.8707
H 8.39057 -21.9624 -23.3783
O 3.01865 23.0428 8.79226
H 2.74841 23.2083 9.69548
H 2.67853 23.7895 8.29933
O 4.63823 -4.68228 -27.7288
H 4.00481 -4.734 -27.013
H 4.77389 -5.59155 -27.9953
O 18.0164 17.1322 -8.86564
H 17.1121 17.12 -8.55185
H 18.5468 17.0678 -8.0715
O 5.85197 19.2772 -29.5277
H 5.78538 18.4269 -29.0932
H 5.43365 19.1454 29.6215
O 7.49703 -24.011 -16.1712
H 7.15308 -24.0567 -15.2791
H 7.29587 -24.8667 -16.5501
O 23.9922 -18.8803 -14.2392
H 24.3496 -18.2707 -13.5935
H 23.9893 -19.7275 -13.7935
O -22.9921 7.65577 27.8585
H -23.1707 8.58111 27.6909
H -22.8524 7.27728 26.9905
O 20.8618 -28.1171 -7.46181
H 19.9468 -28.3279 -7.64816
H 21.2796 -28.9665 -7.31997
O 27.4516 -11.029 -29.9773
H 27.4593 -10.1232 29.7134
H 27.6724 -11.5485 29.2496
O 17.7566 6.67634 1.91478
H 17.4505 5.7836 1.75484
H 16.9669 7.21439 1.85888
O -13.1996 5.93906 18.8917
H -13.0939 5.27771 19.5755
H -13.2336 5.43823 18.0766
O 5.95703 8.09119 9.23834
H 6.33344 7.70559 8.44722
H 5.07171 8.34924 8.9817
O -13.1178 2.95019 7.97142
H -13.0131 2.01091 8.1232
H -12.8122 3.08382 7.07419
O -5.22406 3.27959 28.5592
H -4.76565 4.08258 28.8067
H -6.12893 3.55524 28.4127
O 15.3158 2.16818 0.650402
H 15.9425 2.79671 0.291973
H 15.3589 1.42008 0.0548234
O -9.34971 -20.6409 -23.0633
H -9.75047 -21.1558 -22.3629
H -9.7242 -20.9983 -23.8684
O 1.0053 -24.8201 -13.6416
H 0.423801 -25.5529 -13.4389
H 0.438952 -24.049 -13.6119
O -27.1759 3.79303 -9.24051
H -27.7958 3.94967 -9.95284
H -26.3159 3.82562 -9.65934
O 17.5966 -20.4255 -7.78438
H 17.8523 -20.5066 -8.70322
H 17.7912 -21.2823 -7.40457
O -21.1883 19.7035 -14.5081
H -21.6553 19.5564 -15.3306
H -21.8675 19.6587 -13.8352
O 3.75102 17.1695 -29.5795
H 4.54946 16.6792 -29.3836
H 3.60356 17.0245 29.4859
O -20.1789 -3.00022 20.7921
H -20.3243 -2.80233 19.867
H -19.5333 -2.35363 21.0773
O -4.3337 19.6818 16.3251
H -4.58614 18.945 15.7686
H -3.38677 19.5897 16.4303
O 10.112 28.0017 -3.26363
H 10.4419 28.5376 -2.5423
H 9.30841 28.4414 -3.54127
O 12.9461 -22.2875 9.78447
H 12.3869 -21.9448 9.08728
H 12.3663 -22.8419 10.3066
O -2.16313 -20.0955 14.0441
H -2.75748 -20.3482 14.7506
H -1.63864 -19.3854 14.4141
O 18.2266 21.662 -7.39707
H 18.258 21.0288 -8.1142
H 17.3743 22.0877 -7.48994
O -16.7274 -26.0074 24.0196
H -16.7021 -26.0093 24.9765
H -16.6421 -25.0849 23.7791
O -7.11041 -5.17626 -12.2873
H -7.58201 -5.32727 -13.1065
H -7.74872 -4.74541 -11.7189
O -11.2356 4.53676 -6.71547
H -11.8203 4.30175 -5.99492
H -11.7046 4.26342 -7.5039
O 9.9292 24.172 28.6698
H 10.6253 24.6325 29.1384
H 10.1193 23.2442 28.809
O -22.1786 27.0345 -19.0824
H -22.9854 26.6931 -19.4682
H -22.3302 26.9985 -18.138
O -15.5327 -13.869 25.1486
H -15.6778 -12.989 25.4961
H -15.321 -13.7306 24.2254
O 8.22486 0.00947333 3.63757
H 7.73314 0.82045 3.76704
H 9.02676 0.283489 3.19249
O -8.27254 21.9103 15.9702
H -7.37579 22.2443 15.9926
H -8.46748 21.8085 15.0386
O 22.6066 21.1491 8.60009
H 23.1226 20.8997 7.83343
H 21.8125 20.6181 8.53798
O 19.8905 13.7226 -4.89406
H 20.81 13.9228 -5.0693
H 19.8232 13.7203 -3.93924
O -5.06462 -25.0867 -20.2471
H -5.24651 -25.9792 -19.9529
H -5.84412 -24.5891 -20.0001
O 18.1079 -28.8809 10.5762
H 18.9792 -28.9433 10.1848
H 17.6474 -29.659 10.2621
O 22.6513 27.3163 -5.07256
H 23.2481 26.6878 -5.47887
H 22.8959 28.16 -5.45279
O 22.939 3.16264 -3.3953
H 22.7414 3.42702 -2.4968
H 23.8883 3.04006 -3.40616
O -9.63118 -28.6776 6.83519
H -9.75044 -28.8099 5.8947
H -8.71578 -28.413 6.92615
O 3.78738 20.386 12.118
H 4.37494 20.7801 11.4733
H 3.06472 21.0088 12.1964
O -17.7469 25.2439 11.9409
H -17.0897 25.2772 12.6361
H -18.1613 24.3872 12.0434
O -29.4729 17.8499 2.07679
H 29.9159 17.1234 1.95511
H -28.6626 17.554 1.66206
O 5.43022 -12.5843 -0.302555
H 5.6203 -11.8128 0.231131
H 4.50572 -12.4944 -0.533741
O -0.429775 20.6269 -18.6298
H -0.754373 19.7267 -18.6107
H 0.435095 20.5617 -19.0348
O -9.76715 1.26036 -15.5888
H -9.83121 2.07891 -16.0808
H -10.2255 1.43759 -14.7674
O -26.8243 25.18 -6.00467
H -26.0029 25.6503 -6.14712
H -27.4921 25.7365 -6.40545
O 22.512 -21.4006 -21.9058
H 23.189 -21.9646 -21.5317
H 22.1189 -21.9269 -22.6019
O -27.2981 20.9422 12.0109
H -27.4397 20.1892 11.4373
H -27.0181 20.5608 12.843
O 10.399 -0.257751 -27.9373
H 10.9126 0.480084 -27.6086
H 10.8123 -1.02935 -27.55
O -7.78474 5.86883 7.32666
H -7.18366 5.84747 8.07129
H -7.65458 5.02758 6.88896
O 0.84001 25.0888 -28.3691
H 1.3687 24.9301 -29.1511
H 0.735527 24.2248 -27.9706
O 10.7029 -6.24191 20.0596
H 10.5911 -5.32577 20.3134
H 9.81076 -6.57939 19.9796
O 2.01353 -6.74208 -12.5496
H 1.81136 -5.98045 -12.0062
H 1.9106 -7.49044 -11.9617
O 18.744 28.0867 7.55535
H 18.4802 27.6003 6.77423
H 18.3933 28.967 7.41973
O 0.272551 13.4254 -15.7877
H 0.962406 13.354 -15.128
H 0.175258 12.5369 -16.1303
O 19.01 -29.4424 -8.72765
H 18.2373 -29.7805 -8.27501
H 18.7065 -28.6415 -9.15495
O 19.7951 -13.4267 11.3211
H 19.8416 -14.1581 10.7054
H 20.1845 -12.6905 10.8492
O -16.4631 -23.3775 -15.9078
H -15.6137 -23.288 -16.3398
H -16.9269 -22.5676 -16.1204
O 0.347638 -18.3646 -1.4497
H 0.978022 -17.9829 -2.06056
H 0.399973 -17.8086 -0.672248
O 29.3802 0.254957 -8.9436
H 28.8578 0.539628 -8.19375
H -29.962 -0.330926 -8.56919
O -6.81657 -29.9066 9.09767
H -6.18977 -29.276 8.74307
H -7.66261 -29.4627 9.03937
O 13.7873 26.5114 2.72155
H 13.1957 27.0014 3.29263
H 13.6554 26.8942 1.8542
O 4.57173 28.9931 -10.0917
H 4.27903 29.0482 -9.18197
H 5.52732 29.0053 -10.0374
O -0.317667 -14.9444 -1.6313
H 0.626812 -15.0377 -1.50691
H -0.405428 -14.2722 -2.30714
O -11.8273 20.0229 -17.7576
H -12.002 20.8681 -18.1714
H -12.662 19.7725 -17.3616
O 5.22397 1.9902 18.3622
H 5.34641 1.31324 17.6966
H 4.31668 2.2744 18.2513
O 21.2918 29.0575 -17.5551
H 21.2006 28.1244 -17.7481
H 20.5939 29.4761 -18.0589
O 22.7388 -3.60689 17.5186
H 22.7128 -2.83462 16.9537
H 21.9544 -3.53312 18.0622
O -12.6425 26.5726 -23.2649
H -11.8416 26.0932 -23.4769
H -12.8453 27.0647 -24.0604
O -6.9539 -13.8743 10.1525
H -7.89057 -14.0714 10.1594
H -6.73619 -13.7115 11.0703
O 2.34633 26.3841 -24.0717
H 1.92982 26.344 -23.2108
H 2.45925 25.4684 -24.3265
O 24.0339 -21.1841 -12.8572
H 23.2547 -21.7231 -12.9936
H 23.7345 -20.4664 -12.2991
O -20.2864 -18.5276 -11.1195
H -19.5525 -17.9146 -11.0777
H -19.9025 -19.3394 -11.4509
O 25.9056 13.3832 28.2138
H 26.0501 12.4474 28.3533
H 26.6493 13.6641 27.6807
O 22.5634 15.6312 -0.908793
H 22.2416 16.3183 -1.49231
H 22.3692 15.9533 -0.0286149
O -3.0021 -0.152496 18.6828
H -3.16466 0.443931 19.4136
H -2.96341 0.415638 17.9134
O -17.24 7.42153 12.684
H -17.2589 7.60733 11.7452
H -17.9072 7.9983 13.0562
O -12.7478 14.9258 -6.0282
H -13.2705 14.4509 -5.38201
H -11.8877 15.0197 -5.61896
O 20.49 -11.0888 24.4689
H 20.4543 -11.9588 24.8664
H 21.1196 -10.6059 25.0044
O -21.0318 -16.9661 -26.3596
H -20.7527 -16.5063 -25.5678
H -20.9901 -16.3035 -27.0491
O -13.6209 4.07616 -25.5181
H -13.0481 3.35017 -25.2711
H -13.4284 4.76204 -24.8788
O -14.2467 -20.1616 -7.17308
H -14.7809 -20.8823 -7.50676
H -13.4165 -20.5711 -6.92936
O -23.6339 -24.1441 26.5389
H -24.4262 -24.5669 26.8702
H -23.5395 -24.477 25.6464
O -1.93778 -10.6432 -9.78636
H -1.14367 -10.9436 -10.2284
H -1.68522 -9.81678 -9.37462
O 2.12924 21.1501 5.1398
H 2.41512 22.0256 4.879
H 1.68785 21.2818 5.97889
O 18.8827 -0.860902 5.08768
H 18.7286 -1.56161 5.72132
H 18.0565 -0.378523 5.05762
O -26.554 -26.3214 21.2318
H -26.4015 -27.0802 21.795
H -27.4974 -26.1687 21.2851
O -27.2987 18.7583 10.4012
H -27.2158 19.0996 9.5108
H -26.4039 18.5339 10.6566
O 26.8368 10.5172 -0.0180947
H 27.2573 11.0192 -0.71629
H 26.4417 9.76872 -0.46514
O -1.46441 22.2607 -22.2893
H -1.56071 22.842 -23.0437
H -0.519228 22.1396 -22.1987
O 19.5203 -17.9301 -22.759
H 19.254 -17.4367 -23.5348
H 20.2999 -18.4112 -23.0364
O 12.9834 -20.5263 0.975313
H 13.873 -20.5047 0.622667
H 13.1015 -20.6524 1.9168
O 10.6897 -20.1985 12.5317
H 10.0504 -20.5019 11.8872
H 11.3182 -20.9171 12.603
O -5.92967 -5.8031 12.5379
H -5.58771 -4.94659 12.2816
H -6.41077 -5.63666 13.3485
O 11.0311 -24.7189 25.637
H 11.6525 -25.3768 25.3255
H 11.1939 -23.9544 25.0845
O -10.9332 -25.8866 -17.2977
H -11.0065 -25.5689 -16.3977
H -10.1093 -25.5177 -17.616
O 9.03096 17.4446 -13.7105
H 8.18223 17.2535 -13.3113
H 8.98648 17.0372 -14.5756
O -27.0646 21.1432 -20.776
H -27.6722 20.6704 -21.3448
H -27.0667 20.647 -19.9574
O -18.5768 -23.3091 12.2544
H -19.4572 -23.5383 11.957
H -18.287 -24.071 12.7562
O -12.8956 -22.5019 25.8783
H -12.1872 -22.4684 25.2355
H -12.6676 -21.8309 26.5219
O -15.171 -5.34428 -25.5448
H -14.8646 -5.262 -24.6417
H -15.3794 -4.44849 -25.8101
O 29.7442 18.0231 -17.8127
H 29.2684 18.8458 -17.699
H 29.7157 17.8576 -18.755
O -2.56504 1.81518 16.856
H -3.28884 2.37598 16.577
H -1.8666 1.99371 16.2263
O -0.298616 -9.75816 17.043
H -0.364339 -10.4817 17.6662
H -1.11744 -9.79227 16.5484
O 29.8069 4.75102 -25.1768
H 29.0448 4.75863 -25.7559
H -29.4514 4.93286 -25.7538
O 23.2082 -23.8207 26.0966
H 23.5782 -22.9597 25.902
H 23.6376 -24.0883 26.9092
O 11.3132 -9.03883 20.918
H 10.8026 -8.63162 21.6178
H 11.2 -8.45531 20.1677
O -20.6259 -29.5687 -10.2828
H -20.3046 29.7139 -10.8291
H -20.8848 -28.8899 -10.906
O 13.1795 29.4582 23.7289
H 12.449 29.7024 23.1607
H 13.91 29.3071 23.1291
O -15.6877 17.485 0.700296
H -15.2901 17.4091 1.5677
H -16.5051 16.9914 0.76695
O -19.586 -26.0115 23.8075
H -18.6921 -25.8495 24.1089
H -20.0763 -26.2085 24.6056
O -15.2797 -0.0612631 -17.228
H -14.394 -0.422501 -17.1944
H -15.7603 -0.657253 -17.8025
O 4.0957 29.8441 17.9888
H 4.85418 29.503 17.515
H 4.35027 29.8031 18.9107
O 4.61781 -26.3364 22.6676
H 4.2337 -25.5204 22.347
H 3.91002 -26.9774 22.6009
O 14.6152 13.2874 -18.4694
H 15.0761 14.1175 -18.3479
H 15.3106 12.6454 -18.6123
O 28.3467 7.85272 -8.11343
H 27.4224 7.80222 -8.35719
H 28.4318 8.69589 -7.66839
O 15.3989 6.87593 -18.0787
H 15.827 6.07901 -18.3915
H 16.1161 7.49361 -17.9363
O -19.3807 16.2039 -24.9084
H -20.1202 16.7461 -25.1829
H -19.7064 15.3058 -24.968
O 25.6984 22.4062 4.56665
H 25.3837 22.7615 3.73541
H 26.4338 22.9703 4.80569
O -18.3798 -16.9765 -3.7874
H -18.9426 -16.4995 -3.1774
H -18.2679 -16.3796 -4.52733
O -29.7691 -12.7958 13.5664
H 29.474 -13.0891 14.0737
H 29.8549 -12.2976 12.8406
O -0.555996 -1.93072 12.8524
H -0.48289 -2.73483 13.3665
H 0.336421 -1.58634 12.8173
O -27.6081 29.8294 14.7956
H -27.6856 29.0459 14.2513
H -26.6731 29.8954 14.9895
O 7.72335 -19.004 3.74402
H 7.39586 -19.1851 2.86301
H 6.93575 -18.8513 4.26614
O 2.91536 10.6862 -22.5493
H 2.37041 9.92186 -22.7365
H 3.09784 11.0671 -23.4083
O 6.67254 -15.557 24.2635
H 5.78778 -15.8757 24.085
H 7.08133 -16.2567 24.773
O -12.0683 -15.8429 -9.35657
H -11.9545 -15.8867 -10.306
H -12.6932 -16.5402 -9.15741
O -14.4796 -14.4096 -29.5391
H -14.3313 -13.5452 -29.1555
H -14.7031 -14.2315 29.5473
O 3.62853 -19.1057 16.2062
H 2.91544 -19.162 16.8423
H 3.28677 -19.5381 15.4236
O 1.5969 -4.652 -6.86592
H 1.25388 -4.46331 -7.7394
H 2.12287 -3.88381 -6.64353
O 12.0924 -16.699 24.8962
H 11.1659 -16.8615 24.7187
H 12.4173 -16.272 24.1035
O 9.70008 25.8495 -23.0618
H 10.6543 25.7915 -23.0127
H 9.4248 24.9965 -23.3978
O 21.709 22.7034 -25.8332
H 22.6568 22.7634 -25.7138
H 21.5486 23.1066 -26.6864
O 25.4648 17.6655 12.8134
H 24.7992 18.3006 12.549
H 25.5025 17.0415 12.0886
O 23.2105 6.88801 11.7359
H 22.2987 6.96914 12.0158
H 23.6784 6.60503 12.5215
O -21.6105 -18.156 9.37367
H -21.9959 -18.5325 10.1648
H -22.3257 -18.1502 8.73757
O -16.4998 -22.0082 -23.3269
H -16.8113 -21.8871 -22.43
H -17.0637 -21.4433 -23.8552
O 25.5174 25.2351 24.4634
H 24.9502 24.4641 24.4586
H 26.0608 25.1285 25.2441
O 4.64298 4.72852 -12.9126
H 4.51577 4.39941 -12.0228
H 5.18966 4.06736 -13.3371
O 12.4719 -22.2902 16.3657
H 13.0821 -21.5531 16.3398
H 11.6563 -21.915 16.6978
O 15.0537 -14.3945 24.5234
H 14.5272 -14.7481 23.8065
H 14.9293 -15.0151 25.2414
O -15.1166 26.6632 1.61514
H -14.4353 26.7204 2.2851
H -15.8063 26.1363 2.01859
O 2.22918 -9.40137 -1.05519
H 2.83108 -9.01023 -1.6884
H 2.42328 -8.95396 -0.231548
O -16.1845 -20.4264 26.0841
H -15.5716 -20.4965 25.3522
H -16.9765 -20.8674 25.7769
O -15.2831 -15.1408 4.56424
H -15.7741 -15.4572 5.32259
H -14.8103 -15.91 4.24649
O 17.3976 18.5025 -5.14654
H 18.3341 18.6869 -5.21861
H 17.3477 17.731 -4.58222
O -12.2217 10.7894 11.7477
H -12.9309 10.8062 12.3904
H -12.6587 10.9119 10.905
O 3.22923 19.9036 0.132202
H 3.1592 19.7515 -0.810236
H 2.34199 20.1385 0.403963
O -23.7649 -19.1719 -7.02757
H -24.1475 -18.5513 -6.40725
H -22.8406 -19.2169 -6.7828
O 6.60691 24.5298 15.9234
H 6.1017 23.8899 16.425
H 7.04695 24.0125 15.2488
O 9.02648 -28.7082 29.3352
H 8.13262 -28.4121 29.1633
H 9.39268 -28.8819 28.468
O 25.4677 29.6992 25.9368
H 25.756 29.7133 26.8494
H 24.6126 29.2697 25.9619
O -29.4719 17.9391 7.83086
H 29.9434 18.1335 7.09831
H -28.7226 18.5203 7.70057
O -25.4592 -11.4144 -19.7988
H -26.2992 -10.9754 -19.6646
H -25.6116 -12.3159 -19.5157
O 27.1136 -29.8962 -5.31215
H 26.7042 -29.1253 -5.70488
H 28.0105 -29.621 -5.12192
O 25.5676 27.1908 -17.8021
H 24.7564 26.912 -18.227
H 25.5869 28.1403 -17.9214
O -24.5414 -26.5578 -12.0411
H -25.4051 -26.8625 -11.763
H -24.6412 -26.3731 -12.975
O 19.4406 24.7291 11.6008
H 19.5612 25.6243 11.2843
H 19.1686 24.8315 12.5128
O 0.761632 5.12648 27.6701
H 0.934275 5.40995 28.568
H 1.53763 5.39735 27.1795
O -2.27759 16.828 -0.614449
H -1.53672 17.2795 -1.01873
H -3.03866 17.36 -0.846676
O -7.23143 22.1332 7.02646
H -7.55099 22.6553 6.29059
H -6.38811 21.7911 6.72971
O 26.7709 -17.493 -25.2683
H 27.3478 -17.3386 -26.0164
H 27.3013 -17.2647 -24.505
O 11.1281 -15.9347 28.2818
H 11.0589 -16.2908 27.396
H 11.7431 -15.2058 28.2002
O 4.6643 -11.3913 -16.3082
H 5.2215 -11.6438 -17.0445
H 3.82619 -11.8191 -16.4839
O -1.30481 -22.8027 19.9959
H -2.22084 -22.6501 20.228
H -0.822205 -22.1201 20.4622
O -16.2411 -12.8904 -13.9645
H -17.121 -12.8145 -13.5954
H -15.6766 -12.4451 -13.3326
O -7.19912 19.2891 5.81901
H -7.66613 20.0438 6.17755
H -6.68935 18.9505 6.55503
O -12.8411 -18.7734 17.9259
H -13.533 -18.4023 17.3784
H -12.765 -18.1654 18.6613
O 8.7496 24.9144 17.3927
H 8.49473 24.8202 18.3105
H 8.00559 24.5678 16.9002
O -13.9408 25.4395 6.3499
H -13.9868 25.9545 5.54434
H -13.5202 26.0214 6.98297
O -9.72175 26.1943 17.7951
H -8.99938 26.8219 17.8184
H -9.31287 25.3505 17.9876
O -5.35788 15.0121 -25.0918
H -5.39219 14.4476 -24.3195
H -4.7874 14.5472 -25.7038
O 20.2451 0.262844 24.892
H 21.1865 0.345934 24.7402
H 20.0952 -0.680153 24.9591
O 0.507568 -23.0559 17.3296
H 0.163542 -22.9673 18.2184
H 1.44222 -23.224 17.4496
O -20.375 20.2442 11.8057
H -21.3305 20.2118 11.7585
H -20.09 19.3853 11.4939
O -21.3513 -16.5469 16.7148
H -22.2126 -16.2083 16.4705
H -21.1614 -16.1342 17.5573
O -18.3954 24.5939 2.79914
H -17.8409 23.817 2.87121
H -18.1099 25.0183 1.99008
O -26.913 -12.7909 -3.59782
H -26.1541 -12.9915 -3.05
H -26.5396 -12.4356 -4.40436
O 4.09196 1.64273 -2.69374
H 4.20889 0.730629 -2.95949
H 3.15574 1.80731 -2.80615
O 15.623 17.5101 17.6775
H 15.5802 16.9761 16.8843
H 15.8768 18.3796 17.3681
O 26.1546 28.2063 -3.05906
H 26.9744 27.92 -2.65638
H 26.4096 28.5169 -3.92781
O -28.5024 29.2501 -21.1998
H -28.7037 -29.8674 -21.5111
H -27.6691 29.0325 -21.6176
O 5.31117 -25.5576 1.72437
H 5.7062 -26.1961 1.13064
H 5.79678 -25.6587 2.54303
O 18.3638 16.0671 17.6488
H 18.2349 15.8857 16.7178
H 17.5711 16.5331 17.9145
O -19.2297 -17.9541 -19.8429
H -18.7705 -17.1601 -20.1168
H -18.6611 -18.343 -19.1783
O 21.8291 -0.596399 -23.1077
H 21.2289 -1.17571 -23.5771
H 22.4959 -1.18175 -22.7485
O 4.99959 2.62642 -24.4858
H 5.15707 3.15923 -23.7064
H 4.6187 1.81536 -24.1492
O -27.5836 28.1848 26.1868
H -27.5796 27.8174 27.0707
H -26.7624 28.6728 26.126
O 22.7529 -12.77 -18.4356
H 23.2484 -12.4335 -17.6889
H 23.1796 -13.5987 -18.653
O 20.241 -0.77595 -13.1124
H 19.3701 -0.459434 -12.8723
H 20.4676 -1.40084 -12.4236
O -8.84168 -12.6749 -4.77132
H -8.98315 -12.2319 -3.93465
H -9.69898 -12.6634 -5.19691
O -1.93404 -23.3508 28.0004
H -1.72061 -23.9856 28.6844
H -2.88711 -23.2699 28.0371
O -14.1433 2.93517 18.7333
H -14.046 1.98655 18.8164
H -14.9509 3.05063 18.2327
O -15.1636 -20.5064 28.5142
H -14.6995 -21.3418 28.569
H -15.2242 -20.3265 27.5761
O -16.7485 20.1636 1.70093
H -15.8041 20.0078 1.69912
H -17.0955 19.5417 1.06132
O 14.9169 -1.30015 23.3869
H 15.1201 -2.11497 23.8462
H 14.1651 -0.940353 23.8576
O 26.4427 -5.00488 -0.117854
H 26.3186 -5.04351 0.830483
H 26.39 -5.91674 -0.404134
O -2.95752 -10.0307 3.97774
H -3.42585 -9.58157 3.27407
H -2.19911 -10.4256 3.54741
O 7.62125 5.73499 27.7717
H 7.72168 5.18612 26.9939
H 6.68346 5.7121 27.9621
O -23.3974 7.0521 -29.3966
H -22.5532 6.60097 -29.3975
H -23.4169 7.52642 29.7722
O -14.6528 -0.181031 21.5629
H -15.213 0.290194 22.1796
H -15.2109 -0.876309 21.2146
O 19.3343 16.3564 9.52056
H 20.1435 16.0492 9.11181
H 19.6102 17.0763 10.0878
O -25.4215 2.30067 -5.78185
H -25.8087 3.17053 -5.6833
H -24.4774 2.45179 -5.73798
O -27.4289 20.1073 24.3753
H -27.5983 21.0485 24.4168
H -27.2041 19.9441 23.4593
O -11.9662 -9.57121 -3.01574
H -12.8272 -9.97015 -3.14084
H -11.5751 -9.56551 -3.88939
O -24.1069 -16.0489 4.60205
H -24.7988 -16.3716 4.02478
H -24.5694 -15.5512 5.27624
O 9.34677 -2.96941 6.79589
H 8.62293 -2.40555 6.52324
H 8.99229 -3.85703 6.74387
O -6.34971 -26.7716 -10.033
H -6.48371 -27.6517 -9.68111
H -7.02199 -26.2386 -9.60855
O -22.4337 -6.76864 23.9154
H -23.3679 -6.664 23.7352
H -22.3494 -7.66834 24.2311
O 11.7714 -13.2378 -13.8952
H 12.0304 -12.3228 -13.7861
H 11.3012 -13.4519 -13.0895
O 27.8277 12.5005 19.2599
H 27.7951 13.2764 19.8194
H 27.1616 11.9158 19.6213
O -23.1807 -20.2908 -4.15971
H -22.9855 -20.0233 -5.05781
H -22.44 -19.9677 -3.64673
O -5.00367 29.8194 11.9447
H -4.48775 29.0934 11.5939
H -5.87019 29.7091 11.5532
O 8.24316 20.6845 26.4704
H 8.23335 21.6302 26.3225
H 7.61884 20.5466 27.1827
O 19.5189 -7.67181 13.0637
H 18.9981 -6.87016 13.1122
H 19.3502 -8.11813 13.8935
O -22.7559 -3.19557 -18.28
H -22.9662 -2.27013 -18.4047
H -22.5824 -3.27798 -17.3423
O -1.57084 -21.6923 -29.1414
H -1.29082 -20.7779 -29.1006
H -0.913936 -22.1202 -29.6906
O 17.3198 -9.64094 -6.49103
H 18.1293 -9.88176 -6.04059
H 17.5407 -9.68452 -7.42137
O 16.7755 -12.0128 -5.00385
H 16.4085 -11.5545 -4.24785
H 16.7732 -11.3605 -5.7043
O 2.06026 -18.5331 -3.73059
H 2.20711 -18.4962 -4.67573
H 1.83598 -19.4476 -3.55817
O -15.4097 5.84225 4.07291
H -15.9052 5.42207 4.77585
H -16.0727 6.09828 3.43176
O 23.3588 24.8132 27.1715
H 22.9129 25.5659 26.7831
H 23.2651 24.117 26.5214
O 10.8168 -21.1924 -4.35972
H 11.4557 -20.7024 -4.8774
H 10.8984 -22.0945 -4.66914
O -12.5668 24.8699 27.1632
H -12.7499 25.0986 28.0745
H -11.6124 24.8978 27.0958
O 28.1208 -0.562043 -1.5713
H 28.5455 0.290005 -1.67057
H 27.2901 -0.472016 -2.0384
O 28.2509 28.7218 14.2853
H 27.5502 29.2991 13.9821
H 27.9829 28.4615 15.1666
O 25.6573 21.64 -23.0826
H 25.5755 21.0749 -22.3144
H 24.868 22.1813 -23.0675
O -24.0376 12.9834 24.0575
H -23.7483 13.6164 24.7146
H -24.2247 13.5117 23.2815
O 11.9935 4.74593 15.4987
H 12.6065 4.01308 15.4402
H 12.0324 5.16073 14.6369
O 15.3582 -7.22424 14.5835
H 15.8992 -7.80916 14.053
H 14.8122 -7.81105 15.1068
O 25.4372 -12.107 -22.9401
H 25.7089 -11.2026 -23.0962
H 26.2572 -12.5977 -22.8845
O -13.5678 -22.4729 0.640724
H -14.0237 -23.2692 0.913175
H -14.1929 -21.7683 0.810766
O -12.8383 16.37 22.7939
H -12.4558 16.0433 23.6082
H -13.4126 15.6636 22.4981
O 13.1064 -4.1679 10.968
H 12.2097 -3.8468 11.0633
H 13.0107 -5.03087 10.5651
O -22.2058 -6.4998 -0.575664
H -22.0332 -7.06156 -1.33124
H -21.4537 -5.90876 -0.539327
O -13.971 -3.68497 29.1866
H -14.9058 -3.51953 29.3086
H -13.9352 -4.4201 28.5746
O 8.75555 20.2686 -1.95743
H 9.70307 20.4043 -1.96299
H 8.59775 19.7089 -1.19713
O 27.5364 24.9668 6.69487
H 26.9146 25.13 7.40406
H 28.0446 24.2114 6.99036
O 28.4138 26.1477 -18.8592
H 28.8026 26.4276 -19.6878
H 27.5186 26.4854 -18.8879
O -11.7039 20.5856 22.1292
H -12.3809 20.3415 22.7603
H -11.7258 21.5423 22.1117
O 0.0164983 24.8079 23.5215
H 0.686898 25.0811 22.8953
H 0.336821 23.975 23.8678
O 8.46836 -11.9516 -13.4585
H 9.03558 -11.6624 -12.7438
H 9.0722 -12.2559 -14.136
O 22.6761 24.6976 29.856
H 23.458 24.5861 -29.6032
H 22.9487 24.4227 28.9805
O 3.27423 -23.7581 16.9438
H 3.55818 -24.6716 16.9783
H 3.98207 -23.2707 17.3652
O 26.2766 -22.9525 -11.6274
H 25.4605 -22.6042 -11.2685
H 26.0822 -23.87 -11.819
O 15.9074 1.99005 24.1375
H 15.9307 1.23798 24.7292
H 16.7895 2.03234 23.7683
O 5.32479 10.3333 -8.85897
H 4.82992 9.51566 -8.80592
H 6.16978 10.0788 -9.22969
O 15.5329 -23.498 4.79179
H 16.2972 -22.9388 4.93059
H 15.1928 -23.6624 5.67135
O -29.3785 -15.6672 -11.6898
H -28.5848 -15.3601 -11.2517
H -29.4957 -15.0644 -12.4242
O -3.201 -13.682 -23.0514
H -2.76957 -12.8613 -22.8136
H -2.85752 -14.3228 -22.4288
O 11.3447 0.357369 9.80099
H 12.0515 0.556824 10.4149
H 11.777 0.295301 8.94924
O -23.6231 -12.0632 -21.7021
H -23.7381 -12.7019 -22.4057
H -24.4698 -12.0425 -21.256
O -24.0166 6.6401 -4.96712
H -24.3879 7.48729 -4.72097
H -23.8827 6.70241 -5.91286
O -28.0249 18.764 -4.74254
H -28.8815 18.339 -4.78588
H -28.0591 19.4423 -5.41703
O -25.4989 4.45704 14.944
H -26.0885 3.80456 15.3221
H -24.6677 4.3217 15.399
O -25.3277 17.3365 -14.9287
H -26.1608 17.1081 -15.341
H -25.5751 17.7798 -14.1171
O -7.01559 6.92095 23.8324
H -7.42694 6.12537 23.4946
H -7.06703 7.54401 23.1076
O 17.0333 -28.0772 4.92895
H 16.4442 -28.1565 4.17864
H 17.3993 -27.1959 4.85461
O 5.08081 -3.74939 -9.66701
H 5.05285 -4.54882 -10.1927
H 5.98719 -3.69266 -9.36452
O -13.0842 10.2642 -1.14634
H -13.6881 10.9524 -0.86715
H -12.9204 10.4493 -2.07108
O 21.0249 16.4118 -22.4862
H 21.1022 15.7457 -23.1693
H 21.4936 16.0432 -21.7374
O 3.19911 -22.0259 25.0811
H 3.77845 -22.4941 25.6822
H 2.39532 -21.8868 25.5819
O 19.5894 6.51239 -5.89376
H 20.4744 6.87598 -5.86399
H 19.2154 6.72098 -5.03773
O 15.4399 1.16767 -22.8301
H 15.3315 0.303502 -22.433
H 16.2315 1.08948 -23.3625
O 18.9113 8.92356 15.3113
H 18.1484 9.4915 15.4189
H 19.5311 9.44782 14.8041
O 9.22105 25.9934 5.9696
H 9.89784 25.7925 5.32318
H 8.53936 25.3396 5.81438
O -19.9257 -22.4142 -7.14649
H -20.0892 -22.7328 -6.25879
H -19.4127 -21.6154 -7.02412
O -5.36391 -13.2004 20.3619
H -6.22982 -13.205 20.7698
H -4.76998 -13.4856 21.0563
O 17.8954 28.3342 -20.6558
H 17.1278 27.9562 -20.2267
H 18.607 27.727 -20.4531
O -8.56639 3.47505 -13.6875
H -9.39458 3.15216 -13.3324
H -8.29463 4.16056 -13.0772
O 25.3191 -1.02085 7.53856
H 26.1548 -0.841839 7.96965
H 25.4132 -0.640136 6.66537
O -24.0849 5.76423 -18.0679
H -23.6142 6.07808 -18.84
H -23.4614 5.1894 -17.6239
O -6.076 -7.89288 4.792
H -6.74394 -7.60937 5.41627
H -5.59174 -7.09495 4.57979
O -17.7244 -15.1209 -25.5994
H -18.4213 -14.6554 -25.1369
H -18.082 -15.9952 -25.7547
O -14.4516 -7.38128 6.36432
H -14.4639 -6.54907 6.83709
H -15.375 -7.60666 6.25113
O -11.2518 -26.6756 8.33031
H -11.1239 -27.3868 7.70258
H -10.8855 -27.0095 9.14918
O 21.7045 12.7358 -27.7204
H 21.6992 11.8726 -28.1341
H 21.2445 13.3018 -28.3403
O 13.9876 -1.52896 27.8435
H 13.4386 -0.808267 28.1524
H 14.8527 -1.13721 27.7234
O 9.73615 -19.975 -13.261
H 9.66106 -20.6991 -12.6395
H 8.99445 -19.4055 -13.0566
O -27.5479 -10.9576 -21.5895
H -26.7513 -10.9847 -22.1196
H -28.1738 -10.4665 -22.1218
O 2.22113 2.44668 17.2317
H 1.46302 2.58115 16.663
H 2.13773 1.54194 17.5329
O 22.4754 -25.5232 12.2035
H 23.2279 -25.9851 11.8339
H 22.3154 -24.8008 11.5962
O -10.5885 -1.38302 16.4842
H -10.6101 -1.48305 17.4359
H -10.0854 -2.13637 16.175
O 13.9993 -0.186413 5.48628
H 13.588 -0.539423 6.27527
H 14.891 0.0315261 5.75742
O -1.83226 22.6845 9.09948
H -2.61555 22.1489 9.22561
H -1.1746 22.2857 9.6693
O -9.57536 4.90031 12.4094
H -10.2716 4.59436 12.9906
H -8.87025 4.26309 12.5234
O -24.7207 20.4192 -1.67621
H -24.8198 19.8826 -2.46264
H -23.8197 20.7398 -1.71637
O 14.4962 -14.3291 6.35602
H 14.727 -15.0817 6.9005
H 13.9633 -13.7748 6.92615
O -18.7032 -3.24779 -2.37577
H -17.8202 -3.05905 -2.05804
H -18.7145 -2.9067 -3.27007
O -18.2731 29.0047 -28.6479
H -18.5153 29.1973 -29.5537
H -18.7967 29.612 -28.1252
O 18.7468 6.3982 -18.4952
H 18.8174 7.06634 -19.177
H 19.095 5.60401 -18.9005
O 19.1019 -28.1966 13.296
H 19.2586 -28.8149 12.5822
H 19.19 -27.3342 12.8902
O -14.7125 21.3792 -3.49307
H -14.0141 21.9928 -3.72095
H -14.6799 21.3224 -2.53812
O -27.7537 19.6964 -18.6866
H -27.508 18.8509 -19.062
H -28.6499 19.5695 -18.3752
O 10.6436 15.4473 -7.53775
H 10.2173 15.5686 -8.38614
H 9.97822 15.0274 -6.99266
O -22.9542 15.0889 9.42037
H -23.5793 15.7892 9.23338
H -23.2918 14.3318 8.94182
O 28.8401 14.1164 23.7344
H 29.3416 13.5994 23.104
H 29.4324 14.8235 23.9901
O 3.83839 -27.5728 9.78013
H 4.58736 -27.0279 10.0216
H 3.76935 -27.4785 8.83009
O -4.9562 -22.2134 13.1615
H -4.69346 -22.6152 12.3334
H -5.85963 -22.5015 13.2921
O 6.77099 -28.3123 4.69217
H 7.54521 -28.7529 5.04245
H 6.59941 -28.7538 3.86035
O 1.77036 11.7344 9.79331
H 1.07919 11.077 9.87288
H 2.40846 11.4943 10.4652
O -5.7125 22.4009 16.6756
H -5.07954 23.0497 16.368
H -5.34451 21.5596 16.4053
O -5.95596 -13.4612 26.2112
H -6.54917 -13.2807 26.9404
H -5.62551 -14.3429 26.3833
O 11.439 -18.1922 -28.6187
H 10.9933 -18.6439 -29.3353
H 11.4052 -17.2667 -28.8605
O -7.04617 -18.7026 -17.098
H -6.27483 -18.8587 -16.5531
H -7.64724 -19.4124 -16.8721
O 16.3717 -28.1389 26.6062
H 16.5248 -28.9786 26.1729
H 17.0298 -28.1034 27.3003
O 16.4756 -6.07138 -5.75641
H 17.0357 -6.43992 -5.0733
H 16.1426 -6.83324 -6.23068
O 7.61516 -13.9012 21.97
H 7.29828 -14.5122 22.6353
H 7.72204 -13.0724 22.4367
O 1.26644 29.9347 -2.77821
H 1.75863 -29.6039 -3.4572
H 1.01313 29.1067 -3.18625
O -4.65011 21.1889 -0.347939
H -5.26721 21.914 -0.446651
H -4.37831 20.9817 -1.24204
O -4.18437 -17.5962 19.2191
H -4.99378 -17.0955 19.1171
H -3.61029 -17.0234 19.7275
O 5.63042 -2.86766 6.73834
H 5.90322 -3.37604 7.50212
H 6.21827 -2.11228 6.7304
O 23.7547 23.2776 15.9263
H 23.9544 24.2026 15.7822
H 24.5567 22.9147 16.3023
O 18.5816 -7.01973 -23.1338
H 18.0941 -7.83099 -23.2767
H 17.9066 -6.34835 -23.0348
O 0.391429 -22.7555 -5.87029
H 1.0673 -22.0909 -6.00314
H -0.079351 -22.4662 -5.08869
O 6.97012 -23.1017 -1.01911
H 6.11607 -23.334 -1.38356
H 7.19391 -22.2725 -1.44188
O 3.39236 1.26149 -8.68355
H 3.86699 1.52857 -7.89639
H 2.87179 0.507787 -8.40576
O 2.06235 -28.891 -5.18517
H 1.48856 -28.2716 -4.73432
H 2.76667 -28.3498 -5.54191
O 14.8008 27.1368 6.07117
H 13.8742 27.3609 5.98586
H 14.8962 26.8523 6.9801
O -23.0032 26.5679 20.2139
H -23.1317 25.6688 20.516
H -23.4968 27.1028 20.8357
O 16.5955 -3.58299 29.6544
H 16.7233 -4.23128 28.9619
H 15.9451 -3.97755 -29.7645
O 6.24365 1.74616 8.75457
H 6.14829 1.74505 7.80213
H 7.12243 1.39921 8.90818
O 8.95859 -20.7782 22.8538
H 8.04973 -20.6627 23.1311
H 9.04483 -20.2249 22.0775
O -7.96125 2.63128 27.4743
H -7.91401 1.75559 27.8579
H -7.65403 2.51622 26.5751
O 18.7817 16.2766 -20.6881
H 18.3096 15.6536 -21.2406
H 19.4943 16.5961 -21.2415
O -11.2741 -9.69392 21.1892
H -11.3799 -9.42636 20.2763
H -10.7622 -10.5016 21.1448
O -18.6714 -12.3533 -12.9895
H -18.6341 -11.8653 -12.1669
H -18.7819 -11.6815 -13.6623
O -17.0886 28.6779 -20.8033
H -16.2041 28.6007 -20.4457
H -17.6415 28.8494 -20.0409
O 9.40073 11.3109 -7.66996
H 9.77083 10.9973 -8.49511
H 8.89575 10.5694 -7.3362
O 20.054 11.3383 -11.9805
H 19.485 10.6452 -12.3152
H 20.6446 10.8919 -11.3737
O 2.38392 15.6229 -16.5187
H 1.80642 14.8623 -16.5839
H 2.05537 16.2312 -17.1808
O -5.8247 -2.65426 -26.4189
H -5.67617 -3.59975 -26.4037
H -4.95484 -2.27275 -26.3004
O -4.30128 27.5917 18.4205
H -4.13628 28.4191 17.9683
H -3.56994 27.5022 19.0315
O -18.4203 -14.517 15.0626
H -18.0334 -14.0722 15.8167
H -19.1963 -13.9984 14.8502
O -15.8931 -26.788 7.77311
H -15.8893 -27.374 8.52996
H -16.3907 -26.0237 8.06386
O -0.485348 29.1742 4.81783
H -0.528497 29.9954 4.32791
H 0.20336 28.6713 4.3831
O 25.9011 8.23638 13.721
H 26.0737 7.30847 13.5615
H 25.209 8.24161 14.3822
O -11.647 14.8414 3.55647
H -12.252 15.3948 4.05041
H -11.6561 14.0035 4.01909
O 29.5577 7.13452 11.1646
H 29.6191 6.55493 10.4053
H -29.5716 7.10359 11.5611
O -11.7944 17.1105 17.2913
H -11.2739 16.3425 17.0554
H -11.8274 17.0933 18.2478
O -20.8534 -15.937 -21.5395
H -21.4664 -16.6395 -21.3229
H -20.5805 -15.5866 -20.6916
O -29.571 -18.2438 -12.2309
H -28.682 -18.5777 -12.3508
H -29.454 -17.4023 -11.79
O -14.2686 1.32721 -28.03
H -14.6037 1.8576 -27.3071
H -15.0317 0.844267 -28.3472
O 22.308 14.4236 -23.8459
H 22.3552 13.5211 -23.5305
H 22.4698 14.3578 -24.787
O 25.2178 2.83919 3.1416
H 25.9857 2.2821 3.01399
H 24.4812 2.30382 2.84662
O 23.4841 -5.85247 15.0582
H 23.6887 -6.77208 14.8888
H 23.3122 -5.81422 15.999
O 23.3221 10.8296 -1.16921
H 23.4559 11.4488 -1.88676
H 22.8003 11.3133 -0.528964
O 16.7525 -12.2992 23.8306
H 17.0171 -12.8583 23.1002
H 16.0905 -12.8102 24.2964
O 4.82157 -9.95069 -23.8078
H 4.96174 -10.8374 -24.1401
H 5.43429 -9.86861 -23.077
O 17.2743 3.71162 26.3476
H 17.524 4.54726 25.9531
H 16.6567 3.32755 25.7253
O -23.5761 18.5136 0.00558188
H -24.0349 19.164 -0.526189
H -24.168 17.7617 0.0286639
O -15.7802 10.2554 21.527
H -15.5219 10.8693 20.8395
H -14.9742 9.78795 21.7465
O 5.8955 -26.1956 17.0797
H 6.31833 -27.0204 17.3187
H 6.60358 -25.6561 16.7279
O -28.0504 -6.0422 17.3163
H -28.2845 -6.35464 18.1902
H -27.3546 -6.63316 17.0285
O -11.0053 -23.5879 1.03938
H -11.7355 -23.1001 0.658439
H -10.2622 -22.9867 0.987962
O 19.654 15.0034 19.8742
H 19.9143 15.8979 20.0941
H 19.2903 15.0695 18.9912
O -0.0220258 -25.7432 -25.3145
H -0.181694 -25.8325 -24.375
H 0.513083 -26.504 -25.5405
O 18.7217 6.42031 10.6038
H 18.7042 6.8986 11.4327
H 18.4262 7.05702 9.95303
O 8.01199 -10.4605 29.1235
H 8.81894 -10.1572 29.5396
H 8.1973 -11.3651 28.8713
O 28.5868 7.02663 8.79025
H 28.0361 7.21333 8.02987
H 28.1236 6.33098 9.25694
O -8.74328 24.6655 -20.1991
H -8.48041 24.3922 -21.078
H -9.57019 25.1297 -20.3295
O 17.7311 -9.05485 -0.842561
H 17.0042 -9.20544 -0.238237
H 18.2718 -8.39522 -0.40802
O 0.969175 16.1188 25.6559
H 1.59059 15.9362 24.9511
H 1.47553 16.6137 26.3001
O 22.7899 22.136 12.296
H 22.7366 22.9706 12.7616
H 22.954 21.4887 12.9819
O 14.8749 13.8538 11.9695
H 13.9643 13.5776 11.8656
H 15.162 14.0721 11.0828
O -24.0978 -15.9849 17.3509
H -23.6759 -16.8376 17.4561
H -24.1063 -15.8363 16.4053
O -17.3328 26.1024 -22.6861
H -17.759 25.4573 -22.1217
H -17.3975 26.9253 -22.2014
O 15.4854 0.971162 -7.72688
H 14.5491 0.967944 -7.92573
H 15.8605 0.327131 -8.3275
O -25.1546 23.0119 -23.588
H -25.9118 23.2666 -23.0606
H -25.486 22.9833 -24.4855
O -1.2711 19.0856 9.59339
H -1.13322 18.3139 10.1427
H -1.81168 18.7709 8.86885
O -1.5429 28.0448 -24.5515
H -1.26151 27.2953 -25.0762
H -1.96957 27.6564 -23.7878
O 16.0434 -14.9321 -15.5849
H 16.5379 -14.1338 -15.3988
H 16.332 -15.5542 -14.9172
O -19.1296 21.1101 6.88339
H -19.3465 20.3441 7.41483
H -18.1953 21.0165 6.69749
O -21.7778 20.5842 5.47921
H -21.518 19.6844 5.67669
H -21.9536 20.9764 6.33449
O 8.89589 -10.1081 18.8601
H 8.31924 -10.8385 18.636
H 8.35056 -9.32922 18.7498
O 0.8985 -26.5534 -3.83494
H 0.378494 -26.8159 -3.07537
H 0.9697 -25.6018 -3.7598
O 6.38564 -16.4002 -0.309211
H 6.94238 -16.6249 0.4363
H 6.51068 -17.12 -0.927676
O 18.667 -21.5796 21.7533
H 19.0003 -20.9003 22.3395
H 19.4517 -21.9764 21.3751
O -24.3919 1.43544 -8.39846
H -24.8211 0.770837 -8.93729
H -25.0739 1.73345 -7.79652
O 18.875 29.8947 15.3067
H 17.9434 -29.8897 15.3495
H 19.2993 -29.2865 15.0503
O -22.5361 15.5775 -28.2604
H -22.9485 16.3362 -27.8474
H -22.8449 15.5999 -29.1661
O 29.0602 -20.2109 -24.5509
H 29.7773 -19.6191 -24.3232
H 29.4752 -21.0692 -24.6356
O -2.40164 3.84774 -0.303666
H -1.91435 3.9136 -1.12491
H -2.8945 4.66659 -0.250719
O -14.732 21.6339 -0.61625
H -14.841 21.2606 0.25836
H -15.5288 22.1444 -0.760338
O -27.5125 -12.0831 -11.8126
H -26.9914 -12.7375 -11.3474
H -27.6042 -12.4346 -12.6982
O 22.6636 -25.1737 -28.6589
H 21.796 -25.0306 -28.2807
H 23.2143 -24.5018 -28.2571
O -29.7426 17.6163 16.9696
H -29.5261 17.9469 16.0978
H 29.3821 17.241 16.8734
O 3.54629 26.8024 18.5722
H 4.40907 27.11 18.8501
H 2.96539 27.0289 19.2985
O 1.83883 -3.65017 27.3776
H 2.12263 -2.831 26.9718
H 1.92565 -3.49479 28.3181
O 25.0502 19.4399 -25.5575
H 25.1929 19.5462 -24.6169
H 24.1242 19.2102 -25.6353
O -16.5315 -29.8365 -10.7682
H -15.9819 -29.8249 -9.98457
H -16.7116 29.2359 -10.9213
O 11.3739 -24.7566 10.5854
H 10.9724 -24.8599 9.72265
H 12.0712 -25.412 10.6056
O -7.65896 13.4736 29.8982
H -7.66362 13.5265 28.9425
H -6.85883 13.9292 -29.8401
O -10.3726 14.0869 0.109892
H -10.2851 13.1351 0.0586922
H -9.59137 14.3746 0.582203
O 17.9695 -22.2849 4.36613
H 18.4387 -21.8181 3.67466
H 18.0294 -21.7086 5.12805
O -16.4087 -14.9282 12.6061
H -15.9195 -14.2119 13.011
H -17.2995 -14.5896 12.5162
O -7.71246 -3.23917 -5.64526
H -6.81012 -3.55185 -5.71034
H -7.90373 -3.25166 -4.70745
O 19.9719 20.7755 20.5527
H 20.7752 21.2956 20.5703
H 19.9549 20.3313 21.4004
O 5.98978 -5.86559 22.7348
H 6.08809 -6.47717 23.4646
H 5.21233 -5.35239 22.9549
O -12.9526 -0.76686 2.40224
H -13.3346 -1.51195 2.8661
H -12.0072 -0.895504 2.47889
O 2.65543 -27.8685 26.1483
H 3.09602 -28.0869 26.9696
H 2.71989 -26.9155 26.0874
O -11.397 0.344935 -18.247
H -10.8773 0.572687 -17.476
H -11.4411 -0.611142 -18.2327
O 18.4561 8.57603 8.54278
H 17.7051 8.42816 7.968
H 18.1832 9.29376 9.11431
O 1.93951 17.8831 -18.5884
H 1.53936 18.7034 -18.2997
H 2.51945 18.1385 -19.3059
O 2.90536 -17.6868 8.71306
H 3.33052 -18.3032 9.30931
H 3.40478 -17.7566 7.89947
O -13.4922 16.837 -8.60124
H -13.6793 15.915 -8.42483
H -13.0086 17.1354 -7.83095
O 8.36531 26.4742 -5.38887
H 7.99581 26.9537 -6.13034
H 9.31184 26.5839 -5.47981
O -7.02005 5.29214 10.1899
H -7.91938 5.07022 9.94864
H -6.48289 4.64105 9.73844
O 2.68979 28.2821 10.221
H 3.37453 28.2611 9.55247
H 1.88746 28.0572 9.7499
O -6.86713 -20.7474 -27.6681
H -6.90795 -20.8494 -26.7173
H -6.6441 -19.8261 -27.8013
O 2.04383 -13.8568 -22.9741
H 2.99065 -13.7226 -22.9321
H 1.91249 -14.3982 -23.7525
O -15.4312 24.0602 29.9456
H -15.2514 23.1254 29.8455
H -14.5697 24.4757 29.9079
O -26.6464 -17.4678 -26.1093
H -27.5035 -17.0605 -26.2348
H -26.5015 -17.4353 -25.1637
O 22.8374 27.5295 -27.7631
H 23.7174 27.8577 -27.9477
H 22.7665 26.7281 -28.2817
O -27.6492 0.568363 13.8496
H -27.6238 0.920493 12.9599
H -27.4587 -0.363752 13.7443
O 25.0847 13.7576 16.9098
H 25.6023 13.6624 17.7093
H 24.2181 13.4252 17.1439
O 21.5435 -4.74496 -16.1994
H 21.5874 -4.47221 -17.1159
H 22.0762 -5.53919 -16.1596
O -6.17204 -0.0155616 -6.12623
H -5.94909 0.686234 -6.7378
H -5.33594 -0.266027 -5.73324
O -12.2798 -9.70651 1.57685
H -11.6772 -9.80085 0.839083
H -11.8684 -10.199 2.28712
O -12.826 -22.915 -10.567
H -12.5638 -22.6262 -9.6929
H -13.4891 -23.587 -10.4088
O -17.1997 2.94885 18.3842
H -17.8437 3.65466 18.3261
H -17.5566 2.35192 19.0419
O 5.01769 2.38916 11.2593
H 5.30224 3.26096 11.5336
H 5.57252 2.18107 10.5076
O 24.0351 -29.2451 15.8912
H 23.2178 -29.7267 16.0185
H 24.1281 -28.7166 16.6838
O 26.5062 -26.7735 18.5429
H 26.5061 -27.5122 17.9343
H 27.0854 -27.0483 19.2538
O -11.703 28.2604 -15.4787
H -10.7908 28.0297 -15.3026
H -12.0541 27.5063 -15.9522
O 0.743851 -19.2768 17.1678
H 0.0150632 -18.837 16.7301
H 1.2001 -19.7414 16.4662
O 27.4114 -9.35584 15.5342
H 27.8547 -8.72406 14.968
H 28.1089 -9.72127 16.0784
O -19.2444 12.774 -6.2724
H -19.407 13.5715 -6.77618
H -19.3562 13.0397 -5.35966
O -24.878 -7.6146 -14.8661
H -24.4482 -7.5648 -15.7199
H -24.773 -8.5273 -14.5974
O -2.74712 12.6194 -22.0189
H -2.09989 13.167 -21.5747
H -3.13685 12.0938 -21.3203
O -12.3439 27.429 16.7895
H -13.0288 27.3219 17.4496
H -11.6257 26.8759 17.097
O -5.70707 25.4963 -20.5109
H -5.24485 24.6671 -20.3887
H -6.48983 25.4174 -19.9656
O -18.9099 9.93961 11.4137
H -18.5469 9.42401 10.6936
H -18.2689 10.6358 11.5574
O -12.155 -29.4468 27.9156
H -12.8825 -28.8808 27.6573
H -12.5158 29.6673 27.8797
O -6.10774 -22.194 0.638454
H -5.42015 -21.5321 0.565947
H -6.92414 -21.7035 0.543021
O 25.1761 -9.26013 12.875
H 24.6552 -9.26094 13.6781
H 24.7228 -9.87139 12.2944
O 24.6789 -14.7891 19.5421
H 25.2318 -14.2609 20.1179
H 23.8909 -14.9611 20.0576
O -14.2455 -10.1574 19.4289
H -15.0267 -10.6022 19.7578
H -14.1601 -9.38143 19.9828
O 29.0522 -17.6991 4.95195
H 29.0185 -16.8668 5.42352
H 28.8034 -17.4768 4.05477
O 26.8819 25.2187 20.601
H 25.9723 25.3161 20.3191
H 27.3738 25.8125 20.0339
O 26.3252 18.615 28.0187
H 26.2398 18.4453 27.0805
H 26.9322 19.3529 28.0749
O 1.07013 29.4445 26.8611
H 1.74636 28.7789 26.735
H 1.49662 -29.7321 26.6236
O -26.92 -3.41021 2.26825
H -27.2956 -3.1407 1.43008
H -26.8054 -4.35701 2.18652
O 12.5223 -13.1404 28.8852
H 12.4383 -12.2872 28.4595
H 13.0481 -13.6608 28.2777
O 18.3637 9.44922 -16.7145
H 19.1584 9.98183 -16.7476
H 18.5661 8.75484 -16.0876
O -9.25019 26.9144 20.7212
H -8.97765 26.4836 21.5313
H -9.64103 26.2151 20.1973
O -20.9149 12.0003 7.29528
H -20.5347 11.2152 7.68926
H -21.3723 12.4331 8.01619
O 1.1567 -25.3891 11.4537
H 1.19144 -26.2686 11.0776
H 0.758952 -24.851 10.7692
O 25.1772 -8.66938 -8.79828
H 24.4756 -9.20328 -8.42555
H 25.6143 -8.28346 -8.03914
O -9.98737 26.1322 10.0528
H -9.54898 26.7413 10.6469
H -9.27433 25.6481 9.6363
O -28.8127 -18.0192 8.68117
H -29.1482 -18.9156 8.68765
H -28.9061 -17.7214 9.58609
O -9.17961 -5.53852 24.7029
H -9.95339 -6.09088 24.5916
H -8.74705 -5.88586 25.483
O -6.53198 -26.9355 -5.67832
H -6.20583 -27.213 -6.53441
H -5.89132 -26.2926 -5.37428
O 16.8285 21.9809 26.6235
H 17.7313 21.793 26.3669
H 16.6143 21.3014 27.2628
O 21.6891 -21.8918 -10.7585
H 21.9222 -22.1408 -9.86415
H 20.7633 -22.1215 -10.8381
O -29.5408 -17.9111 -27.3211
H -29.5818 -18.8122 -27.001
H -29.5953 -17.3731 -26.5313
O -28.5644 -28.374 10.1872
H -27.6523 -28.1457 10.0074
H -28.8013 -27.8376 10.9438
O 8.72713 -25.1099 24.0416
H 9.25364 -24.8339 24.7919
H 7.84162 -25.2058 24.3922
O 10.2677 -8.35069 -1.37329
H 10.7628 -8.47254 -2.18338
H 9.36121 -8.54038 -1.61523
O 22.2657 -2.82408 -14.13
H 21.586 -3.23035 -14.6678
H 22.6799 -3.55621 -13.6731
O -2.79005 14.8304 -4.31497
H -3.03022 15.4645 -4.99065
H -3.08416 15.2294 -3.49609
O -27.9414 8.40165 15.5345
H -28.4424 8.44704 16.3488
H -27.1686 7.88236 15.7568
O -29.5838 17.7621 25.84
H 29.507 17.4916 25.9683
H -29.175 17.0234 25.3889
O -16.4585 -26.5151 15.5245
H -16.0005 -25.9037 14.9477
H -16.4884 -27.3344 15.0305
O 10.1088 25.3745 3.18458
H 9.45187 26.0693 3.22816
H 10.0621 25.0564 2.283
O -29.4787 10.2171 -9.84003
H -29.8899 11.0279 -9.54056
H 29.8054 9.58254 -9.87218
O -7.31282 0.84709 -16.9038
H -7.28903 0.131297 -17.5389
H -8.08612 0.667769 -16.3689
O 22.556 19.1233 23.163
H 22.6179 18.2358 22.8099
H 23.42 19.5046 23.0068
O 13.5676 15.1148 -1.76968
H 12.7608 15.628 -1.814
H 13.2778 14.2313 -1.54236
O -4.82494 12.3478 22.4345
H -5.53765 11.934 22.9214
H -5.24215 12.6925 21.645
O -5.57362 12.1776 5.41702
H -6.33253 11.5963 5.36855
H -5.15072 12.0919 4.56259
O 12.0352 -29.5961 9.99563
H 12.931 -29.2648 10.0579
H 11.5109 -28.8289 9.76609
O -17.1324 8.62301 -6.19801
H -18.0437 8.58013 -5.90823
H -17.1683 9.08612 -7.03496
O 27.9331 -8.90832 24.9909
H 27.2219 -8.619 25.5626
H 27.976 -8.24186 24.3052
O 17.617 -17.4261 22.5701
H 17.6709 -16.7189 23.2129
H 17.4666 -18.2141 23.0924
O 21.6601 19.0158 25.6791
H 21.9361 19.6944 26.2952
H 22.1094 19.2355 24.863
O -6.4118 24.8681 24.5055
H -7.27395 24.5311 24.749
H -6.14651 25.4087 25.2496
O 21.912 -22.6539 -13.585
H 20.9682 -22.7893 -13.6696
H 22.2543 -22.7913 -14.4683
O 9.36536 -28.9841 18.2393
H 8.6913 -29.3903 17.6944
H 8.90981 -28.2785 18.6984
O -11.0188 15.7958 -23.1296
H -10.1624 15.3702 -23.0891
H -11.3897 15.6721 -22.2559
O 21.126 8.34219 -11.4407
H 21.4671 7.9638 -12.2511
H 20.6014 7.64259 -11.0514
O 10.7658 -1.92772 -6.6786
H 10.1003 -1.99107 -5.99352
H 11.5374 -1.57917 -6.23212
O 7.45027 -12.1802 9.20197
H 7.26389 -11.7306 10.0262
H 7.43301 -11.4875 8.54157
O -16.8842 -28.1579 -8.39436
H -17.0963 -27.7173 -9.21727
H -16.0029 -27.8529 -8.17901
O -13.4544 -23.691 -29.4211
H -12.7137 -23.0977 -29.5453
H -14.2177 -23.1153 -29.3735
O -26.3181 -29.8612 21.8718
H -25.7625 -29.7415 22.642
H -25.7059 29.9423 21.1626
O -7.56403 8.5907 21.6844
H -8.23485 9.09025 22.1499
H -8.03869 8.1504 20.9794
O 26.7118 -20.581 12.1403
H 26.7867 -19.6683 11.8618
H 27.5923 -20.9392 12.0281
O -16.5979 -14.8839 -22.9633
H -17.0046 -15.2567 -23.7455
H -17.0802 -14.0722 -22.8057
O -27.3359 1.61753 23.2073
H -27.3044 1.11175 24.0194
H -26.503 2.08867 23.1856
O 26.9138 -24.297 5.15422
H 27.831 -24.0865 4.97894
H 26.4206 -23.6004 4.72091
O 27.4873 14.0192 -17.2367
H 26.6933 14.4982 -17.4742
H 27.1701 13.2412 -16.7781
O -28.4962 -6.63415 -14.0068
H -28.9278 -5.85809 -13.6494
H -27.9553 -6.96045 -13.2877
O -29.2611 25.2209 28.7754
H -28.9433 25.8717 29.4012
H -28.5162 25.0612 28.196
O 28.9981 -26.1785 17.0402
H 28.2622 -26.2766 17.6444
H 28.9639 -25.2617 16.7672
O 15.9159 28.5749 2.81804
H 15.6709 28.281 3.69545
H 15.7901 27.8051 2.26323
O 22.5755 8.00094 -24.8085
H 23.3766 7.75961 -25.2735
H 21.8679 7.74024 -25.398
O 12.4331 -28.5794 13.6462
H 12.4385 -29.5285 13.522
H 11.6731 -28.4148 14.2045
O -10.2892 3.69326 10.0105
H -9.81904 4.0779 10.7502
H -10.9609 3.14278 10.4131
O -23.5362 -15.8719 14.6698
H -24.1892 -16.1447 14.0254
H -23.3878 -14.9448 14.4834
O 10.2191 6.52575 6.4269
H 11.1256 6.23966 6.53999
H 9.70597 5.90936 6.94936
O 16.6673 -12.5927 9.81097
H 17.5729 -12.3554 9.61144
H 16.6966 -13.5356 9.9736
O -2.71132 -24.4702 2.68418
H -2.58999 -24.8187 3.5674
H -1.88264 -24.0361 2.48154
O -13.646 18.8739 23.8643
H -12.7169 18.9827 24.067
H -13.6813 18.0933 23.3115
O -27.2646 0.220144 28.2534
H -27.6127 1.11156 28.2328
H -27.9472 -0.294198 28.6844
O 4.49251 3.15706 -19.0958
H 4.24835 3.81374 -19.748
H 5.43887 3.05689 -19.1987
O 20.2922 -5.02457 -29.815
H 19.4997 -5.42515 29.8276
H 20.4311 -5.47105 -28.9798
O 14.5461 12.9476 -8.45662
H 13.7058 13.3272 -8.71362
H 14.7441 12.3138 -9.14609
O -14.387 -5.76079 23.4919
H -15.2667 -5.43818 23.2963
H -14.5283 -6.49663 24.0876
O 27.1959 24.4188 16.1114
H 26.9682 24.3039 15.1888
H 26.4671 24.9193 16.478
O -27.4245 -26.4699 -23.1369
H -28.0864 -25.8317 -23.4028
H -27.6768 -26.7213 -22.2484
O 8.0631 2.26055 27.5065
H 7.77172 2.63041 26.6732
H 7.55174 1.45734 27.6045
O 24.3802 -23.8673 -27.1342
H 24.4488 -23.393 -26.3056
H 24.6252 -23.2245 -27.7998
O -25.9188 -10.5804 19.462
H -25.5351 -10.9764 20.2444
H -26.4056 -9.82419 19.7898
O -11.9432 -27.8347 25.9829
H -12.8493 -27.5495 25.8647
H -12.011 -28.6485 26.4822
O -5.36098 24.7199 -2.60162
H -5.14917 24.2319 -1.80588
H -5.74093 24.0671 -3.18955
O 0.531 -26.3877 16.3175
H 0.514089 -27.264 15.9327
H 1.31565 -26.3815 16.8657
O -23.3006 25.9176 -24.0462
H -23.0499 25.2005 -24.6286
H -23.023 26.7093 -24.5071
O -20.2442 -13.7426 -5.63887
H -21.0043 -13.2839 -5.99666
H -20.0003 -14.37 -6.31938
O -14.6971 25.1124 21.0546
H -14.5829 25.0507 20.1063
H -14.0626 25.774 21.3302
O -8.80626 -16.0918 22.1227
H -9.36691 -16.4112 22.8297
H -8.44956 -16.8848 21.7224
O 28.1523 -2.88407 17.2347
H 27.2175 -3.05664 17.3463
H 28.3471 -3.18239 16.3463
O -12.459 -20.184 10.8667
H -12.0999 -19.7447 11.6376
H -11.7528 -20.7555 10.5654
O -15.4617 25.5605 -1.83745
H -14.8563 25.196 -2.48317
H -15.4183 26.5067 -1.97518
O 10.5612 -4.46276 -0.724638
H 11.0877 -5.06903 -1.24568
H 10.1195 -3.91192 -1.37098
O 1.25484 22.2315 -8.06459
H 1.05636 23.0604 -7.62903
H 0.881219 22.3253 -8.94085
O -29.4269 -9.43202 -24.3009
H -29.4662 -8.49702 -24.0997
H 29.6637 -9.67998 -24.4676
O 18.7933 -10.38 -8.79871
H 19.2566 -9.7796 -9.38287
H 19.4083 -10.5407 -8.08304
O 21.6077 -2.49701 -20.9535
H 21.7072 -1.92429 -20.193
H 20.9363 -2.07237 -21.4875
O 28.2425 -26.8332 1.8722
H 28.6054 -25.9475 1.87403
H 28.4113 -27.1599 0.988484
O -2.31382 24.1986 24.9822
H -1.42737 23.8405 25.0286
H -2.26646 24.8689 24.3005
O -29.4646 -24.872 -23.8645
H -28.8825 -24.1141 -23.9187
H -29.8119 -24.8446 -22.9729
O 21.7173 7.74159 19.5413
H 20.7851 7.54384 19.4509
H 22.1366 7.24957 18.8354
O -12.4042 17.946 28.092
H -11.7427 17.3032 27.8362
H -12.1803 18.1747 28.9941
O -21.4548 -25.6103 29.6941
H -20.8556 -24.9718 -29.9192
H -21.8948 -26.0111 -29.5562
O -22.3658 7.52119 8.86962
H -22.9678 6.88101 8.49007
H -22.9253 8.25472 9.12491
O -22.6331 -8.81427 -23.8063
H -22.821 -8.3241 -24.6067
H -22.022 -9.4977 -24.0813
O 14.5182 -7.6264 -2.37208
H 14.1352 -8.04059 -3.1454
H 15.2831 -7.1571 -2.70518
O 6.51663 -11.381 14.242
H 6.60438 -12.0752 14.8952
H 6.41988 -10.5791 14.7555
O -23.8794 14.1621 -26.3182
H -23.4121 13.3349 -26.2016
H -23.4211 14.5974 -27.037
O 18.9302 28.382 -5.29535
H 18.3499 29.0912 -5.01877
H 18.7559 28.2804 -6.23106
O 7.13362 -23.4684 -22.7385
H 7.88049 -24.0269 -22.5227
H 6.5948 -24.0031 -23.3217
O -2.39956 28.6846 28.634
H -1.72159 28.2123 29.1173
H -1.92998 29.1125 27.9181
O -27.0814 -29.3519 -18.9215
H -26.7671 -29.7535 -19.7315
H -26.9538 29.974 -18.2541
O -28.8628 -15.6691 -25.5889
H -28.9297 -15.5467 -24.6419
H -29.2951 -14.9006 -25.9613
O 1.42609 -11.2465 -22.26
H 0.495635 -11.4203 -22.1176
H 1.7338 -11.9931 -22.7739
O -12.8455 -12.2995 20.6651
H -13.2706 -12.0142 21.4739
H -12.9184 -11.5475 20.0774
O 24.0115 15.4537 -14.494
H 23.9646 15.8105 -13.607
H 24.9052 15.6409 -14.781
O -22.8237 12.1622 27.0739
H -22.6955 13.0958 27.2419
H -22.0746 11.738 27.4925
O -26.8196 -15.2056 25.5033
H -26.1682 -14.6123 25.1292
H -26.3071 -15.8378 26.0072
O -29.4507 -10.2183 11.7311
H -28.6097 -9.89652 11.4065
H -29.3444 -10.251 12.6818
O 3.54938 -8.92569 17.4064
H 3.11338 -8.66378 16.5955
H 2.86058 -8.89388 18.0703
O 13.6564 -1.42012 17.0421
H 14.5879 -1.56507 17.2082
H 13.3458 -0.946824 17.8139
O -19.5063 2.06401 23.836
H -20.1862 2.47097 23.299
H -19.9006 1.98717 24.7048
O -15.7049 -23.1826 -19.3928
H -16.5485 -23.4787 -19.7346
H -15.8075 -22.2368 -19.2869
O -17.5284 4.18385 -7.20016
H -17.3513 4.79979 -7.91115
H -17.8517 3.3971 -7.63914
O 24.9289 11.7776 10.44
H 24.8689 10.8307 10.5662
H 24.5958 12.1502 11.2564
O 22.0125 -4.33627 9.0122
H 21.6582 -4.9995 9.60448
H 22.1205 -4.79275 8.17781
O -21.4026 -14.9883 -28.2065
H -20.4993 -14.9992 -28.5231
H -21.7279 -14.1186 -28.439
O 5.77808 -26.0064 11.4798
H 5.35514 -25.1611 11.6309
H 6.68685 -25.7868 11.2746
O -25.0797 8.8723 -9.00647
H -25.2202 8.07467 -8.4963
H -25.8232 8.90641 -9.60825
O -13.7393 -24.2969 5.71794
H -13.5421 -25.2315 5.65607
H -14.4727 -24.2464 6.33092
O -26.0477 -17.0339 2.76955
H -26.2278 -16.1377 2.48552
H -26.8818 -17.4914 2.66353
O -12.32 21.319 10.2219
H -11.725 20.8413 9.64392
H -12.0832 22.2388 10.1028
O -5.38435 20.2069 3.82746
H -5.65069 20.034 4.73045
H -5.59497 19.4006 3.35653
O -27.1017 -23.1774 25.205
H -27.7256 -22.4518 25.188
H -26.6629 -23.1366 24.3553
O -17.7331 -29.9596 21.0636
H -18.4338 -29.5051 20.596
H -17.7723 29.1407 20.7391
O 25.6576 26.0421 8.40613
H 25.6386 26.7736 9.02316
H 24.9585 25.4596 8.70289
O -0.26116 29.0583 -28.063
H -0.135693 28.302 -27.49
H -0.961177 29.5613 -27.6468
O 13.9877 12.7081 -11.9758
H 13.915 12.5143 -12.9103
H 14.3796 13.5808 -11.9415
O -4.19194 5.13721 -8.064
H -3.81545 4.94089 -7.20613
H -4.92281 5.72612 -7.87625
O -23.8835 -19.6521 1.73547
H -23.4246 -19.2407 2.46787
H -24.7637 -19.2771 1.76274
O 13.512 -26.358 -25.8177
H 12.7169 -26.5195 -25.3098
H 13.8082 -25.494 -25.5314
O 4.99168 -0.779986 9.24661
H 5.34855 -0.13057 8.6407
H 4.12087 -0.449395 9.46717
O -1.8812 -12.3767 20.2057
H -2.37796 -12.8074 19.51
H -0.967026 -12.583 20.0108
O 7.11245 -7.11561 10.4141
H 7.75193 -6.42194 10.2525
H 6.28096 -6.75082 10.1111
O -14.2106 -9.55453 -24.2005
H -14.3391 -10.465 -24.4666
H -14.557 -9.0402 -24.9296
O -14.5848 25.2636 -18.6237
H -14.1547 25.3337 -19.4759
H -13.8676 25.2878 -17.9902
O 25.7383 -15.197 -14.5355
H 26.2521 -14.6606 -15.1392
H 26.3818 -15.5496 -13.9207
O 24.657 -3.61856 28.3967
H 24.3092 -2.73052 28.4782
H 23.9673 -4.10607 27.9463
O -6.84017 -27.2937 -23.892
H -7.11111 -27.3796 -22.978
H -6.81582 -26.3495 -24.0474
O 8.0381 -3.85772 23.9414
H 7.70152 -3.22038 23.3115
H 7.5006 -4.63775 23.804
O 21.5672 24.7921 -23.7594
H 20.7471 24.9317 -23.2859
H 21.3784 24.0695 -24.3582
O 8.96078 -6.51749 25.2757
H 8.65887 -7.42535 25.3052
H 9.01842 -6.31396 24.3422
O 2.76575 19.1121 -14.6449
H 2.95432 19.8327 -15.246
H 1.92291 19.3408 -14.253
O 11.8342 -27.2213 -21.9492
H 11.9617 -26.8328 -21.0838
H 11.044 -27.754 -21.859
O -28.9099 6.77037 -8.4972
H -29.508 7.35767 -8.03501
H -28.3152 6.45078 -7.81863
O 16.1725 -16.5023 7.62111
H 15.4058 -16.7942 8.11424
H 16.1151 -16.971 6.78851
O -20.1513 -23.139 -22.4704
H -20.8467 -22.8732 -21.8687
H -19.3623 -22.7217 -22.1246
O -23.7603 19.2638 19.4157
H -23.3998 18.4168 19.1533
H -23.3918 19.8862 18.7887
O 11.6917 7.91367 -0.64486
H 12.2608 8.12035 0.0964968
H 11.8842 6.99816 -0.847313
O 13.507 -25.0946 7.59893
H 13.3286 -24.7055 6.74276
H 14.3653 -25.5069 7.501
O -11.2648 2.34974 22.084
H -11.1729 2.81354 21.2518
H -10.5292 2.65813 22.6131
O -3.71257 -25.7373 -11.0344
H -4.40879 -26.0044 -10.4343
H -3.13178 -25.1941 -10.5017
O 1.75665 -20.7936 10.5322
H 1.66788 -20.3568 11.3792
H 0.944458 -20.5874 10.0695
O 24.9941 5.17539 -19.2826
H 25.6713 4.606 -18.9175
H 24.4356 5.39309 -18.5363
O 22.2831 -1.95202 -3.70131
H 22.0301 -2.74767 -3.23316
H 21.5176 -1.7323 -4.2323
O -21.5368 1.07165 29.7678
H -21.5913 1.29588 28.8388
H -21.4847 0.115961 29.7813
O 16.0912 -26.0314 7.01033
H 16.8877 -25.8385 7.50493
H 16.3903 -26.5602 6.27061
O 24.0014 7.22935 -10.8366
H 24.6968 7.16029 -11.4907
H 23.7533 8.15378 -10.8467
O -10.8087 -9.95157 -18.7471
H -10.5051 -9.06037 -18.5745
H -10.5351 -10.4515 -17.9781
O -7.34686 -28.8358 20.2431
H -7.35871 -28.0023 20.7135
H -8.16351 -29.266 20.4965
O 11.1654 -9.02423 15.5153
H 10.5815 -9.713 15.1975
H 11.4794 -9.34661 16.3601
O 16.1307 -28.4391 13.2161
H 16.9776 -28.6563 12.8264
H 15.9109 -29.2008 13.7524
O 14.2391 22.2619 15.9369
H 14.6787 21.4549 16.2047
H 13.3089 22.0875 16.0802
O 8.93559 21.5875 19.245
H 9.72807 21.4493 19.7637
H 9.19701 21.3806 18.3477
O 20.8716 3.35585 29.8972
H 19.9441 3.1856 29.7331
H 20.8944 4.24836 -29.7576
O -0.66674 26.078 20.164
H -1.05568 25.2552 19.8676
H 0.136512 25.8156 20.6136
O 9.24505 -27.0642 -28.8021
H 8.48663 -27.3213 -28.2778
H 9.24137 -27.6704 -29.5429
O 6.88869 7.21708 13.7351
H 6.73596 7.89195 14.3965
H 7.29182 6.49522 14.2174
O -1.4284 -9.8414 12.0349
H -2.23477 -9.4405 11.7105
H -0.995113 -10.1778 11.2505
O -3.04307 -14.5383 13.1355
H -3.51539 -15.0373 13.8019
H -2.14208 -14.5019 13.4567
O -6.83534 -9.30764 12.1676
H -6.39912 -9.05797 12.9822
H -7.60884 -9.79598 12.4495
O -29.5866 16.7944 11.5362
H -28.7616 17.2793 11.5162
H -29.3297 15.8916 11.7238
O -24.8319 -6.30506 -9.94723
H -24.8506 -6.82057 -9.14092
H -24.6529 -5.41089 -9.65628
O -15.8342 -11.2512 -1.14627
H -16.1517 -12.1454 -1.2718
H -15.1407 -11.3324 -0.491483
O -21.3983 -13.0252 -0.462605
H -20.8237 -12.6406 -1.12447
H -21.4527 -12.3602 0.223701
O 4.58562 -27.3898 28.4931
H 4.15738 -26.6068 28.8391
H 5.48648 -27.115 28.3223
O 18.4111 6.28178 -29.7968
H 17.7706 5.97843 -29.1534
H 19.1799 6.51725 -29.2775
O -11.5311 9.32408 8.97138
H -11.2135 9.84131 9.71154
H -11.4685 9.9152 8.22111
O 25.8277 23.3363 13.4646
H 25.4011 22.683 14.0191
H 25.569 23.1006 12.5736
O 17.4616 -2.40721 -10.4626
H 17.574 -1.45682 -10.482
H 18.351 -2.75246 -10.3843
O 7.0562 -8.40182 21.1454
H 6.9255 -7.55302 21.5681
H 6.77755 -8.26448 20.24
O 17.3166 17.2556 3.86443
H 17.4668 17.5439 4.76474
H 17.8937 17.8073 3.33634
O 13.1558 -19.2653 -15.7234
H 13.2128 -19.1031 -16.665
H 13.322 -18.4121 -15.3225
O 22.1411 -21.9374 28.8654
H 22.7673 -22.6598 28.8192
H 22.6067 -21.246 29.336
O -3.0419 -1.42615 11.2829
H -2.53227 -1.17391 12.0529
H -2.38531 -1.6389 10.6197
O -18.6848 0.662165 -10.0251
H -19.1036 0.0823473 -9.38903
H -17.765 0.683825 -9.76087
O 29.0669 -21.6818 -1.39446
H 29.6914 -21.9679 -0.727865
H 29.0136 -22.4173 -2.00482
O 18.3507 -9.33652 25.9898
H 18.9919 -9.73882 25.404
H 18.8472 -8.67428 26.4706
O 22.0546 15.076 -8.11344
H 22.3993 14.656 -7.32538
H 22.457 15.9445 -8.11814
O -23.9773 -19.5383 8.70357
H -24.8945 -19.7869 8.58912
H -23.7563 -19.0614 7.90363
O 29.5224 12.6279 -12.0704
H 28.7475 13.0582 -11.709
H 29.2929 12.4462 -12.9817
O 9.49992 3.46545 -2.70668
H 9.50263 2.77566 -2.04304
H 9.42222 4.27846 -2.20748
O -20.2231 -26.3634 5.4797
H -20.3912 -25.4631 5.758
H -19.4726 -26.6408 6.00516
O 13.8209 -6.69114 -5.03587
H 13.9278 -5.85183 -5.48349
H 14.2779 -7.32056 -5.59375
O 3.5509 21.6211 24.0849
H 4.17076 20.9257 24.305
H 3.02185 21.2555 23.3759
O 15.0618 26.2379 -15.9266
H 15.1703 26.7624 -15.1333
H 14.7645 26.8623 -16.5884
O 28.4137 -24.2014 12.0996
H 29.1508 -23.66 11.8171
H 27.8005 -23.5833 12.4973
O 12.2009 -4.31688 -24.8036
H 11.2669 -4.10977 -24.775
H 12.6359 -3.49653 -24.5711
O 6.84391 20.5685 22.1672
H 6.75527 21.5216 22.1627
H 7.57697 20.3985 22.7588
O 3.00328 0.728632 10.2255
H 2.19216 0.814079 10.7265
H 3.6285 1.29047 10.6834
O -6.54095 -27.8059 24.372
H -5.95907 -27.7543 23.6137
H -6.29 -27.061 24.9183
O 20.7104 -9.64098 15.3596
H 21.1275 -10.1989 16.0161
H 20.8581 -10.0949 14.53
O 25.287 -22.6091 3.90559
H 24.8199 -22.8807 3.11547
H 24.7521 -21.904 4.27016
O -22.6605 15.0079 22.6351
H -22.0324 15.6538 22.9585
H -22.9755 15.3727 21.8081
O -2.05274 -22.3162 8.25657
H -2.02437 -23.0264 8.89766
H -2.96894 -22.0393 8.24555
O -2.7165 -4.93289 -20.3464
H -2.55704 -4.6178 -19.4567
H -1.91176 -4.72664 -20.8219
O 8.87612 23.5048 -6.59428
H 8.18775 22.9022 -6.31264
H 9.25547 23.0904 -7.36927
O 25.3866 29.1083 19.6011
H 24.8885 29.6534 18.992
H 25.5742 29.6854 20.3413
O -6.68338 16.8036 -29.2443
H -7.13488 16.1366 -28.7271
H -5.96729 17.0992 -28.6821
O 5.86669 29.5871 2.71376
H 5.23956 28.9773 2.32504
H 6.63673 29.5327 2.1478
O -8.38345 -4.85117 -2.40627
H -8.53558 -5.13258 -1.50411
H -9.01603 -5.35005 -2.92318
O -28.888 14.3892 13.0063
H -28.7158 14.1735 12.0897
H -29.8241 14.587 13.0345
O 29.5152 -23.5638 4.46983
H 29.0768 -23.4797 3.62309
H -29.7351 -24.1331 4.29636
O 14.8609 -7.77437 -7.70047
H 15.0001 -6.90169 -8.06826
H 15.3317 -8.36184 -8.29164
O 11.2143 2.4904 1.48204
H 10.9879 2.49587 2.41205
H 11.8641 3.18704 1.38915
O 8.45706 15.8252 9.38682
H 8.49365 15.8767 10.3419
H 7.54897 15.5922 9.19366
O 0.23268 -29.2781 15.3953
H 1.16181 -29.4743 15.5156
H -0.15422 29.8911 15.1192
O 25.8756 5.16568 26.5161
H 26.441 4.97766 25.767
H 25.3703 4.36267 26.643
O 3.93238 -24.6647 -6.29333
H 4.11509 -24.6571 -7.2329
H 3.58583 -25.5406 -6.12328
O 12.9969 -23.0272 0.50895
H 13.2147 -23.1299 -0.417466
H 12.9562 -22.0802 0.64241
O 5.48338 12.4407 -20.3709
H 5.22743 13.2828 -19.9946
H 4.72474 12.1678 -20.8869
O -21.0642 -9.27507 3.99747
H -21.3939 -9.16133 4.88886
H -21.0616 -10.2226 3.86163
O 19.3019 -23.3742 13.589
H 20.1933 -23.0355 13.6722
H 18.7835 -22.6195 13.3098
O -23.5228 -13.3119 -12.3659
H -22.8395 -13.1204 -13.0083
H -24.2556 -13.6418 -12.886
O 20.0637 -25.2409 15.6881
H 20.5827 -26.0451 15.6994
H 19.5197 -25.3174 14.9042
O -25.8497 13.9566 7.11899
H -26.296 13.9152 7.96475
H -26.399 14.5309 6.58558
O 24.186 12.693 -22.805
H 24.5351 11.9122 -23.2348
H 24.919 13.3084 -22.7932
O -18.5042 -3.55991 29.3805
H -18.4426 -3.77686 -29.6893
H -17.607 -3.63801 29.056
O -23.3825 2.70368 -23.5863
H -23.7191 3.54865 -23.8846
H -23.6029 2.67272 -22.6553
O -9.73412 7.76876 -4.29332
H -10.2713 8.37561 -3.78404
H -10.3133 7.46362 -4.99169
O -14.4585 13.703 6.43854
H -14.3371 13.4774 7.3608
H -14.9857 12.9872 6.0837
O -21.9987 6.3699 5.40918
H -21.8801 6.08416 4.50336
H -21.1506 6.73738 5.65794
O -19.111 -23.2382 -17.6251
H -19.1081 -23.0472 -16.6872
H -20.0281 -23.4197 -17.8303
O 19.2101 -25.8042 12.093
H 19.9622 -25.2225 12.204
H 18.4963 -25.3642 12.5549
O 25.7363 29.5331 -27.1077
H 25.3457 -29.877 -27.7524
H 26.5948 29.9141 -26.923
O -29.1851 16.2411 -26.2086
H -28.4189 15.6761 -26.309
H -29.3802 16.5408 -27.0965
O 28.658 10.8475 -25.6416
H 28.5084 10.5177 -24.7556
H 29.5991 11.0185 -25.6783
O 18.9788 28.6748 3.10627
H 19.3831 29.1358 3.84131
H 18.3962 29.3218 2.70842
O -26.029 19.6314 17.1034
H -25.997 19.0069 16.3788
H -26.7427 19.3179 17.659
O -1.65146 1.88672 -15.3803
H -0.913682 1.54645 -14.8742
H -1.89961 2.69395 -14.9297
O -17.9475 -13.5563 22.4312
H -17.4455 -13.9723 21.7304
H -18.4602 -14.268 22.8143
O 2.48485 5.69802 13.2917
H 1.97234 5.24027 12.6253
H 2.9569 5.00322 13.7506
O -19.7052 26.932 25.3199
H -20.4717 26.519 25.7175
H -19.0193 26.2664 25.3731
O 6.01965 -3.33493 -26.0359
H 5.5055 -3.91035 -26.6022
H 6.35285 -2.65596 -26.6226
O -25.0941 15.9872 -11.3041
H -25.7227 15.3104 -11.0532
H -25.6301 16.6845 -11.6818
O -8.97101 -3.69997 -20.5523
H -8.48241 -3.45172 -21.3371
H -8.31025 -4.06473 -19.9636
O -5.66509 -10.0619 -4.46147
H -5.17106 -10.6724 -3.91428
H -5.64419 -10.4519 -5.33535
O -20.939 4.58479 0.206394
H -21.3337 4.33607 -0.629421
H -20.9879 5.54064 0.219919
O 26.7562 20.3859 -27.7603
H 26.6143 19.5341 -28.1732
H 26.7628 21.0074 -28.4882
O 26.2868 -29.7151 -1.06024
H 25.8488 -29.7827 -1.90865
H 25.5758 -29.5854 -0.43271
O 4.03342 -5.0787 -2.42766
H 3.29117 -4.61126 -2.04452
H 4.38276 -4.47677 -3.08483
O 1.11685 21.022 -1.3959
H 1.34693 21.5276 -0.616321
H 0.78318 20.1925 -1.05416
O -28.4979 -19.234 2.42789
H -28.5398 -19.6025 3.31033
H -27.6906 -19.5903 2.05707
O 15.6019 23.78 22.3096
H 14.9908 23.4687 22.9773
H 15.6114 23.0858 21.6506
O 26.0423 7.03251 -5.35986
H 26.7336 7.58021 -5.73189
H 25.5067 6.77858 -6.11143
O 16.997 -5.36278 12.0551
H 17.5909 -5.2471 11.3134
H 16.5577 -4.51708 12.145
O 26.6651 29.8923 -14.7325
H 26.8162 29.0004 -15.0455
H 26.4514 -29.6095 -15.5214
O 17.604 24.6183 19.3843
H 18.1088 25.352 19.0334
H 16.8652 25.0286 19.8339
O -16.088 -2.17337 5.83822
H -16.5295 -2.1762 4.98893
H -16.7565 -2.46688 6.45721
O -2.22942 -24.6165 -19.7406
H -2.14056 -24.4106 -20.6712
H -3.16768 -24.5413 -19.5667
O -17.8672 -27.674 29.6981
H -18.3906 -26.9183 29.4312
H -16.9982 -27.3137 29.8751
O 29.8415 20.8529 8.63083
H 29.1513 21.2543 9.15874
H -29.6872 21.5933 8.24887
O 2.33606 -15.2238 -1.44847
H 2.65023 -14.3324 -1.2969
H 2.82403 -15.7598 -0.823313
O 13.3995 -0.402146 13.6348
H 13.7215 -0.150815 14.5004
H 12.8266 -1.15098 13.7999
O -20.5114 15.3446 -19.6479
H -20.9153 15.8934 -20.3201
H -21.2477 14.9039 -19.2236
O -28.3538 28.6931 -10.3297
H -28.8479 28.147 -10.9412
H -27.4429 28.425 -10.4507
O 8.43225 23.4135 -24.3304
H 9.34457 23.1286 -24.3833
H 7.94412 22.6174 -24.1201
O 19.2326 -14.3703 2.03498
H 19.4896 -15.2768 2.20338
H 18.5365 -14.4356 1.38124
O -0.418013 7.89656 17.8727
H -1.13711 8.28489 18.371
H 0.363422 8.08531 18.3923
O -7.89453 -2.47131 7.62746
H -8.22954 -1.75312 7.09061
H -7.0085 -2.62353 7.29881
O -20.1033 -23.6228 -4.6511
H -19.4357 -23.983 -4.06734
H -20.3796 -24.3661 -5.18722
O -21.7319 -10.3392 -4.05469
H -20.8253 -10.1396 -4.28807
H -21.6893 -11.2024 -3.64313
O 3.77637 8.34741 -26.8064
H 2.83989 8.38647 -26.6122
H 4.03214 7.4542 -26.5763
O 18.2463 -29.5845 -27.475
H 17.6126 29.9744 -28.0408
H 18.7369 29.7039 -27.0637
O -10.4855 29.4913 20.5312
H -10.1209 28.6076 20.581
H -10.4612 29.812 21.4328
O -6.8671 -24.4843 19.4911
H -6.64319 -23.7754 18.8882
H -7.35141 -25.1117 18.9544
O 20.3525 -9.60461 -3.29715
H 19.9763 -8.80633 -3.66784
H 20.2612 -10.2576 -3.99102
O 1.47502 -19.8471 4.01744
H 0.961949 -20.1938 3.28752
H 0.872503 -19.2635 4.47844
O 13.5077 24.5726 -29.7127
H 13.5271 24.2294 29.394
H 14.0639 25.351 -29.7426
O 10.8526 3.85194 25.5772
H 11.3677 3.42614 26.2624
H 10.8957 4.78442 25.7889
O -17.225 -3.64602 3.26338
H -16.2982 -3.48366 3.08727
H -17.6884 -3.02535 2.70106
O -25.227 9.87612 -17.7526
H -24.2921 10.0382 -17.8788
H -25.588 10.7291 -17.511
O 29.4058 21.1152 -20.5958
H 29.4047 22.0699 -20.5264
H 28.5802 20.8445 -20.1942
O -8.40209 -21.955 11.484
H -7.8497 -22.6478 11.1219
H -8.70993 -22.3056 12.3198
O 3.00625 10.2997 -4.44371
H 2.457 10.9166 -4.92741
H 2.39672 9.8328 -3.87211
O 0.443551 -3.06607 23.092
H 0.679991 -2.42299 22.4235
H 0.0279843 -2.5514 23.7838
O 23.8321 -13.13 13.0796
H 22.8851 -13.2032 13.1984
H 24.1548 -12.8028 13.9192
O -14.31 -27.4145 27.1539
H -13.8289 -26.588 27.196
H -14.7465 -27.395 26.3023
O -19.3775 0.139385 -20.4032
H -19.878 -0.675143 -20.3554
H -20.0202 0.826608 -20.2272
O 18.0521 11.4817 -20.2047
H 18.2593 12.2 -19.6069
H 17.1698 11.6783 -20.5194
O 25.8015 -19.712 28.9518
H 26.1512 -19.1717 28.2433
H 26.4581 -19.652 29.6458
O -4.12085 24.7543 12.8954
H -3.51914 25.4101 12.543
H -4.60632 25.2167 13.5787
O -1.77684 7.19168 -15.5136
H -2.63945 7.32731 -15.9057
H -1.5781 6.27087 -15.6835
O 16.057 22.6681 -8.79636
H 15.288 22.2001 -9.12148
H 15.7214 23.5229 -8.52631
O 9.67505 -16.4555 16.6399
H 8.83089 -16.7941 16.9382
H 10.2382 -17.2277 16.587
O 11.2055 -9.81893 0.704362
H 10.7848 -9.31821 0.0054165
H 12.0061 -10.1607 0.306313
O 8.94575 1.74212 -0.310581
H 8.32477 2.45672 -0.169321
H 9.68934 1.95539 0.253184
O 13.7398 20.1639 0.93088
H 14.0974 19.5945 1.61216
H 13.3097 20.8715 1.41092
O 21.2325 -25.213 -8.03441
H 21.6209 -25.0918 -8.90084
H 21.3466 -26.145 -7.84845
O 4.86496 16.6134 26.0951
H 4.61226 15.8127 26.5548
H 4.33026 17.299 26.4954
O -18.9607 5.08668 16.7201
H -19.6514 5.6135 16.3182
H -18.6628 5.60926 17.4647
O 11.0909 10.6635 20.6808
H 10.8868 10.7292 21.6137
H 11.6378 11.4281 20.5004
O -21.0764 -25.3211 -6.61146
H -21.684 -24.8459 -7.17821
H -20.9093 -26.1424 -7.07394
O 28.3301 -15.3831 19.4143
H 28.6559 -15.0165 18.5923
H 28.1464 -16.3004 19.2118
O -22.6842 -27.4511 5.81514
H -22.0021 -26.7817 5.86976
H -23.3592 -27.1564 6.42644
O -16.2022 20.758 11.1878
H -16.0925 19.8468 10.916
H -15.348 21.0077 11.5403
O -13.0236 -5.69435 4.60101
H -13.2674 -6.03531 3.74047
H -13.6192 -6.1312 5.20981
O 0.0574899 8.58734 -26.9626
H -0.517646 7.8676 -27.2222
H -0.315505 8.90835 -26.1415
O -13.9152 23.9785 0.966076
H -13.5463 23.1203 0.757022
H -14.1549 24.35 0.117082
O 11.226 -25.7711 14.5011
H 10.92 -26.5869 14.8972
H 11.9807 -26.0295 13.9721
O -22.8308 25.4777 24.3166
H -23.3157 24.6622 24.1902
H -22.9443 25.6829 25.2447
O 22.4006 23.397 -20.0744
H 23.3491 23.4074 -19.9465
H 22.039 23.3941 -19.1881
O 24.5692 -29.3918 29.9176
H 24.7136 29.827 29.3837
H 24.0895 -28.7943 29.3439
O -5.60742 24.4902 -12.6643
H -6.02348 24.5011 -13.5263
H -4.96212 25.1963 -12.7003
O 3.05403 -23.9746 -18.6675
H 2.75489 -24.1353 -17.7725
H 3.87098 -23.4867 -18.5635
O -22.6551 -8.96623 -29.6391
H -22.9849 -9.57856 29.7032
H -23.2674 -9.04694 -28.9077
O -21.922 14.8338 12.1764
H -22.7251 14.6979 11.6736
H -21.5923 15.6813 11.8776
O 1.94798 25.2711 -4.25475
H 2.44751 24.5096 -4.54938
H 1.16635 24.9012 -3.8443
O -12.9131 -25.034 20.6027
H -12.0555 -25.1727 20.2006
H -13.1255 -25.8736 21.0104
O 6.52148 23.1297 -8.62024
H 7.13087 22.711 -9.22817
H 7.0509 23.327 -7.84757
O -12.7947 -5.29281 -6.49337
H -12.7092 -5.55072 -7.4112
H -11.956 -4.8838 -6.27993
O -12.791 -3.22096 17.1915
H -12.1311 -2.8105 16.6327
H -13.0261 -4.02743 16.7326
O 16.5444 29.7748 29.2933
H 15.6984 29.7439 29.74
H 16.8647 -29.3364 29.4471
O -6.96112 -8.1868 -18.8756
H -7.41625 -7.75171 -18.1546
H -7.62282 -8.75611 -19.2684
O 1.2652 -17.3475 -21.3676
H 0.856405 -17.8013 -22.1046
H 0.822011 -16.4998 -21.3321
O -29.0112 -25.6871 -4.87284
H -29.0585 -26.4296 -4.27059
H -28.7374 -26.0709 -5.7059
O -7.7496 -24.067 16.3695
H -7.68813 -23.202 15.9641
H -8.67108 -24.1524 16.6141
O -16.8189 -25.9926 -15.6593
H -17.499 -25.7673 -15.0245
H -16.7463 -25.2189 -16.2181
O 6.64566 18.7053 -18.9846
H 6.00416 18.5499 -18.2914
H 7.08965 17.8643 -19.0936
O 9.37719 -24.8456 16.7631
H 9.5003 -25.6135 17.3211
H 10.1514 -24.8313 16.2004
O 24.9602 10.3406 2.63864
H 24.9285 11.2968 2.60808
H 25.8354 10.14 2.97012
O -22.5123 17.4407 -15.7633
H -21.9056 17.0169 -16.3703
H -23.3021 16.9009 -15.7976
O -4.01788 -14.5824 -1.57951
H -3.44423 -14.7333 -2.33078
H -3.76427 -15.2531 -0.94539
O -5.19581 -25.4762 25.9806
H -4.2753 -25.7347 26.0261
H -5.19288 -24.541 26.1848
O 5.31859 -6.05811 19.7502
H 4.81363 -6.40627 20.4851
H 4.65846 -5.79046 19.1109
O 29.8148 -13.5536 -17.0037
H -29.3313 -13.3845 -17.402
H 29.3613 -12.7115 -17.0419
O -21.9131 -5.65563 20.8913
H -22.1989 -5.32783 20.0386
H -22.7131 -5.68951 21.4158
O -7.29233 4.12072 -0.298293
H -6.9678 3.27897 -0.618265
H -6.53239 4.5289 0.116582
O 10.9944 -16.5645 9.11093
H 10.2896 -16.7835 9.72043
H 10.7501 -15.7086 8.75888
O -15.9497 -26.6189 -19.5081
H -15.2764 -26.4607 -18.8464
H -16.3292 -25.7562 -19.6753
O -8.80456 -12.0372 -21.9921
H -8.38923 -12.5733 -21.3166
H -9.53741 -12.5685 -22.3033
O -7.53345 -6.17392 1.60659
H -7.43442 -6.94306 2.16771
H -6.69138 -5.72281 1.66693
O -19.5107 14.9436 24.7903
H -19.1899 15.5662 24.1378
H -20.2683 14.5307 24.3759
O 6.24361 -21.5877 25.0469
H 6.1763 -22.2368 25.7471
H 5.35105 -21.2598 24.937
O -15.5552 -16.9315 -3.82436
H -16.4675 -16.9137 -3.53531
H -15.0484 -16.7644 -3.02972
O -18.9723 18.3674 8.27886
H -19.2184 18.4343 9.20145
H -18.0309 18.5406 8.26842
O 23.384 -21.7725 21.0341
H 23.1657 -22.4945 21.6234
H 23.6677 -21.0663 21.6147
O -3.38633 -6.74131 14.7963
H -4.06523 -7.37263 14.558
H -3.07957 -6.3916 13.9597
O 6.3718 2.77308 -13.7502
H 5.99562 1.8991 -13.8545
H 7.24157 2.70862 -14.1446
O -11.6294 -15.5632 -4.42285
H -11.6734 -16.3267 -4.99848
H -12.1746 -14.9054 -4.85458
O 1.49879 -25.9103 19.0309
H 2.2408 -26.0385 18.44
H 0.741815 -25.8267 18.451
O -21.3222 29.2885 3.77081
H -21.2109 28.7328 2.99938
H -21.0864 -29.8338 3.47044
O 29.6412 26.4517 -13.701
H -29.9617 25.7083 -14.1548
H -29.791 27.1929 -13.9123
O -13.893 -6.42009 1.9342
H -13.1247 -5.98516 1.56436
H -14.6122 -6.17188 1.35328
O -28.3798 -20.4019 22.6109
H -28.5405 -19.598 23.1051
H -27.4293 -20.5119 22.6341
O -12.8687 29.1255 -0.854027
H -13.4319 28.4732 -1.27068
H -12.1158 29.202 -1.44017
O -23.2274 28.4929 24.7283
H -22.883 27.7819 24.1878
H -22.502 28.7271 25.3074
O 13.719 23.4792 8.6516
H 13.1432 24.1767 8.96486
H 13.2413 23.0827 7.92305
O 20.623 -22.6324 -24.0345
H 21.1932 -23.3976 -24.1094
H 19.746 -22.9674 -24.2211
O -29.4273 -6.46814 26.3714
H -29.6167 -6.87155 27.2185
H 29.775 -6.60017 25.859
O -12.3392 22.7036 -19.9982
H -12.4615 22.9153 -19.0728
H -12.9441 23.2847 -20.4594
O 26.3688 5.6166 -12.6527
H 27.2468 5.77382 -12.9999
H 26.1941 4.69629 -12.8495
O 29.106 8.81926 -27.5195
H 28.886 9.63052 -27.0616
H -29.9806 8.93213 -27.7824
O -7.87081 -25.4583 -8.11099
H -8.21986 -26.2241 -7.65499
H -7.86541 -24.7667 -7.44922
O 25.0576 4.3276 -15.117
H 25.6125 3.69667 -15.5755
H 25.438 5.18008 -15.3286
O 23.4649 -19.8521 -2.26894
H 23.7057 -19.2998 -3.01267
H 23.8529 -20.7044 -2.46737
O -9.28005 22.6864 10.5129
H -9.76162 22.6838 11.3401
H -8.38268 22.9116 10.7583
O -20.8535 -18.131 19.9389
H -21.2368 -18.5259 19.1558
H -19.9608 -18.4751 19.9688
O -26.7051 -16.237 19.5163
H -26.8304 -15.9097 18.6256
H -26.8954 -17.1732 19.4569
O -14.8825 17.6129 -20.8769
H -14.6735 16.6897 -20.7344
H -14.1751 18.089 -20.4421
O 8.74957 20.8945 8.97611
H 9.06715 20.6479 8.10745
H 9.26217 20.3575 9.58038
O 26.99 -26.0384 10.1936
H 27.3813 -25.6516 10.9768
H 27.6119 -26.714 9.92333
O 22.1701 29.5159 -10.2408
H 22.9145 29.9568 -10.6504
H 21.6372 29.212 -10.9756
O 25.0105 -22.6064 7.15333
H 25.7237 -22.7979 7.76242
H 25.432 -22.5682 6.29475
O 12.2704 -2.8326 -11.7444
H 11.4186 -2.69297 -11.3307
H 12.8363 -2.16293 -11.3603
O 26.9949 -22.4318 0.552906
H 27.2846 -21.91 -0.195468
H 26.1154 -22.107 0.74587
O 18.7296 8.44282 -10.1147
H 19.2911 8.24791 -9.36441
H 19.2576 9.02049 -10.6659
O -16.3988 -0.796312 -28.5488
H -16.3859 -1.25195 -29.3906
H -16.1749 -1.47067 -27.9075
O 2.91294 23.3842 3.47145
H 2.54351 22.9776 2.68761
H 3.86013 23.3422 3.3399
O 24.076 -1.86362 -9.48868
H 23.5629 -1.06752 -9.35022
H 24.9305 -1.66834 -9.10405
O -20.4487 -3.88154 -26.6006
H -20.4106 -3.59421 -25.6883
H -20.6958 -3.09651 -27.0894
O -5.93856 18.9107 19.0118
H -5.50772 18.0951 19.2675
H -5.44363 19.2154 18.2512
O -29.2018 -19.2872 13.8972
H -28.2837 -19.2568 13.6281
H -29.679 -19.509 13.0977
O -24.7991 -23.1607 16.8818
H -23.8668 -22.9488 16.8356
H -25.1588 -22.842 16.054
O -15.7881 15.3551 3.7013
H -15.4496 14.6982 4.30965
H -15.3516 15.1615 2.87171
O -5.72788 5.05484 13.0232
H -6.29711 5.12302 12.2566
H -4.84088 5.1262 12.6705
O 10.0424 -21.7368 18.2893
H 9.24638 -22.0127 17.835
H 9.75273 -21.0418 18.8804
O 29.9124 -19.4095 16.5014
H 29.0011 -19.6604 16.3505
H -29.6471 -19.5949 15.672
O -7.39982 -19.8078 -1.85321
H -6.52108 -19.6464 -2.19672
H -7.9534 -19.167 -2.29951
O 0.597235 2.89942 22.402
H -0.205654 2.80732 21.889
H 0.304476 2.87235 23.3129
O -20.064 -12.3948 -3.13467
H -19.19 -12.5836 -2.79296
H -20.1207 -12.9041 -3.94313
O 27.9048 12.9556 -27.0459
H 28.1146 12.1238 -26.6213
H 26.9525 12.9428 -27.1415
O -22.6133 -23.0396 -4.73215
H -21.6685 -22.9691 -4.59539
H -22.9668 -22.217 -4.39384
O 15.771 17.7495 8.16421
H 16.7233 17.8466 8.15429
H 15.4727 18.3766 8.82298
O -1.82357 -28.7028 -27.534
H -2.02603 -28.7179 -26.5986
H -2.12795 -27.8455 -27.8316
O 12.1228 -17.968 -0.149475
H 12.5021 -18.7737 0.201638
H 12.2042 -17.334 0.563012
O 7.74706 -8.97703 -0.655313
H 7.63928 -9.89531 -0.407569
H 6.86243 -8.61324 -0.618988
O -4.35659 24.6205 1.33457
H -4.74404 24.1527 2.07433
H -4.88689 25.4126 1.24721
O 29.9473 -19.4728 19.5499
H 29.9721 -19.5345 18.5951
H -29.1818 -19.7532 19.8312
O -7.11794 6.61707 -14.2677
H -6.63742 5.93739 -14.7403
H -6.44615 7.24472 -14.0012
O -27.761 6.20278 1.00789
H -27.5179 6.60837 1.84015
H -27.3053 5.36099 1.00903
O 8.90577 -11.0831 -20.9381
H 9.43471 -10.5414 -20.3524
H 8.01266 -10.995 -20.6052
O -7.17362 -22.4556 7.44253
H -7.97115 -22.4045 7.96938
H -7.4322 -22.9467 6.66269
O 15.0889 -28.9543 3.32183
H 14.6611 -29.0295 4.17482
H 15.2936 -29.8564 3.07573
O 28.4553 15.16 -29.6885
H 29.3303 15.5129 -29.8501
H 28.513 14.764 -28.819
O 7.22813 19.7443 -14.7036
H 7.48209 18.8457 -14.9142
H 6.66123 19.66 -13.9369
O -24.0599 7.47517 21.8212
H -23.9357 7.00159 20.9987
H -23.9514 6.80932 22.5002
O -24.2127 10.4985 -12.3906
H -24.1914 10.2747 -13.321
H -25.1356 10.6741 -12.207
O -16.2265 -16.5089 -28.7587
H -15.614 -17.2345 -28.8793
H -15.8519 -15.7912 -29.2693
O -10.3308 -24.1996 7.19192
H -9.63729 -24.3972 6.56241
H -10.7459 -25.0447 7.36468
O 16.3915 2.86057 -10.1698
H 16.1973 3.53324 -9.51705
H 15.5406 2.64274 -10.5503
O -8.17847 -23.6589 -6.01347
H -8.0725 -22.7608 -5.69995
H -7.51058 -24.1577 -5.54299
O -1.12836 -13.8733 1.37193
H -1.14153 -14.1393 0.452528
H -1.97186 -14.1646 1.71815
O 18.3238 -4.79069 9.998
H 18.3597 -4.79845 9.04151
H 18.8588 -4.03879 10.2521
O -24.2144 28.3893 29.0514
H -23.4902 29.0059 29.1588
H -23.8214 27.5293 29.2006
O -2.32357 -25.7757 -2.92251
H -2.02269 -25.635 -3.82024
H -2.43657 -26.7236 -2.85306
O -3.40809 -14.5568 29.2033
H -2.8661 -15.3437 29.2605
H -3.98449 -14.7162 28.4559
O 0.290032 -19.7265 -19.7783
H 1.14118 -20.0547 -20.0682
H 0.266227 -18.8193 -20.0826
O -11.2816 4.62355 -28.4481
H -10.5088 4.71642 -29.0052
H -11.8703 5.32114 -28.7361
O -27.1188 -2.46453 -13.1309
H -27.7996 -2.43926 -13.8032
H -26.5401 -3.1772 -13.402
O 29.4039 23.018 -29.0272
H 29.9516 23.2651 -28.282
H 29.4164 23.7855 -29.5991
O -11.406 -19.6692 -25.314
H -10.7954 -20.2593 -25.7558
H -11.0407 -18.7959 -25.4558
O -21.054 17.4028 28.0325
H -21.7598 17.7913 28.5493
H -20.4339 17.073 28.6828
O -26.3696 25.5424 20.5085
H -27.0411 26.121 20.1472
H -25.7483 25.4185 19.791
O 8.63028 -14.319 -17.1193
H 8.84293 -14.6765 -17.9814
H 9.45624 -14.3493 -16.6365
O 17.5662 -21.7181 -29.4385
H 18.3802 -21.8575 -28.9544
H 17.7733 -21.0206 29.9396
O 22.7447 -27.2395 26.882
H 22.3622 -28.1128 26.797
H 22.1897 -26.6805 26.3382
O 1.34633 -28.9051 10.6833
H 1.51983 -28.5873 11.5694
H 2.12896 -28.668 10.1858
O -2.09375 25.9205 7.55879
H -1.23529 25.6981 7.91913
H -2.70689 25.7419 8.2718
O -21.9177 -1.44519 -22.2938
H -22.5725 -0.925551 -21.8274
H -22.3205 -1.63413 -23.1413
O 5.26929 -26.427 -3.2706
H 6.04796 -25.9483 -3.5548
H 4.90508 -25.8946 -2.56343
O 12.7621 8.20388 23.4544
H 12.1662 8.93654 23.6106
H 12.8454 8.16118 22.5018
O 15.6034 9.5974 -5.61562
H 16.2798 10.0379 -6.13
H 14.8824 10.226 -5.57883
O 5.56835 6.42486 -14.8599
H 4.97547 5.68238 -14.7439
H 5.52808 6.6202 -15.7961
O 14.6352 13.108 -26.4994
H 15.2251 12.5268 -26.9794
H 13.9687 13.3559 -27.1402
O 18.2268 28.0163 13.7366
H 18.3705 28.8071 14.2565
H 18.8093 28.1151 12.9835
O -24.3945 3.08769 -2.79148
H -24.65 2.31837 -2.28249
H -25.1522 3.27034 -3.34716
O 29.2211 -21.7251 21.7059
H -29.8822 -21.5888 22.0119
H 29.1468 -21.1735 20.9272
O -5.66494 -28.7966 17.5332
H -5.33599 -28.6547 18.4208
H -4.91133 -28.6268 16.968
O -8.70801 14.8733 18.6672
H -8.27436 15.6903 18.9133
H -9.04132 15.0349 17.7846
O -0.488766 15.6476 1.65159
H -0.170353 14.7462 1.60267
H -1.10422 15.7246 0.922532
O 4.63991 5.5869 28.8498
H 3.97359 4.92793 28.6548
H 5.00181 5.3196 29.6946
O 6.69898 -2.13688 0.84598
H 7.55075 -1.76586 1.07632
H 6.17214 -1.38258 0.581937
O -23.0231 -15.6978 -14.9351
H -22.3119 -16.1628 -14.4945
H -23.1201 -14.8838 -14.4409
O -27.5747 -20.9339 -22.2217
H -26.7737 -21.3321 -22.5625
H -27.6164 -20.0773 -22.6468
O 4.02331 -15.8972 0.690634
H 3.69072 -16.5314 1.32573
H 4.8687 -16.2528 0.41655
O 29.9739 -11.9207 -7.64404
H 29.8709 -12.7412 -8.12613
H 29.1841 -11.4206 -7.84983
O 17.9988 -6.19415 29.7268
H 17.5933 -6.21338 -29.4063
H 18.2376 -7.10471 29.5534
O -15.4189 17.8905 -27.992
H -15.0224 18.3307 -28.7438
H -14.7881 17.212 -27.751
O 0.944161 -8.3012 27.7961
H 1.72924 -8.75472 27.4891
H 1.07201 -7.39146 27.5273
O 12.246 -7.34322 -24.8313
H 12.8685 -6.67799 -25.1249
H 11.702 -6.89394 -24.1844
O -21.1808 -12.4296 -9.80793
H -22.0026 -12.7459 -9.4327
H -21.4413 -11.9804 -10.612
O 0.694581 -22.017 25.992
H 0.0567346 -22.6337 26.3514
H 0.191739 -21.4826 25.3774
O -26.9468 -4.82835 -27.5368
H -26.9456 -5.2832 -26.6946
H -26.0219 -4.75902 -27.7734
O 25.9298 -18.3985 -11.6995
H 25.8458 -18.0015 -10.8326
H 26.5963 -17.8721 -12.141
O -18.7584 4.56885 -1.78682
H -19.2972 4.19964 -2.48653
H -19.2406 4.37267 -0.98361
O -14.2436 -22.1656 -2.43242
H -13.793 -21.9278 -1.62207
H -14.4833 -23.0845 -2.31303
O 8.91573 -7.10579 16.3948
H 9.73364 -7.6021 16.3644
H 9.00389 -6.4549 15.6986
O 1.10875 -4.96093 -10.4255
H 0.215466 -4.63711 -10.3097
H 1.65788 -4.17988 -10.3573
O -3.00435 -4.38152 19.0443
H -3.58599 -4.09541 19.7486
H -2.75453 -5.27319 19.2867
O 25.1406 25.7678 16.7626
H 24.8555 26.6208 16.4349
H 24.8844 25.7671 17.6848
O -16.5491 4.61555 -4.28672
H -16.8652 5.15334 -5.01273
H -16.8425 5.07674 -3.50093
O 8.43171 -22.8955 -3.81605
H 9.1156 -23.5354 -4.01359
H 8.87415 -22.224 -3.29692
O -5.07555 21.2159 -8.49225
H -4.31321 20.7276 -8.18127
H -4.70735 21.9897 -8.91867
O -26.0309 -23.0765 -28.6161
H -25.2308 -22.9796 -29.1326
H -25.8812 -22.5387 -27.8386
O -23.3661 -7.02115 8.11786
H -23.2002 -6.48928 8.89622
H -24.2938 -7.24963 8.17654
O 28.2536 -17.1613 25.1901
H 27.7473 -17.7396 24.6197
H 29.0253 -16.93 24.6732
O 27.1096 5.50668 12.3915
H 27.7671 5.31899 11.7216
H 27.6182 5.71443 13.1753
O 14.1615 18.4048 3.12459
H 14.8235 18.3571 3.81434
H 14.1084 17.513 2.78085
O -12.3598 -16.9233 27.4305
H -12.1798 -16.9055 28.3704
H -11.8107 -16.2283 27.0677
O 27.3498 -19.5743 26.5316
H 28.1249 -19.0396 26.3592
H 27.6536 -20.4765 26.4318
O 11.765 -2.36041 -3.791
H 12.3746 -2.90895 -3.29739
H 10.9056 -2.56519 -3.42253
O 0.885204 -25.5863 2.28833
H 0.118947 -26.1393 2.44079
H 1.34426 -26.0073 1.56154
O 22.3815 -8.61462 4.68276
H 21.7088 -9.2714 4.50299
H 23.1603 -8.93882 4.23049
O 16.0381 -9.58485 1.54046
H 15.6362 -9.49852 2.40491
H 16.7529 -10.2082 1.66932
O -3.13865 19.7218 -16.5023
H -3.24472 19.2798 -17.3447
H -4.01001 19.697 -16.1069
O -9.94596 7.16513 19.324
H -10.2777 6.35817 19.7177
H -10.7127 7.56439 18.9129
O 7.3371 21.2499 -6.26625
H 6.41872 21.5197 -6.26748
H 7.31343 20.3171 -6.4795
O -8.9446 17.6341 19.3302
H -8.48309 18.448 19.5325
H -9.78142 17.7126 19.7883
O 8.42117 -9.50053 24.4079
H 9.26417 -9.60366 24.8494
H 8.42698 -10.167 23.7208
O -10.7716 -13.9055 19.9316
H -11.4206 -13.3519 20.3659
H -9.95698 -13.7368 20.4051
O -20.6695 11.217 -7.97151
H -20.5452 11.5693 -8.8528
H -20.1514 11.7916 -7.40805
O -24.773 8.57455 -3.14792
H -24.98 9.05172 -2.34438
H -23.8389 8.73117 -3.28612
O -29.0234 -1.76288 19.9656
H -29.5807 -2.47067 20.2892
H -28.132 -2.10076 20.0518
O 6.04665 -3.20773 -20.6274
H 5.74044 -2.31175 -20.7677
H 6.14306 -3.2825 -19.678
O 24.7542 15.9446 -20.434
H 25.6424 15.7337 -20.7219
H 24.1981 15.7033 -21.1748
O 16.292 12.7933 19.8788
H 17.2205 12.6196 20.0338
H 15.8351 12.2356 20.5085
O 6.97457 -20.2498 7.97492
H 6.35967 -19.6332 7.5775
H 7.8012 -20.092 7.51886
O -13.5116 9.61833 -14.5186
H -13.6122 10.3711 -13.936
H -13.1802 9.99009 -15.336
O -15.7581 -6.55101 25.8261
H -16.5897 -6.17231 25.541
H -16.0066 -7.33594 26.3143
O 28.4399 29.9922 2.03129
H 29.0186 29.735 2.74905
H 28.2613 -29.0805 2.1876
O -15.0021 -1.72939 18.3281
H -14.4806 -1.70346 17.5259
H -15.3057 -2.63521 18.3878
O 0.0125466 -18.3456 14.5843
H 0.0685145 -19.2988 14.652
H -0.463588 -18.0768 15.37
O 26.9576 19.8386 -6.18085
H 27.0764 19.02 -6.66252
H 27.3677 19.6786 -5.33087
O 25.9584 -25.5337 -22.0979
H 25.1478 -25.3213 -22.5605
H 26.0032 -26.4896 -22.1186
O 7.78142 1.4294 -6.21504
H 8.0802 1.60866 -7.10657
H 8.30339 0.678057 -5.93351
O -7.29342 28.5957 18.27
H -6.3753 28.7884 18.4601
H -7.75674 29.4075 18.4763
O 17.7271 13.8674 -2.45675
H 16.7963 13.6742 -2.56832
H 18.1687 13.0404 -2.64977
O 4.99473 29.362 -28.1264
H 5.0828 28.7249 -27.4175
H 4.73498 28.8411 -28.8863
O -17.3555 -7.50536 2.18213
H -17.3747 -8.42222 2.45642
H -17.3648 -7.00966 3.00092
O -2.30553 16.4073 -12.3366
H -3.01163 15.7635 -12.2802
H -2.61275 17.147 -11.8125
O -8.37345 9.0461 -26.6419
H -7.89366 9.4179 -27.382
H -8.27565 9.69299 -25.9432
O 13.2802 0.445863 -26.0948
H 12.8263 -0.196776 -25.5496
H 14.2095 0.287806 -25.9287
O -6.03203 -2.18841 -1.10182
H -5.93856 -2.06343 -0.157427
H -6.25604 -3.11379 -1.20043
O 13.798 19.9532 -17.6979
H 14.5058 19.5059 -18.1617
H 13.7508 19.5125 -16.8495
O 17.049 -19.6203 -10.8274
H 17.1331 -19.2723 -11.7151
H 16.6157 -18.9223 -10.3361
O -28.8005 -2.01695 -9.16363
H -29.2952 -2.60877 -9.73048
H -28.5814 -2.54636 -8.39686
O -23.7723 1.51521 17.4382
H -23.2075 1.52483 18.211
H -24.5885 1.91936 17.7325
O 1.16156 -24.8147 -20.2915
H 0.632411 -24.6082 -19.521
H 2.01746 -24.4288 -20.1053
O -10.149 -14.8174 -13.8134
H -10.6471 -14.8922 -14.6274
H -10.7625 -14.4259 -13.1917
O -6.06797 17.3417 -9.05919
H -5.96126 16.3931 -8.98819
H -6.12821 17.6449 -8.15328
O 23.9895 15.6837 -26.6895
H 24.1226 16.2406 -25.9224
H 24.5356 16.0777 -27.3697
O 22.1423 -20.7263 23.5345
H 22.3897 -20.6805 24.4581
H 21.1981 -20.5688 23.531
O 5.45571 5.11336 -22.178
H 5.7749 5.37528 -21.3145
H 5.29265 5.93894 -22.6342
O 0.959431 2.71564 25.2986
H 0.300809 2.10366 25.6271
H 1.24642 3.19828 26.0738
O 27.5852 -1.69895 -7.09601
H 27.8451 -1.71529 -6.17492
H 26.7593 -1.21513 -7.10377
O -1.49789 -26.6291 1.52412
H -2.09818 -25.9205 1.75607
H -0.960061 -26.2671 0.81988
O -17.2322 15.5508 11.5515
H -17.2186 15.7219 10.6098
H -16.8139 14.695 11.646
O 20.2239 -5.0573 15.776
H 19.6465 -5.81452 15.6789
H 19.9337 -4.6364 16.5852
O -6.04781 15.6134 -2.18097
H -6.23876 14.9931 -1.47735
H -5.84517 16.433 -1.72998
O 1.27572 25.4335 1.07448
H 1.59366 26.2014 0.599685
H 0.424513 25.701 1.42104
O -16.1154 -29.1092 14.7586
H -16.6089 -29.1149 13.9384
H -16.6329 -29.6514 15.3539
O -27.8689 -9.41104 20.8937
H -28.337 -10.1364 21.3071
H -27.8754 -8.71539 21.5512
O 19.4414 11.4147 21.7041
H 20.3664 11.448 21.9481
H 19.0939 12.268 21.9638
O 16.4582 -3.1279 18.629
H 16.7854 -3.54407 17.8315
H 16.5752 -2.19031 18.4757
O -25.7986 26.4633 -15.5241
H -25.4459 25.5871 -15.3688
H -25.852 26.8583 -14.6538
O -8.31246 16.87 -4.08019
H -7.74648 16.3267 -3.53183
H -9.02922 17.1301 -3.50157
O 14.1238 -4.21773 1.23673
H 13.7465 -5.02806 0.894333
H 14.1403 -3.62457 0.485658
O -17.798 -7.27301 -8.28098
H -18.0904 -8.17501 -8.15011
H -18.3593 -6.93785 -8.9802
O 3.17426 -8.12219 -10.5207
H 3.29558 -8.86533 -9.92974
H 3.66996 -8.35617 -11.3054
O -16.1101 24.3792 -6.83704
H -16.6441 24.5785 -6.0681
H -15.2142 24.3368 -6.50257
O -0.577184 1.88153 -5.50757
H -1.44173 1.53473 -5.28729
H -0.334209 1.42615 -6.31369
O -22.3086 21.7359 -26.9642
H -22.89 21.0411 -26.6554
H -21.4643 21.5407 -26.5577
O -2.18238 -16.8693 8.20929
H -2.53096 -17.2242 7.3915
H -1.69813 -16.0873 7.94441
O -19.9018 -2.68514 -24.2996
H -19.0227 -2.74662 -23.9259
H -19.9388 -1.80891 -24.6832
O -19.3324 -26.5921 17.5082
H -18.6605 -26.7659 16.849
H -20.1571 -26.8091 17.0734
O -20.7951 -15.1499 -17.0424
H -21.25 -15.056 -16.2055
H -21.1132 -15.9803 -17.3966
O -2.42511 22.0314 -29.1078
H -2.93348 21.7042 -28.3657
H -1.51623 21.8335 -28.882
O -28.3036 13.4801 -1.19564
H -28.5643 14.3099 -1.59542
H -28.7538 12.8125 -1.71316
O -18.9419 19.0632 14.3986
H -19.1117 19.4861 13.5568
H -18.758 18.1506 14.1758
O 23.3171 -25.4896 19.2398
H 24.1861 -25.7877 19.5083
H 23.3091 -25.5989 18.2889
O -4.59393 16.9636 -15.3122
H -5.1563 16.719 -14.5772
H -5.20229 17.2285 -16.0021
O -10.8485 -8.02779 -27.7067
H -9.89356 -8.0927 -27.6957
H -11.1516 -8.91764 -27.5264
O -3.87129 16.4574 2.15235
H -4.36414 16.9371 2.81809
H -3.20277 17.0754 1.85685
O 5.83626 19.9754 24.4947
H 6.72296 20.2341 24.7459
H 5.85892 19.9381 23.5385
O -20.6743 -7.9548 19.0262
H -20.4068 -7.40145 18.2923
H -20.2451 -7.56637 19.7885
O -17.8177 8.10469 -10.6705
H -18.5043 7.88484 -11.3002
H -18.2886 8.45821 -9.9158
O 13.0758 -9.69175 -23.5713
H 12.4017 -10.2241 -23.9936
H 13.1539 -8.91728 -24.1283
O -16.4656 22.3524 -11.3321
H -16.9301 22.0639 -10.5464
H -16.0527 21.5585 -11.6719
O 21.1722 -7.01683 -1.99448
H 21.5952 -7.87543 -2.00048
H 21.4697 -6.60832 -1.18159
O -5.85114 2.75368 9.33825
H -5.49096 2.23722 10.0592
H -6.79776 2.7346 9.47888
O 15.1308 -3.94515 15.7832
H 15.4985 -3.46256 15.0428
H 14.2937 -3.51516 15.9579
O -2.49807 8.11396 -6.51473
H -2.3728 8.81979 -5.88044
H -1.69986 7.58953 -6.45097
O 24.1814 -12.4849 24.1787
H 24.2387 -13.3631 23.8022
H 23.7365 -11.9653 23.5091
O -23.1745 -3.10084 21.6589
H -22.248 -2.86613 21.7114
H -23.5806 -2.64088 22.3936
O 16.2746 -17.2375 12.0291
H 16.8189 -17.7401 11.4231
H 16.8881 -16.6533 12.4748
O 7.15265 22.9713 13.5107
H 6.53478 22.4098 13.0426
H 7.81929 23.1898 12.8595
O 15.1947 -3.13064 12.1763
H 14.3235 -3.38132 11.8691
H 15.0362 -2.67944 13.0055
O 6.90755 -29.0897 -15.1192
H 7.49807 -29.6025 -14.5674
H 6.53202 -28.4376 -14.5276
O 29.4977 12.727 -20.4577
H 29.7454 12.3752 -21.3128
H 28.9683 12.0366 -20.0584
O 16.9489 10.6785 15.0725
H 16.0765 10.4024 14.7916
H 16.7913 11.4379 15.6334
O -7.92459 25.2145 -11.4024
H -7.19089 24.605 -11.4823
H -7.52147 26.0424 -11.1407
O 20.1516 -4.85204 25.2106
H 20.8189 -5.44264 24.8611
H 20.1022 -4.14095 24.5717
O 24.3858 -14.9277 22.7345
H 23.8545 -15.7167 22.6274
H 25.2834 -15.2513 22.8107
O 9.77004 -6.89757 -22.5629
H 9.54414 -7.49123 -23.2789
H 9.65013 -7.42087 -21.7704
O -21.6669 20.5547 -17.265
H -22.4709 20.9437 -17.6091
H -20.9626 21.0316 -17.704
O -21.0189 -3.78795 -11.2412
H -20.4094 -3.07628 -11.4367
H -21.4972 -3.92577 -12.0588
O -12.787 26.744 21.799
H -12.2369 26.8281 22.5778
H -13.1584 27.617 21.6721
O 22.6148 2.38836 -18.0615
H 23.3151 2.69557 -18.6372
H 23.0699 1.94477 -17.3457
O -6.31281 -18.637 -21.7872
H -7.20884 -18.7411 -22.1074
H -6.26591 -17.7261 -21.497
O 27.9113 -21.0527 8.77326
H 27.4969 -21.8761 9.0313
H 27.9314 -21.0836 7.81677
O 4.92674 9.44917 -0.137323
H 4.06843 9.46118 0.286228
H 5.14075 10.3723 -0.272183
O -13.3253 11.1495 2.04263
H -12.5 10.8579 1.65513
H -13.411 12.0619 1.76634
O -2.51173 20.4094 -3.34156
H -1.96401 19.6405 -3.49982
H -3.40572 20.1024 -3.49238
O -0.115085 -11.6345 9.77273
H -0.562383 -11.4113 8.95644
H -0.411218 -12.5223 9.97365
O 23.9462 10.5949 -4.39371
H 24.2328 10.077 -5.14598
H 24.1807 10.0633 -3.63304
O -1.21426 8.19506 8.4832
H -1.18883 7.54656 9.18679
H -0.985508 7.70284 7.69477
O -8.57996 5.63114 26.2676
H -9.27823 4.98375 26.3653
H -8.91946 6.41681 26.6962
O 28.4461 -16.8617 -23.2409
H 29.0706 -16.5111 -22.6058
H 27.8238 -16.1487 -23.3842
O -22.2029 -5.42085 10.2117
H -21.4012 -5.2857 10.7169
H -22.8023 -4.74455 10.5272
O 25.8003 -8.17335 -13.7266
H 26.4455 -7.46638 -13.7423
H 25.1869 -7.92313 -13.0357
O 9.64156 27.8046 23.1736
H 8.82233 27.3317 23.3202
H 9.41034 28.7264 23.2878
O -1.10341 -5.30558 -22.818
H -0.694409 -4.53837 -22.4176
H -1.86526 -4.95718 -23.2811
O -15.7684 15.1641 -12.0499
H -15.3031 14.3299 -12.1117
H -16.6184 14.9374 -11.6728
O 24.6241 1.82012 -22.292
H 24.0591 2.46291 -21.8632
H 25.4371 1.84058 -21.7872
O 26.8424 2.58087 7.24107
H 26.3505 3.33661 7.56213
H 27.2578 2.8894 6.43579
O 7.00623 -24.5019 29.9531
H 6.51503 -24.5045 29.1316
H 7.18999 -25.4252 -29.8741
O 24.132 26.3634 -8.78065
H 24.0785 27.2431 -8.40717
H 24.5505 25.8381 -8.09856
O 26.0846 -12.2034 -7.81239
H 26.2364 -13.1313 -7.9916
H 26.7314 -11.7462 -8.34991
O 27.602 23.352 -4.75034
H 28.4096 22.9065 -4.49429
H 26.9027 22.8099 -4.38521
O -6.74591 -16.4218 9.40865
H -6.59317 -15.5227 9.6995
H -7.41935 -16.7548 10.0018
O 3.44177 -7.34986 -7.01692
H 3.60127 -6.4257 -6.82525
H 2.52941 -7.38126 -7.30475
O 13.4608 11.4132 -6.51451
H 14.0531 11.965 -7.02538
H 13.2429 10.6884 -7.10043
O -5.7199 -11.3409 15.4751
H -5.00873 -11.6821 14.9328
H -5.47616 -11.5805 16.3692
O 6.28851 4.02831 15.6099
H 6.12245 4.85354 16.0656
H 6.09568 4.21815 14.6918
O 15.8583 3.84037 18.4235
H 16.7164 4.22081 18.6108
H 16.038 3.14008 17.7962
O -15.6477 22.9785 9.53705
H -16.4798 23.3676 9.80622
H -15.5756 22.1802 10.0604
O -16.0342 -22.2778 -7.67069
H -16.9556 -22.0186 -7.66597
H -15.9861 -23.0045 -7.04951
O -27.0522 -24.9716 -13.9036
H -26.8155 -24.6218 -13.0446
H -27.9907 -24.8002 -13.9822
O -1.31613 2.1477 5.0386
H -0.427964 2.39923 5.29185
H -1.66691 2.91988 4.59484
O 18.5844 -9.87679 6.32407
H 19.307 -10.2569 6.82372
H 17.8436 -10.459 6.49279
O 21.1337 -27.9576 17.054
H 20.3178 -27.6064 17.4106
H 21.7859 -27.7864 17.7334
O -29.2326 -10.5234 -16.9038
H -29.5558 -9.62672 -16.9915
H -28.9433 -10.5863 -15.9935
O -4.6846 -2.63735 17.8074
H -4.1822 -2.54517 18.6169
H -4.10083 -3.11159 17.2153
O -29.8178 -16.7525 20.8614
H 29.7197 -15.9982 20.4962
H 29.8943 -17.4925 20.3268
O 13.1424 18.0167 -25.1882
H 12.6553 18.597 -25.7732
H 13.9797 17.8774 -25.6307
O -10.0818 5.2389 23.3797
H -10.4837 5.21134 24.248
H -10.7834 5.53536 22.7999
O -22.0369 17.0341 -11.6222
H -22.7663 17.515 -12.0131
H -21.6424 17.6537 -11.0084
O -24.5675 1.56887 10.9187
H -24.7797 1.00647 10.1738
H -25.4044 1.95919 11.1707
O -20.1568 -8.54445 0.260453
H -20.2417 -7.87053 0.934885
H -20.7158 -8.24019 -0.45454
O 0.117209 4.00144 16.0718
H -0.474604 4.73122 15.889
H 0.0953204 3.90743 17.0241
O 10.9982 -9.66271 -19.0108
H 11.0725 -10.2532 -18.2612
H 11.897 -9.385 -19.1875
O 26.5679 -23.0149 -3.80239
H 26.7485 -22.4978 -3.0174
H 25.6701 -23.325 -3.68413
O -2.50803 11.563 1.36659
H -2.87715 11.895 0.548221
H -1.69201 11.1359 1.10594
O 7.09693 6.09644 -29.0082
H 6.40411 6.75185 -29.0898
H 7.90784 6.58598 -29.1461
O -28.2987 5.08001 -16.5021
H -27.688 5.10559 -15.7655
H -27.8736 4.51441 -17.1468
O 10.4893 -3.00238 10.7247
H 10.2152 -2.90002 11.6361
H 10.3933 -2.1287 10.3456
O -15.3477 5.39904 -15.352
H -14.5867 4.86147 -15.1326
H -15.5952 5.8135 -14.5255
O -6.34885 3.33167 -28.9679
H -6.96026 2.5955 -28.9895
H -5.86095 3.26255 -29.7885
O -16.2209 29.9597 23.5022
H -16.5738 -29.9392 22.6181
H -16.2108 29.014 23.6497
O -7.00629 -12.4892 -6.58152
H -6.9577 -13.4379 -6.6991
H -7.63138 -12.3676 -5.86687
O -24.5399 -14.8014 -17.1491
H -23.924 -14.3562 -17.731
H -23.9851 -15.2665 -16.523
O -21.6865 27.4695 27.3789
H -22.3106 27.644 28.0834
H -20.8496 27.7904 27.7148
O -10.8751 22.4778 -12.2845
H -9.92119 22.4104 -12.3256
H -11.0456 22.9928 -11.4959
O -17.3695 12.9893 7.97263
H -17.9985 13.2164 8.6575
H -17.8179 13.2033 7.15447
O -19.5744 3.30637 28.4915
H -19.0676 3.89938 29.0462
H -19.2747 2.43157 28.7388
O -19.0174 -0.682286 12.2815
H -19.7233 -0.681644 12.928
H -18.4294 -1.3808 12.5689
O -16.0707 14.8657 -24.2167
H -15.9736 14.8443 -25.1687
H -15.8166 15.7549 -23.9695
O -23.6566 5.42059 -7.85671
H -23.2281 6.00985 -8.47747
H -24.0067 4.7139 -8.39917
O 23.2568 24.6476 5.99519
H 22.6952 24.0331 6.46754
H 23.6098 24.1381 5.26578
O -22.7957 -5.66023 13.7559
H -22.0269 -6.17258 13.5055
H -22.4707 -5.04559 14.4137
O 7.53603 6.08514 10.664
H 7.62746 5.80712 9.75259
H 8.09299 6.86033 10.7354
O -27.0771 -19.2986 19.8659
H -26.6577 -20.1035 20.17
H -27.4037 -18.8821 20.6635
O -11.3493 -3.16429 4.24857
H -10.6194 -2.97943 4.83969
H -11.524 -4.09785 4.36763
O 19.3701 -18.6391 14.9163
H 18.8829 -19.4003 15.2317
H 19.8321 -18.3131 15.6886
O 15.9803 17.6188 22.973
H 16.1718 17.5783 22.0361
H 16.7822 17.9617 23.3674
O 8.69513 25.5115 14.0494
H 8.74584 25.9563 14.8955
H 9.18632 26.0754 13.452
O -14.6028 -15.6483 -21.0626
H -14.705 -14.9534 -20.4123
H -14.786 -15.2222 -21.8999
O -0.312365 13.3067 -0.432036
H -1.17634 13.5381 -0.091143
H -0.0807722 14.0323 -1.01167
O 0.662854 -12.1274 -18.6733
H 1.20934 -11.7358 -17.9919
H 1.13344 -12.9195 -18.9326
O -24.1431 11.4855 -2.12238
H -23.5008 10.7919 -2.27257
H -24.2232 11.5363 -1.16989
O -21.6122 -0.66114 2.31236
H -22.2462 -0.535813 1.60628
H -21.0279 0.09427 2.24718
O -10.4019 10.7203 -12.5888
H -11.1726 10.2489 -12.2724
H -10.0552 11.1613 -11.8132
O 25.6427 -12.6748 8.28644
H 25.7566 -12.0407 8.9944
H 24.8973 -13.2091 8.56041
O -21.9178 11.5679 -20.6884
H -22.0644 11.299 -21.5953
H -21.4656 12.4087 -20.7575
O 4.11129 16.8567 -26.8886
H 3.76466 17.7058 -27.1626
H 3.96943 16.8337 -25.9422
O -15.7457 -25.0498 -6.94531
H -16.636 -25.3018 -7.19017
H -15.7474 -25.062 -5.98819
O -5.57909 14.6042 27.633
H -5.29637 13.7517 27.3019
H -6.1172 14.9682 26.93
O -19.3949 -18.5159 22.4867
H -18.6315 -18.2014 22.971
H -19.7474 -17.7345 22.0607
O 13.8827 -17.7533 18.625
H 14.2199 -17.3606 17.8199
H 14.5864 -17.6347 19.2629
O -13.7417 -9.68044 -18.1409
H -13.5373 -8.74882 -18.06
H -13.3187 -9.949 -18.9565
O 2.03023 0.220185 18.6586
H 1.11387 0.109368 18.912
H 2.31305 -0.654636 18.3922
O 23.481 8.42681 0.498633
H 23.8551 9.11253 1.05189
H 23.1322 8.89439 -0.26026
O 23.5897 -19.8297 -28.4319
H 23.2687 -20.1015 -27.5721
H 23.6771 -18.8788 -28.3659
O 0.0540233 -27.6109 -12.9273
H -0.025094 -27.5693 -11.9743
H -0.778343 -27.2678 -13.2524
O -9.55652 29.4815 9.29084
H -9.4199 28.5353 9.24395
H -9.68329 29.7511 8.38117
O 23.4621 28.6807 -7.87809
H 22.9693 28.9778 -8.64308
H 24.2791 29.1784 -7.91083
O -18.8302 -25.5324 28.1304
H -18.0261 -25.064 27.9064
H -19.2381 -24.9973 28.8111
O -3.85397 26.5102 -23.8248
H -3.75558 27.0825 -23.0638
H -4.72283 26.7165 -24.1694
O 1.63454 -2.48923 -24.5794
H 2.42095 -2.11353 -24.1837
H 1.92424 -3.3273 -24.9399
O -3.9908 -21.9134 6.18343
H -3.57375 -21.2601 5.62167
H -4.57129 -22.3986 5.59711
O -23.5218 -5.22185 18.4509
H -23.8747 -4.42092 18.8385
H -24.0355 -5.34893 17.6532
O 2.07468 12.1032 -10.5561
H 2.05891 11.1463 -10.5383
H 2.99708 12.3303 -10.4384
O -11.3425 21.3948 -23.9637
H -10.9268 21.1844 -23.1275
H -11.0429 22.2814 -24.1643
O -25.4807 6.96747 15.9193
H -24.6641 6.90674 15.4235
H -25.8509 6.08562 15.8808
O 19.4086 -9.1884 3.58988
H 19.2908 -9.29137 4.53421
H 19.2622 -10.0644 3.23284
O -18.1272 -19.6145 -17.82
H -17.9631 -18.7046 -17.5723
H -18.0754 -20.1004 -16.9969
O -7.09697 -4.4501 15.0043
H -7.78289 -4.64155 15.6439
H -7.27533 -3.5529 14.7224
O 25.8805 -0.797163 -15.1359
H 25.0654 -1.07494 -15.5538
H 25.7041 0.0940907 -14.8346
O -8.89827 -8.83344 19.5423
H -8.90496 -9.07278 20.469
H -8.67197 -7.90339 19.5362
O -5.31492 -3.2267 28.496
H -4.62973 -2.60497 28.2506
H -5.54876 -2.98482 29.3921
O -8.95344 -20.825 -5.45029
H -8.89669 -21.4521 -4.72934
H -8.64476 -20 -5.07565
O 7.32452 16.1795 14.2406
H 7.58965 16.9019 13.6713
H 6.42452 15.9854 13.9787
O -3.80583 7.79452 -23.1241
H -3.96503 6.85718 -23.2349
H -3.55043 8.09913 -23.9948
O 16.0117 8.25755 -10.8691
H 16.1468 8.05371 -11.7945
H 16.8737 8.14179 -10.4694
O -25.1363 -21.9105 -5.45335
H -24.5551 -22.6674 -5.52835
H -25.519 -21.9875 -4.57938
O -19.322 -4.28289 10.6264
H -19.3734 -4.68738 9.76042
H -19.5673 -3.36939 10.4796
O 27.6614 3.4768 29.1696
H 27.9674 2.56985 29.1656
H 27.336 3.62423 28.2816
O 2.24621 19.7309 -11.2676
H 1.52017 19.2649 -11.6823
H 1.8718 20.0924 -10.4643
O -11.7795 -29.4653 -23.0557
H -12.456 -28.8993 -22.6839
H -11.7659 -29.2432 -23.9867
O 14.6788 23.5236 0.152655
H 13.7454 23.6563 0.318194
H 15.0144 23.1415 0.963599
O -29.534 23.9069 -11.3585
H 29.8682 24.6537 -11.3234
H -28.7119 24.2727 -11.6848
O 21.9763 16.5128 1.96081
H 22.8094 16.1831 1.62396
H 22.0101 17.4563 1.80267
O 13.3954 -23.0805 -2.33941
H 14.3419 -23.0392 -2.47605
H 13.1185 -22.1651 -2.30021
O -0.109641 7.71325 5.24101
H 0.441792 8.40737 4.87998
H 0.32622 6.90134 4.98203
O -16.6743 23.1371 13.8239
H -16.5334 22.7331 12.9677
H -15.7994 23.3942 14.1149
O 22.4268 -24.6496 -10.9828
H 23.3142 -24.487 -10.6628
H 22.1256 -23.7976 -11.2983
O -6.40996 29.7775 22.422
H -7.0539 -29.7874 21.8632
H -6.71914 29.9371 23.3137
O -5.16199 17.5127 -0.364889
H -4.82608 17.0727 0.416016
H -5.76503 18.1747 -0.026687
O 2.45768 6.57771 0.0262357
H 3.31485 6.2214 0.259739
H 2.64417 7.22607 -0.65279
O 4.94954 20.7279 5.63395
H 4.14339 20.9977 5.19396
H 5.13269 21.4342 6.25348
O -4.99169 -29.5133 0.396294
H -5.85535 -29.5085 0.808957
H -4.41811 -29.0901 1.03517
O -3.24308 10.1306 -4.65491
H -2.30764 10.2668 -4.50445
H -3.45365 10.7041 -5.39174
O -21.1931 3.89846 -9.86145
H -21.071 3.51783 -10.7312
H -22.1123 3.73149 -9.65331
O 16.0387 15.536 -19.1299
H 16.9496 15.3073 -19.3149
H 16.0894 16.3812 -18.6833
O 29.1764 -4.30631 23.0041
H -29.9424 -4.22335 22.6395
H 29.3107 -4.68672 23.8721
O 24.4293 -3.83876 11.7429
H 24.0681 -3.83682 10.8565
H 24.6824 -4.74894 11.8969
O -26.3953 -21.552 -26.0578
H -26.442 -21.7341 -25.1192
H -25.9298 -20.7178 -26.1176
O -0.449879 13.7139 -6.11149
H -1.40156 13.6538 -6.02823
H -0.279226 13.549 -7.03882
O 20.483 26.0272 -26.9641
H 20.4705 26.9512 -26.7146
H 21.1558 25.637 -26.4061
O -20.2794 -16.2549 5.02504
H -20.8311 -15.4893 4.8649
H -20.0941 -16.2251 5.96366
O 21.196 -6.53082 20.1724
H 22.049 -6.50742 20.6062
H 21.2556 -7.26863 19.5655
O -24.5613 -28.5748 -28.0971
H -25.0882 -29.3735 -28.1256
H -23.8114 -28.8014 -27.5471
O -20.9589 1.04331 -22.7261
H -21.1612 0.127237 -22.5361
H -20.0514 1.15259 -22.442
O -15.51 -19.4802 -25.9881
H -15.3373 -20.4201 -26.0425
H -14.7141 -19.07 -26.3267
O -18.8637 23.5622 -21.8459
H -19.4276 23.0252 -21.2893
H -18.5163 22.9514 -22.4959
O 16.1258 27.0273 16.141
H 15.211 26.9071 16.3956
H 16.2119 27.9689 15.9922
O -19.1258 -26.6524 -22.3111
H -19.6171 -26.1132 -21.6913
H -19.4197 -26.356 -23.1725
O -5.08286 3.53566 5.51636
H -5.36859 2.95815 4.8085
H -4.17962 3.76036 5.29296
O -7.25141 18.1196 -6.24746
H -8.03309 17.6913 -6.59639
H -7.30835 17.9888 -5.30096
O 29.7909 25.668 4.59888
H -29.9292 25.6175 5.51285
H 29.1382 24.9737 4.50908
O -9.54032 -6.68797 16.8847
H -10.4519 -6.79291 16.6124
H -9.5872 -6.15949 17.6814
O 3.09813 -29.3638 15.5516
H 3.82996 -29.5318 14.958
H 3.50926 -29.2136 16.4029
O 12.9209 15.3469 -24.459
H 13.7972 15.0329 -24.6819
H 13.0153 16.2974 -24.3963
O 29.9843 -15.7041 -14.956
H -29.9547 -15.5503 -15.8988
H -29.2965 -16.3058 -14.764
O 6.437 12.3555 -29.6052
H 7.32922 12.5122 -29.2959
H 5.99413 13.1971 -29.4966
O -6.79565 -11.5691 8.56921
H -6.12819 -10.8861 8.63397
H -6.43437 -12.3053 9.06293
O -27.0908 6.87194 20.7775
H -26.3283 6.96922 20.2071
H -27.3506 7.76931 20.9861
O 8.08161 -11.5643 -23.456
H 8.37022 -11.1735 -22.6313
H 7.9967 -10.8232 -24.0559
O 15.3657 19.8674 -14.6216
H 16.0077 19.2649 -14.246
H 15.4177 20.648 -14.0701
O -9.91571 25.3068 25.8232
H -9.02168 25.6389 25.9046
H -9.818 24.4578 25.3919
O -19.2223 -9.93872 10.9174
H -19.2938 -9.06847 10.5252
H -18.3229 -10.2109 10.7354
O 9.40215 -25.4971 -8.85939
H 9.12683 -24.7328 -9.36563
H 10.1563 -25.8425 -9.33717
O -28.7051 -23.7169 -18.3492
H -29.1664 -22.9047 -18.1399
H -29.3962 -24.3763 -18.4107
O -14.2748 28.0162 -20.0578
H -14.4916 27.2775 -19.489
H -13.3195 28.0685 -20.0296
O -14.5662 -20.7747 23.5337
H -14.0017 -21.4275 23.9477
H -14.525 -20.9797 22.5996
O 28.7065 -21.6827 25.0965
H 28.7239 -20.8624 24.6037
H 28.2326 -22.2925 24.531
O -6.65951 -26.3887 -16.9143
H -5.79275 -26.1093 -16.6195
H -6.9807 -26.955 -16.2126
O 10.4935 11.1313 11.6776
H 9.72638 10.6655 12.0105
H 11.0172 11.3188 12.4565
O 15.8534 14.6238 -6.68315
H 15.4136 14.2902 -7.46512
H 15.2387 14.4513 -5.97
O -22.4527 10.3683 -18.1612
H -21.974 10.6113 -18.9537
H -22.1732 11.008 -17.5063
O 24.8428 22.2242 -26.4056
H 25.1571 22.5596 -25.5659
H 25.2571 21.3656 -26.4913
O 22.0939 14.1798 -17.168
H 21.2038 14.4987 -17.3173
H 22.0235 13.6279 -16.3892
O 0.438243 18.2749 -0.403728
H 0.817543 17.4385 -0.133894
H 0.230853 18.7205 0.417655
O 22.9979 -6.70838 -20.9176
H 23.4071 -5.94658 -20.5071
H 23.7266 -7.30003 -21.1054
O -5.7587 -20.2101 27.0635
H -5.42544 -20.8762 26.4623
H -6.61813 -20.5362 27.3305
O 22.1189 -5.68443 28.3874
H 21.5135 -5.552 29.1169
H 22.5527 -6.51486 28.5833
O -29.3057 19.4978 21.7982
H -29.9665 19.9551 22.3182
H -29.4236 18.5739 22.019
O 18.0754 -17.5245 17.228
H 17.1843 -17.3514 16.9244
H 18.2234 -18.4479 17.0239
O -20.7255 -13.6923 28.0606
H -21.5536 -13.2637 27.8448
H -20.9042 -14.6267 27.9549
O -12.5176 -23.0446 12.1699
H -12.9341 -22.5966 12.9062
H -13.2087 -23.1178 11.5116
O -8.73923 -5.77611 19.4694
H -9.20967 -6.02883 20.2637
H -8.81599 -4.82251 19.4381
O -14.0929 5.90307 26.4424
H -13.9152 5.33365 27.191
H -13.2415 6.28 26.2202
O -26.062 -11.1132 -28.9181
H -26.6547 -11.2631 -29.6546
H -26.6399 -11.0088 -28.1623
O -18.9199 24.9649 -15.6499
H -18.6285 24.0586 -15.551
H -18.4386 25.2902 -16.4107
O 21.0247 21.3366 -22.3334
H 20.499 21.4047 -21.5364
H 21.1425 22.2419 -22.6213
O -15.9394 18.3939 16.5531
H -16.4775 18.3443 17.3432
H -16.5395 18.6997 15.873
O 16.8617 -5.12693 26.2783
H 16.0921 -5.2433 25.7211
H 16.6557 -5.61327 27.0766
O -9.78571 -1.8982 23.9626
H -9.02756 -2.47656 24.0459
H -9.97897 -1.88935 23.0252
O 16.399 -23.4245 17.9004
H 15.5894 -23.6458 17.4402
H 16.1687 -23.473 18.8282
O 28.2062 4.65829 -15.9164
H 29.1128 4.93039 -16.0588
H 28.2157 4.23004 -15.0604
O 22.379 22.5565 -8.73619
H 23.2056 22.61 -8.25649
H 21.8493 21.9379 -8.23319
O -18.4002 -12.2159 -19.1736
H -18.5515 -11.2707 -19.1749
H -18.4945 -12.4727 -18.2563
O -19.5973 8.62595 -23.2412
H -18.7682 8.65207 -23.7187
H -20.2368 8.99526 -23.8502
O -5.62369 15.5354 -13.1652
H -5.76147 15.593 -12.2198
H -4.78419 15.0851 -13.2584
O 23.7529 -24.9541 7.54506
H 24.3836 -25.5059 7.08241
H 24.2463 -24.1669 7.77547
O -17.2757 24.3793 -26.0078
H -18.083 24.7775 -25.6822
H -16.5991 25.0345 -25.837
O 25.4108 0.1461 5.07443
H 24.7106 -0.0974793 4.46886
H 25.3853 1.10266 5.09839
O -11.397 9.02703 17.5898
H -11.1297 9.88342 17.9235
H -10.6912 8.76987 16.9964
O 15.1828 -7.86604 -20.9862
H 16.0731 -7.94836 -20.6444
H 15.2584 -7.2367 -21.7035
O -5.80785 -19.2932 9.1691
H -5.29425 -18.4875 9.22725
H -5.98268 -19.3994 8.23401
O 0.253235 -20.109 23.6108
H 0.187559 -20.5084 22.7433
H -0.652356 -19.922 23.858
O -20.5935 -3.21797 -20.5664
H -20.8342 -2.42374 -21.0434
H -21.2634 -3.30266 -19.8879
O -10.9631 -25.7881 14.1516
H -10.2098 -25.701 13.5676
H -11.6305 -25.2185 13.769
O 1.67075 -11.811 21.6757
H 2.58731 -12.0858 21.6513
H 1.68688 -10.9604 22.1145
O 17.427 27.1188 4.74555
H 17.6243 27.7492 4.05281
H 16.523 27.3111 4.9947
O -13.6372 11.8636 9.38525
H -13.6734 11.4813 8.50847
H -13.3094 12.7521 9.24627
O -17.1992 8.99351 7.08015
H -17.2669 9.94137 6.96522
H -18.0297 8.74081 7.48357
O -2.65061 -17.3118 26.5257
H -2.38405 -17.3841 25.6092
H -2.60198 -18.2071 26.8611
O 23.4604 -25.142 28.6474
H 23.04 -25.1112 29.5068
H 23.4762 -26.0719 28.4211
O 18.4638 -21.957 -25.5321
H 18.0439 -21.3327 -24.9404
H 18.2059 -21.6686 -26.4076
O 19.1005 -19.3755 -20.6105
H 19.4239 -18.9005 -21.376
H 19.5862 -20.2003 -20.617
O -18.8709 3.83548 12.5452
H -19.3856 3.2964 13.1458
H -18.2469 4.29326 13.1085
O 11.6326 -26.6925 6.60458
H 12.0665 -27.4719 6.25746
H 12.3295 -26.2058 7.0447
O -22.7651 -0.228575 24.583
H -22.6303 -1.16253 24.4224
H -23.6923 -0.155317 24.8092
O -27.0842 1.57477 -22.2611
H -26.5416 2.33533 -22.0529
H -27.7909 1.92535 -22.8032
O -17.9435 4.29343 9.38506
H -18.3817 3.74831 10.0385
H -17.3892 4.88261 9.89673
O -22.055 -0.201174 -18.8425
H -21.6205 0.323642 -18.1702
H -22.8826 0.252208 -19.0032
O -2.8316 -24.5192 -22.568
H -3.71114 -24.4391 -22.1989
H -2.97389 -24.8303 -23.4619
O -3.49402 27.2521 -19.0828
H -4.38178 26.9067 -18.9888
H -2.94654 26.6457 -18.584
O 12.1643 -7.81401 23.4393
H 12.7941 -8.13139 22.7921
H 12.359 -6.88084 23.5261
O -14.1624 -23.7735 -22.9257
H -13.631 -23.5125 -22.1735
H -14.8879 -23.1491 -22.9351
O 7.30556 15.896 -5.22684
H 7.11347 16.8072 -5.00536
H 6.62454 15.392 -4.78134
O -4.13773 16.8707 15.3794
H -4.66063 16.6203 14.6177
H -4.29887 16.1776 16.0195
O -2.70853 -13.2401 -27.0701
H -3.58598 -13.5177 -26.8069
H -2.80744 -12.9634 -27.9811
O 8.50276 -8.23135 -17.1218
H 9.24813 -7.86344 -17.5964
H 8.0135 -7.46816 -16.8146
O 9.89048 -7.77215 3.52439
H 10.0262 -6.96848 3.02244
H 9.58643 -8.40996 2.87865
O 18.8068 -4.34732 0.618254
H 18.8418 -5.14363 1.14826
H 18.4668 -3.67829 1.21242
O 22.9479 7.46649 28.186
H 23.0544 6.6926 27.6329
H 23.6778 7.42234 28.8037
O -25.208 -26.9909 -3.38173
H -24.4698 -27.5898 -3.49383
H -25.9278 -27.4053 -3.85758
O -19.9153 -29.462 -22.7112
H -19.479 -28.7027 -23.0976
H -19.543 -29.531 -21.8321
O 25.6478 12.4268 -7.06435
H 25.2741 11.5805 -7.30989
H 25.6461 12.9344 -7.87588
O 7.14036 23.8663 -13.4105
H 6.74164 24.7349 -13.3579
H 6.44106 23.3007 -13.738
O -10.2984 -26.0442 19.904
H -9.43419 -26.4198 20.0723
H -10.4258 -26.1485 18.9611
O 17.8952 24.8652 -10.6746
H 18.5026 25.4069 -10.1709
H 17.2471 24.5722 -10.034
O -26.6409 4.89278 -19.0857
H -26.7913 5.6763 -19.6145
H -25.9114 5.12696 -18.5118
O -27.5549 -13.7235 -29.4741
H -27.6958 -12.8359 -29.1445
H -28.4326 -14.0451 -29.6803
O 15.606 26.8858 24.1185
H 15.7735 26.0817 24.61
H 15.5191 26.5978 23.2098
O -9.78138 2.0905 -7.51768
H -9.16937 2.20953 -8.24398
H -9.73873 2.91339 -7.03059
O -0.216121 -28.7971 -21.1482
H 0.680134 -29.0105 -20.8885
H -0.305228 -29.1648 -22.0274
O 12.0895 15.8223 27.7667
H 12.5176 16.6333 28.0407
H 12.683 15.4451 27.1173
O -12.7443 23.0024 6.34931
H -12.9824 23.9252 6.43881
H -13.406 22.5335 6.85771
O 1.66619 -0.956624 -7.78956
H 1.28796 -1.2799 -8.60728
H 1.10852 -1.32579 -7.10475
O 13.2761 -12.9004 8.38965
H 12.3846 -12.5524 8.40863
H 13.2812 -13.5842 9.05944
O 13.2542 -27.485 26.9321
H 12.5991 -26.8967 27.3077
H 14.0184 -27.3872 27.5001
O -6.64536 14.322 10.7451
H -6.43666 13.411 10.5383
H -7.02758 14.6695 9.93932
O -17.1437 -19.4516 -28.846
H -17.8287 -19.8917 -29.3494
H -16.9884 -20.0275 -28.0974
O -18.9193 -21.6003 -2.20399
H -19.3713 -20.8997 -2.67416
H -19.6156 -22.0676 -1.74244
O 27.5336 -11.9286 23.2784
H 28.1559 -11.204 23.3413
H 27.4281 -12.2334 24.1796
O 19.6379 -22.7108 -0.278449
H 19.7453 -21.8932 -0.764568
H 18.7242 -22.7023 0.00663722
O -26.3394 6.80658 8.34837
H -26.6736 6.33176 9.10936
H -25.5023 6.38609 8.15173
O 24.4656 -0.451268 11.9831
H 24.3232 0.351756 11.482
H 25.4168 -0.51496 12.0691
O -21.7799 -27.9684 -14.4292
H -20.8767 -28.2078 -14.2215
H -22.069 -28.6376 -15.0495
O 21.0346 23.472 16.0006
H 21.9796 23.5678 15.8819
H 20.7138 24.3679 16.1046
O -8.578 16.3638 13.0805
H -7.62389 16.3029 13.1273
H -8.76155 17.3017 13.1351
O 21.1506 12.2625 -2.8706
H 21.9492 12.785 -2.79627
H 21.3439 11.6251 -3.558
O 18.5861 13.6984 -12.9167
H 18.0463 13.8442 -12.1398
H 18.9303 12.812 -12.8069
O 22.9942 -1.16715 -25.7259
H 22.6164 -1.83574 -26.2973
H 22.2793 -0.921466 -25.1387
O 3.75201 28.018 24.7937
H 4.26369 28.5756 25.3798
H 3.59636 27.2192 25.2976
O -16.3078 14.2434 -29.865
H -16.8928 14.9354 29.8267
H -16.7127 13.9295 -29.0564
O -26.3768 -11.7047 1.88759
H -26.271 -12.153 1.04851
H -27.2572 -11.9431 2.17776
O 18.6019 -28.2206 27.9092
H 19.2323 -28.8082 28.3258
H 18.6617 -27.4086 28.4125
O -14.6926 14.8389 21.7597
H -14.7937 15.607 21.1975
H -14.6616 14.0996 21.1525
O -27.9382 -29.7911 -7.65072
H -27.5313 -29.8471 -8.51534
H -28.1958 29.3096 -7.44792
O 24.1322 -17.7452 11.3875
H 24.4047 -17.9583 10.495
H 23.2686 -18.1481 11.4775
O 10.9782 -22.068 2.48112
H 11.3676 -21.5151 1.80366
H 11.5428 -21.9458 3.24439
O 1.00859 2.01247 -3.15984
H 0.468008 1.77626 -3.91364
H 0.806482 1.34741 -2.50175
O -20.5759 7.20969 -16.1286
H -20.6178 6.25415 -16.1662
H -20.2133 7.46757 -16.9761
O 4.84574 -21.1344 0.0675084
H 5.7478 -21.4167 0.218552
H 4.7935 -20.2698 0.474704
O -21.7559 15.0488 0.543565
H -22.2422 15.5179 -0.134483
H -22.4007 14.8857 1.23191
O -5.05006 18.3949 -18.3038
H -5.89313 18.8431 -18.2361
H -5.10538 17.9019 -19.1224
O 1.66061 -18.491 -13.9513
H 2.51679 -18.6947 -14.3277
H 1.83294 -17.7802 -13.3338
O -16.4729 5.6728 21.8084
H -16.3363 6.29572 21.0946
H -15.6916 5.11993 21.7973
O -11.025 3.05137 17.4975
H -10.2087 2.56249 17.3931
H -11.6444 2.4119 17.8491
O 28.3848 16.2866 1.36011
H 28.0526 16.6419 0.535719
H 28.6329 15.3861 1.15074
O -14.6573 7.72229 -6.81484
H -14.5424 6.87835 -7.25161
H -15.5851 7.74687 -6.58062
O 28.0968 -5.24795 25.2706
H 27.7637 -5.24499 26.168
H 27.3767 -5.60141 24.7484
O 11.6507 -25.6319 -27.6733
H 11.0698 -26.3092 -28.0197
H 12.2299 -26.0978 -27.0704
O 10.2068 -12.1633 5.38874
H 10.6001 -11.3125 5.19455
H 9.56944 -12.2987 4.68758
O -27.0926 -25.1418 14.3931
H -26.9805 -24.9947 13.4539
H -27.2811 -26.0772 14.4687
O -21.6092 -17.7102 -18.149
H -22.4437 -18.1505 -18.3099
H -21.1374 -18.2981 -17.5591
O -5.38968 -18.13 0.719346
H -4.9843 -18.8044 0.174253
H -6.29846 -18.4144 0.816742
O 4.3662 -2.48226 27.2048
H 4.50109 -2.73068 26.2903
H 5.24926 -2.41542 27.5681
O -6.89137 26.0288 -24.082
H -6.3601 25.7787 -23.3261
H -7.28192 25.2084 -24.3829
O 12.9845 3.93161 19.9291
H 12.2822 4.55374 19.7397
H 12.8287 3.66191 20.8342
O -0.798731 -17.9405 -5.4114
H -0.652061 -18.4461 -4.61197
H -0.819108 -17.0293 -5.11877
O 20.38 26.7443 -20.7739
H 20.2399 26.6245 -21.7132
H 21.1295 26.1851 -20.5697
O 21.8 19.2552 1.18548
H 22.0202 20.1337 0.875623
H 21.5907 18.7656 0.390041
O 0.935424 28.9936 -13.8657
H 0.408985 29.7648 -13.6551
H 1.76725 29.349 -14.1787
O 4.65663 -13.6679 6.86255
H 5.29808 -14.3028 6.54354
H 4.58095 -13.8529 7.79865
O 23.6931 -4.39548 -19.959
H 24.3284 -3.74546 -19.6588
H 22.9518 -3.87866 -20.2745
O 21.2707 0.207801 27.9075
H 20.9331 0.32441 27.0195
H 22.1787 -0.0690703 27.7847
O -29.0471 26.0213 25.7335
H -28.5494 26.8345 25.6483
H -29.9578 26.3047 25.814
O 11.0581 23.1195 -11.3213
H 11.8737 22.7464 -11.6556
H 10.4736 23.1365 -12.079
O -13.0102 -18.8071 14.6575
H -13.1738 -18.3611 13.8266
H -12.0848 -19.0494 14.6217
O 19.9205 -11.487 -5.67647
H 20.5901 -12.1301 -5.90959
H 19.2979 -11.9737 -5.13642
O -14.8284 2.53935 -0.769171
H -13.9008 2.43285 -0.980199
H -15.1295 3.23412 -1.35472
O 25.3769 -27.14 14.1734
H 24.98 -26.5893 13.4984
H 25.8098 -27.8415 13.6869
O -16.1188 12.3785 -0.0346083
H -16.8121 12.4702 -0.688189
H -15.4431 12.9966 -0.313293
O 28.9285 -29.0445 6.65533
H 28.2697 -29.4835 7.19334
H 29.6664 -29.6539 6.63477
O 20.6635 2.52226 -4.81873
H 20.5419 3.36373 -5.25847
H 21.593 2.50276 -4.59078
O 0.819065 -26.6154 -22.4147
H 0.843261 -25.9751 -21.7035
H 0.149848 -27.2455 -22.1476
O -3.76351 24.9232 17.1102
H -4.23903 25.7509 17.1812
H -3.30237 24.9824 16.2735
O 4.13353 -1.45087 -25.6087
H 4.64812 -0.645778 -25.6657
H 4.7795 -2.13726 -25.4418
O -13.2047 -27.6753 4.79723
H -14.014 -27.2871 5.1298
H -13.4945 -28.3078 4.13979
O 5.55694 10.3427 27.3393
H 5.29253 10.9357 26.636
H 5.02815 10.6109 28.0908
O 22.2305 -23.5007 15.3825
H 21.6337 -24.2192 15.592
H 22.4168 -23.6078 14.4497
O -24.3416 -0.0478922 -20.6533
H -24.9022 -0.671068 -21.1155
H -24.5996 0.807528 -20.9967
O -27.0701 -5.59967 11.0568
H -26.6073 -5.91748 11.8321
H -27.7848 -5.06686 11.4055
O 22.6827 5.68457 -4.91963
H 22.0189 5.43052 -4.27847
H 22.7043 4.9587 -5.54323
O -1.78593 6.84765 -21.8255
H -2.54152 7.33575 -22.1527
H -1.8382 6.93424 -20.8736
O -28.8284 7.06769 13.391
H -28.6034 6.23296 13.8019
H -28.4231 7.72852 13.9524
O 0.475472 0.0464973 -1.66086
H 1.06984 -0.362473 -1.03181
H -0.108343 0.583604 -1.12522
O -28.3156 19.0996 -23.7873
H -28.4153 18.6806 -24.6422
H -28.8736 19.876 -23.834
O -12.8107 -26.931 -22.0906
H -13.3595 -26.2772 -21.6575
H -11.9734 -26.8853 -21.629
O -18.4317 -15.459 26.7471
H -19.0624 -15.7791 27.392
H -18.0368 -16.2516 26.3837
O 27.532 -12.9731 -14.3228
H 27.4705 -12.5589 -15.1836
H 27.2918 -12.2816 -13.7061
O 20.7761 -10.1924 28.5984
H 19.8296 -10.2797 28.4849
H 21.0632 -11.0567 28.8932
O 11.2721 25.6362 9.50975
H 11.2124 26.4731 9.04897
H 10.3869 25.4796 9.83864
O 25.4262 23.603 29.7064
H 25.2871 23.0122 28.9662
H 26.3716 23.7525 29.7198
O -15.1095 -14.5402 -18.3871
H -15.9149 -15.0375 -18.2448
H -15.3885 -13.7663 -18.8764
O 18.9819 26.6082 23.369
H 18.6175 25.7233 23.3868
H 18.2574 27.1603 23.0747
O 26.4107 -13.1408 25.4472
H 25.895 -13.8709 25.7899
H 25.7593 -12.5073 25.1463
O -14.8029 1.76365 -12.0372
H -14.8188 0.894107 -12.437
H -15.7203 1.95516 -11.8426
O 14.7667 23.2915 -25.0342
H 15.4462 23.3429 -24.362
H 14.8825 24.087 -25.5538
O 8.29245 18.0397 16.6859
H 8.4554 17.6562 15.8242
H 9.15716 18.0909 17.0932
O 15.0758 2.21573 29.5758
H 14.5481 2.36884 28.792
H 15.3293 3.09089 29.8691
O 20.4892 -18.8419 5.28539
H 20.2076 -19.3151 4.50241
H 21.371 -18.5342 5.07568
O -16.0361 -11.9938 21.3355
H -16.9832 -12.0426 21.4647
H -15.7963 -12.8539 20.9905
O -0.889016 23.6735 16.4514
H -1.09338 24.3842 17.0592
H -0.0964389 23.2728 16.8084
O -21.1352 13.2956 -3.95218
H -20.9919 12.3499 -3.98979
H -20.6872 13.5746 -3.15363
O -26.6721 3.25241 -28.1314
H -26.889 3.08559 -29.0487
H -25.8382 3.72132 -28.1634
O 3.48413 -17.1922 -17.3569
H 3.43865 -16.5974 -16.6082
H 3.0712 -16.709 -18.0726
O -17.7276 -27.977 26.2273
H -17.7701 -28.6497 25.5477
H -16.7988 -27.9212 26.4519
O 21.0112 28.6679 -26.0179
H 21.8856 28.4705 -26.3537
H 21.1258 28.7258 -25.0694
O -23.8871 15.6514 20.0135
H -23.8855 14.7622 19.6591
H -24.556 16.1108 19.5059
O -1.29813 -21.8481 -21.0562
H -0.585868 -22.3631 -21.4354
H -0.858655 -21.1335 -20.5954
O -24.6019 13.4138 28.8237
H -23.9836 14.0626 29.1597
H -24.0502 12.703 28.4971
O 13.4942 -8.21903 12.7383
H 14.1131 -7.73168 13.2821
H 12.6631 -8.16103 13.2096
O -14.2315 -12.8438 17.5334
H -14.053 -11.9901 17.1389
H -14.4112 -12.6501 18.4534
O -12.2383 19.3259 -20.5661
H -12.0709 18.9307 -19.7105
H -11.5564 19.9909 -20.6608
O -2.78154 22.4615 12.57
H -3.21377 23.2749 12.8304
H -2.41402 22.1142 13.3828
O -15.4835 17.9796 4.89307
H -15.8289 18.2772 5.73471
H -15.8113 17.085 4.80192
O 14.2026 -20.267 6.40309
H 14.3609 -21.0196 6.97299
H 13.4718 -20.5366 5.84682
O 16.8058 -22.072 -21.7901
H 16.9768 -21.2713 -22.2859
H 17.3465 -21.988 -21.0047
O -7.27094 -13.0812 23.9011
H -7.12442 -13.9355 23.4951
H -7.0017 -13.199 24.8121
O 14.2216 -20.3776 -10.6788
H 14.1814 -21.2038 -11.1604
H 15.1231 -20.3287 -10.3608
O 10.2296 6.80806 9.63388
H 9.88803 7.47782 9.04141
H 11.1753 6.81678 9.48631
O 29.1356 -14.0466 10.1794
H 28.5666 -14.7763 9.93442
H 28.5489 -13.2921 10.2324
O 11.5904 18.5054 0.788524
H 12.4847 18.8461 0.807509
H 11.3231 18.4817 1.70733
O 16.1541 -15.1649 -27.0076
H 15.4881 -14.4839 -26.9126
H 16.979 -14.6851 -27.082
O -1.06585 -15.0661 -5.26303
H -1.75992 -14.4626 -5.52815
H -0.577936 -14.5903 -4.59087
O 25.8452 -4.26929 14.6708
H 25.2213 -3.5658 14.8497
H 25.3192 -4.95993 14.2677
O -14.7445 25.8157 -25.9282
H -14.1195 25.8777 -25.2059
H -15.0334 26.7166 -26.0737
O 1.08584 12.6043 25.473
H 1.40931 12.8796 26.3308
H 1.75606 12.0048 25.1448
O -8.18534 -14.7038 0.263849
H -7.99226 -14.3376 -0.599175
H -8.00241 -13.9894 0.874122
O 13.4142 20.7901 -25.3841
H 13.9376 20.1668 -24.8803
H 13.9419 21.5886 -25.4003
O -21.9881 -5.1066 -9.15662
H -21.8273 -6.03377 -9.33198
H -21.5831 -4.64925 -9.89354
O 3.98133 9.95444 8.93912
H 3.28129 10.5242 8.62051
H 4.59147 10.5467 9.37869
O -13.7117 18.077 14.604
H -14.3991 18.1366 15.2674
H -13.0577 18.7202 14.8777
O -9.90196 6.75073 3.16844
H -10.5418 6.08621 3.42391
H -9.65906 6.51803 2.27229
O 16.713 21.2869 -25.2844
H 17.1089 21.4928 -24.4376
H 16.1554 22.0405 -25.4781
O 3.98192 17.1378 -10.6504
H 4.15486 16.5363 -11.3747
H 3.89677 17.9958 -11.0661
O 13.874 2.34546 -2.41285
H 13.9244 2.31875 -3.36836
H 13.548 1.48018 -2.16543
O -8.94267 -21.0569 -13.9268
H -7.99786 -21.0258 -13.7765
H -9.04028 -21.5552 -14.7382
O 5.30477 -16.6343 28.066
H 5.30004 -15.7995 28.5344
H 5.02654 -16.4124 27.1774
O -21.2913 -16.5695 -5.49109
H -21.1374 -15.6867 -5.82775
H -21.0024 -16.5323 -4.57928
O 27.4384 17.9227 17.346
H 28.2051 18.3391 17.7398
H 27.4742 17.0163 17.6514
O -23.0609 25.9419 29.5427
H -23.0481 25.1731 -29.8872
H -22.5712 25.6725 28.7655
O -18.4959 -21.4691 25.6881
H -18.8965 -20.6484 25.9746
H -18.9816 -21.7108 24.8995
O -22.5192 11.3258 20.1653
H -23.0327 12.1325 20.1239
H -22.2086 11.2852 21.0698
O 4.41853 27.2528 22.0083
H 4.32646 27.6607 22.8694
H 5.36204 27.2425 21.8473
O 8.41121 -17.2797 1.51822
H 8.75675 -16.4227 1.26874
H 8.33024 -17.2377 2.47106
O -2.78282 -12.0512 7.82058
H -3.52414 -12.3397 7.28816
H -2.98661 -12.3604 8.70326
O 20.9328 -10.9974 7.69071
H 21.0591 -11.2509 8.60506
H 21.7921 -11.1191 7.28702
O 0.660392 -14.7316 -20.808
H 1.41888 -14.5472 -20.254
H 0.919363 -14.4282 -21.6781
O 6.21736 -12.196 -19.0447
H 6.04605 -13.0711 -19.3926
H 7.02214 -12.2934 -18.5357
O 5.14715 -19.1979 -17.3688
H 4.46755 -18.5729 -17.1163
H 5.67974 -18.7273 -18.01
O 14.2148 -11.8761 11.23
H 15.0523 -12.3095 11.0658
H 13.7403 -12.4796 11.8018
O 23.3853 0.0956084 -20.2905
H 23.0394 0.808019 -19.7529
H 23.6046 0.509593 -21.1252
O 7.94924 -29.2407 15.2867
H 7.49432 29.9957 14.9314
H 7.46972 -28.4906 14.9352
O 8.65913 13.9365 -26.3771
H 9.4854 13.5494 -26.0877
H 7.98914 13.4803 -25.8679
O 13.4155 -28.9659 5.56932
H 14.1654 -28.9325 6.16329
H 13.1355 -29.881 5.58753
O -1.34733 27.1996 -11.2807
H -1.53782 27.2833 -10.3463
H -1.45014 28.0861 -11.6268
O -10.4537 4.47122 19.7952
H -10.5817 3.92807 19.0175
H -9.51209 4.43244 19.9627
O -7.31369 5.69387 -3.27866
H -7.62302 6.57189 -3.05587
H -7.8667 5.10666 -2.7633
O -2.82188 18.0384 11.787
H -3.51051 18.5913 11.4178
H -2.96138 17.1809 11.3852
O 29.1636 14.4325 -24.7595
H 29.501 15.1221 -25.3312
H 29.3623 13.6185 -25.2223
O 8.97194 7.94568 -17.7247
H 9.26847 8.77313 -18.1036
H 8.22402 8.18649 -17.178
O 23.0831 4.40927 22.5587
H 23.3389 4.89579 23.3424
H 23.843 3.8637 22.3562
O 29.648 -13.5906 -25.7627
H 29.3939 -12.7434 -26.1285
H 29.6494 -13.4524 -24.8155
O -12.3563 -20.2932 27.2288
H -12.8538 -19.5361 26.9196
H -11.4447 -20.0779 27.032
O -21.0182 21.2295 28.5617
H -21.5583 21.2072 27.7718
H -20.2462 20.7091 28.3393
O 7.24083 -18.0596 -10.3229
H 7.36462 -17.741 -11.217
H 6.31153 -17.9165 -10.1437
O -12.9718 24.1731 10.1976
H -13.845 23.8208 10.0252
H -12.8556 24.8589 9.54011
O -26.4128 -22.8158 19.07
H -26.3446 -23.2645 18.2273
H -25.6092 -22.2996 19.1327
O -21.8502 7.18524 25.3191
H -21.6383 7.68926 24.5334
H -21.9496 6.28564 25.0075
O -19.1659 28.9373 -0.881272
H -19.4709 28.2666 -1.49231
H -18.284 29.1542 -1.18358
O -26.0093 -7.43254 16.2883
H -25.6533 -6.73079 15.7433
H -25.2413 -7.83261 16.6963
O 24.4365 11.9502 -13.5024
H 24.2863 12.8818 -13.3416
H 23.6076 11.6316 -13.8597
O 11.8423 -5.33623 4.77771
H 12.3097 -6.07481 4.38743
H 10.9565 -5.39673 4.42006
O 10.9398 -3.55081 28.6828
H 11.6083 -4.22721 28.5744
H 10.226 -3.99065 29.1446
O 20.9323 -15.1755 -12.8964
H 21.165 -14.3535 -13.3282
H 20.2621 -15.5615 -13.4604
O 4.5344 26.8152 -29.9173
H 5.34311 26.3089 -29.8408
H 3.95581 26.4455 -29.2504
O -5.35869 -8.20809 -0.0557096
H -5.54222 -9.06933 0.319543
H -5.94286 -7.61244 0.413507
O -21.4542 23.0223 9.11807
H -22.2796 23.4856 9.2606
H -21.7159 22.1581 8.80034
O -20.359 23.2906 19.5624
H -19.6461 23.6812 20.0679
H -21.1283 23.378 20.1252
O 12.2769 11.4784 13.6157
H 12.1999 10.6287 14.0496
H 12.9733 11.9294 14.0932
O -18.7935 26.7715 22.4242
H -18.0327 26.8356 21.8467
H -18.5546 27.2878 23.194
O 22.2437 18.714 -10.7147
H 21.5982 19.3726 -10.4582
H 21.7212 17.9697 -11.0137
O -29.6807 9.61444 -12.6295
H 29.3897 9.46672 -12.8031
H -29.6447 9.85607 -11.704
O -21.4974 23.9904 3.36994
H -20.9743 24.6198 3.86641
H -21.0257 23.1624 3.46001
O 24.4084 24.523 -27.6869
H 25.0671 25.0615 -28.1255
H 24.9105 23.8249 -27.2663
O -18.9559 -15.5151 23.9623
H -18.8758 -15.7055 24.8969
H -19.8559 -15.2066 23.8566
O -28.2325 20.891 27.2329
H -28.6884 21.6422 26.8532
H -27.4494 21.2646 27.637
O -8.37405 6.54184 -22.3675
H -9.05414 6.12964 -21.8348
H -7.67504 6.74791 -21.7469
O 22.4149 -1.01678 24.7269
H 23.0951 -0.393973 24.9829
H 22.6113 -1.80701 25.2301
O -18.2681 25.2841 -4.57805
H -17.7554 24.6166 -4.12212
H -17.7841 26.0975 -4.43525
O 14.6972 -9.08628 -28.4796
H 14.763 -9.77725 -27.8204
H 13.7902 -8.78584 -28.4226
O -19.0055 0.545658 -1.85307
H -19.1885 0.938031 -2.70676
H -18.1306 0.168267 -1.94499
O -26.1987 22.6867 24.345
H -25.7577 22.4154 23.54
H -26.2074 23.643 24.3033
O -16.71 17.5478 22.1186
H -17.0236 18.3031 21.6212
H -17.2056 16.8074 21.7685
O 21.8042 -0.971791 -6.51705
H 21.9983 -1.88702 -6.71925
H 20.8856 -0.975182 -6.2477
O 22.4513 -8.26705 -18.746
H 21.7764 -8.8253 -19.1322
H 22.6685 -7.64056 -19.4364
O 0.43655 13.2048 -8.71598
H 0.419464 14.1531 -8.84466
H 1.05803 12.885 -9.37
O -26.3369 -1.70923 -27.6995
H -26.8734 -2.47003 -27.9223
H -26.9648 -0.993513 -27.6007
O -23.3925 0.615407 0.194634
H -24.3488 0.57995 0.217807
H -23.1648 0.366054 -0.70101
O 13.8614 28.5449 -26.603
H 14.4924 28.8902 -25.9713
H 14.1515 28.8924 -27.4464
O 16.3262 -13.5392 -9.87385
H 15.6279 -13.9844 -10.354
H 16.2043 -13.8127 -8.96468
O -27.2238 -26.1194 5.72268
H -26.5001 -25.7203 5.23977
H -27.2059 -27.0408 5.46372
O -29.2853 -4.46223 11.8798
H -29.4456 -3.67589 12.4015
H -29.7809 -5.15016 12.324
O 22.0655 -24.9876 -18.9821
H 21.7335 -25.6992 -19.5296
H 21.331 -24.7608 -18.4118
O 26.7916 -5.67797 27.7842
H 26.2438 -4.89865 27.8776
H 27.4535 -5.58957 28.47
O -17.5302 19.3116 29.6452
H -16.7987 18.7031 29.7498
H -17.7398 19.5903 -29.4633
O 2.60025 -13.1149 15.424
H 2.95443 -12.6286 14.6795
H 3.10686 -12.8062 16.1752
O 15.3778 29.2258 14.372
H 15.1877 29.1224 13.4396
H 14.5848 28.922 14.8137
O -7.53716 25.0484 -5.75948
H -7.0186 24.3465 -6.15285
H -8.42654 24.6967 -5.72038
O 5.03866 26.0257 -25.749
H 5.01638 25.8666 -24.8054
H 4.35889 26.683 -25.8977
O 28.1471 10.4386 -19.5547
H 27.9991 9.53705 -19.2691
H 27.269 10.8081 -19.6479
O 6.27265 -8.8897 -21.6647
H 6.95362 -8.8817 -20.9921
H 5.73687 -8.12002 -21.473
O 8.38489 1.71426 -9.04693
H 7.98637 2.56351 -9.23712
H 7.97129 1.11133 -9.6647
O -21.399 29.8345 0.281562
H -20.4846 29.5975 0.126788
H -21.702 -29.8177 -0.557131
O 23.9585 18.2571 -4.58497
H 24.6923 17.6804 -4.79747
H 23.9888 18.3429 -3.63211
O 13.7712 -24.0962 -5.95274
H 13.6849 -24.1255 -6.90559
H 14.4649 -24.7255 -5.75512
O 15.6771 -28.4679 -15.451
H 16.5535 -28.6413 -15.1073
H 15.4706 -29.2376 -15.9812
O -24.1178 -6.87567 -3.61169
H -24.4429 -6.63813 -2.74329
H -23.2087 -6.57618 -3.61779
O 3.02699 -2.37395 -15.1755
H 2.65708 -1.93234 -15.94
H 2.26715 -2.60786 -14.6425
O -8.08242 16.4897 5.60847
H -7.90266 16.0355 6.43163
H -8.01669 17.4191 5.82792
O -21.6849 8.72938 22.994
H -20.8865 8.94668 22.5129
H -22.3618 8.66719 22.32
O -25.1693 -2.03332 23.2651
H -25.538 -1.16365 23.4197
H -25.8606 -2.63838 23.5336
O 16.7398 5.1265 -5.29044
H 15.9921 4.58056 -5.53347
H 16.473 5.54928 -4.47416
O -8.46044 17.6758 -10.7333
H -7.7659 17.53 -10.0909
H -9.23318 17.8839 -10.2081
O -26.4629 -8.42679 0.401654
H -26.193 -8.36228 1.31775
H -26.2646 -9.33046 0.156118
O -11.0756 -3.24104 -28.9096
H -11.4459 -2.85172 -29.7018
H -11.8101 -3.28414 -28.2974
O 23.8036 -15.5148 -29.6203
H 23.4575 -16.1556 29.7587
H 24.1996 -16.0424 -28.9267
O 18.7462 -16.9681 -10.9449
H 18.8227 -17.6839 -11.5757
H 19.6022 -16.9318 -10.5181
O -11.8655 -8.95351 15.4425
H -12.4992 -8.99393 16.1587
H -11.323 -9.73366 15.5577
O 29.2865 -22.5933 -9.08147
H 29.0164 -23.4546 -8.76301
H 29.978 -22.7784 -9.71693
O 6.22982 -28.0396 -29.2866
H 5.3838 -27.8905 -29.7088
H 6.08879 -28.8057 -28.7304
O 22.0997 24.8501 2.17083
H 21.7811 25.7035 2.46485
H 22.2484 24.9601 1.23166
O 21.1322 -15.5156 -7.21987
H 20.2884 -15.5222 -6.76807
H 21.7388 -15.1267 -6.58976
O -15.266 20.4111 -23.8827
H -14.5261 19.8226 -24.0328
H -15.6995 20.0583 -23.1057
O 24.6011 -8.40819 15.2102
H 25.397 -8.32318 15.7352
H 24.0268 -8.96689 15.7338
O -11.7592 -24.627 -14.8248
H -11.3215 -23.957 -14.2996
H -12.5857 -24.787 -14.3694
O 18.4597 -6.09847 -14.2784
H 18.023 -6.41032 -15.071
H 17.9557 -6.48113 -13.5602
O 5.09391 15.4094 -15.4593
H 4.1613 15.6249 -15.455
H 5.50068 16.093 -14.9269
O -14.3196 -4.08125 19.7215
H -15.0753 -4.01979 20.3058
H -14.1603 -3.18047 19.4397
O -22.5297 -20.4341 -23.9881
H -22.4038 -19.5815 -23.5716
H -21.9391 -20.4228 -24.7413
O -29.1541 8.12763 18.3842
H -28.6411 7.92465 19.1664
H -29.3066 9.07122 18.4354
O -1.8309 -6.927 7.65777
H -1.8521 -7.38048 8.50047
H -1.97711 -7.6167 7.01034
O -24.4519 24.3318 -11.5606
H -24.1274 23.437 -11.6619
H -23.719 24.8849 -11.8312
O 19.5212 3.90174 -19.3128
H 19.5834 3.22981 -19.9917
H 20.0887 3.58581 -18.6097
O 1.94167 19.2106 14.7957
H 2.84566 19.1382 15.102
H 1.44264 18.6448 15.3849
O 13.9824 -28.4807 -23.5252
H 13.3407 -28.9118 -22.9608
H 13.6942 -27.5687 -23.5631
O -2.80397 24.2104 20.0893
H -3.42017 24.2786 19.36
H -3.33628 24.369 20.8689
O 8.90194 -19.3821 -7.94549
H 8.25805 -18.7262 -8.2129
H 9.08281 -19.1804 -7.02742
O 10.4154 28.6215 -23.3116
H 10.3306 27.7426 -23.681
H 10.308 29.208 -24.0604
O 2.40746 -24.4198 23.3906
H 1.53261 -24.752 23.5918
H 2.47207 -23.6008 23.8818
O -18.1565 16.344 15.981
H -18.2656 16.4577 16.9252
H -18.6136 15.5266 15.7833
O -4.46591 1.58956 -27.4273
H -4.44592 1.00825 -28.1875
H -5.15934 2.21914 -27.6247
O 13.6006 8.59463 29.8935
H 12.9758 9.11796 29.3915
H 14.4023 9.11752 29.8983
O 13.0669 13.985 -21.0304
H 12.2087 13.5864 -20.8857
H 13.5077 13.9199 -20.1832
O -19.8864 16.4883 -28.3751
H -20.6076 15.8786 -28.2188
H -20.2764 17.3552 -28.2629
O 28.4123 -7.07998 -12.4689
H 28.7617 -6.21529 -12.6845
H 29.1178 -7.68669 -12.6935
O 9.60124 -18.6144 24.4686
H 9.5961 -18.1439 23.6351
H 9.168 -19.4462 24.2773
O -22.2042 -21.7392 16.3595
H -22.0083 -22.6718 16.4498
H -22.0536 -21.5508 15.4332
O 28.5046 -0.200046 8.12209
H 29.0082 -0.821554 7.59641
H 28.6741 0.650135 7.71624
O 0.823595 8.0923 -12.0347
H 0.369468 7.90039 -12.8552
H 0.203792 8.62483 -11.5362
O -16.8459 27.2045 -17.5276
H -17.2698 28.0422 -17.7142
H -16.1774 27.4138 -16.8753
O -6.75666 -16.1395 -25.0322
H -6.15333 -16.8471 -25.2593
H -6.73931 -16.1071 -24.0757
O -4.70416 11.0584 -7.13059
H -5.51516 11.3067 -7.5743
H -4.66458 10.106 -7.21806
O -10.7362 -0.177585 -6.09952
H -10.1784 0.450989 -6.5578
H -11.0226 -0.785702 -6.78097
O 9.86635 4.92019 -26.7907
H 9.2838 4.31867 -26.327
H 10.6947 4.44572 -26.861
O -5.05898 3.00078 -13.8426
H -4.61132 3.06728 -12.9991
H -5.9901 2.9998 -13.6207
O -0.268963 -27.0501 -1.28604
H -0.653674 -27.8556 -0.940598
H -0.927112 -26.3767 -1.11379
O -8.28181 28.9939 -29.6015
H -8.07237 29.2161 -28.6944
H -9.1105 29.4412 -29.773
O -12.1097 -22.6115 18.3858
H -12.6009 -23.4107 18.5765
H -11.3239 -22.6775 18.9284
O 0.32684 -0.411861 -21.0461
H 0.360165 0.252614 -20.3579
H 0.120236 0.0774934 -21.8424
O -29.2558 -20.7522 29.3846
H -29.309 -21.6505 29.0582
H -29.1947 -20.2135 28.5957
O -9.98733 17.4679 26.5453
H -10.0477 18.3937 26.3098
H -9.08641 17.3556 26.8486
O -14.228 5.45387 -11.5853
H -14.4558 6.18521 -11.0113
H -15.0363 4.9467 -11.6602
O 21.9071 27.4867 3.11457
H 22.338 27.9347 3.84242
H 20.9784 27.6917 3.22255
O 15.3431 -22.7781 -14.1301
H 16.1677 -22.9991 -14.5628
H 14.7307 -22.6175 -14.8481
O 24.1357 -17.9799 16.5659
H 23.8 -17.6497 15.7325
H 24.9566 -17.5059 16.6986
O -25.3484 11.9217 -24.3926
H -25.8529 12.3569 -23.7054
H -25.7991 12.1535 -25.2046
O -3.73028 -28.1185 15.3295
H -3.20129 -27.8364 16.0758
H -3.40561 -27.5979 14.5948
O -26.5705 -17.5539 27.0166
H -25.9442 -17.4978 27.7383
H -26.1609 -18.1494 26.3891
O 5.53661 -12.0649 -10.2179
H 6.2347 -12.6655 -10.4788
H 5.98321 -11.234 -10.0553
O -2.45615 -12.0943 16.293
H -2.62835 -11.4155 15.6405
H -3.26942 -12.1576 16.7938
O 29.0015 -19.9591 6.46268
H 28.6951 -19.439 5.71978
H 29.8496 -19.5774 6.68932
O -29.7084 -24.0391 20.2395
H -29.6444 -23.9535 21.1907
H 29.7843 -23.2758 19.9635
O -21.4264 5.26443 -29.0845
H -20.5458 5.3006 -29.458
H -21.7065 4.35882 -29.2175
O 13.3111 18.471 -28.579
H 13.8859 19.2359 -28.6079
H 12.6613 18.6332 -29.2629
O 19.3737 -20.0424 24.3427
H 18.4534 -19.8008 24.4469
H 19.39 -20.9898 24.4786
O 19.9418 5.33724 -22.1575
H 20.2666 5.23115 -23.0516
H 20.363 6.13695 -21.8425
O -22.458 -23.8857 -17.1816
H -22.8283 -23.2861 -16.5339
H -23.0974 -24.5952 -17.2451
O 10.1874 28.5557 -19.6758
H 9.63328 28.0348 -20.257
H 10.4382 27.9508 -18.9776
O -28.6306 13.0445 10.6267
H -29.4007 13.1869 10.0764
H -28.932 12.4471 11.3112
O 8.58824 7.46613 -7.59832
H 8.94134 6.59747 -7.79061
H 8.02044 7.66461 -8.34293
O -15.9233 -26.5086 5.1861
H -15.8763 -26.6406 6.13299
H -16.5121 -25.7618 5.07682
O 7.29176 -6.35545 -3.77051
H 7.12217 -7.10384 -4.34268
H 7.73958 -6.72994 -3.01193
O 11.0545 27.1752 -5.65209
H 11.9912 27.3559 -5.72999
H 10.7826 27.6515 -4.86758
O 22.0114 25.0233 -0.610273
H 22.1722 25.9449 -0.81291
H 22.1588 24.5663 -1.43829
O 12.8308 -17.4513 -21.0022
H 12.3466 -18.0404 -21.5807
H 12.4952 -16.5797 -21.2119
O -7.32626 11.044 -28.7813
H -7.79559 11.5289 -29.4601
H -6.48094 10.8333 -29.1778
O -25.3259 -10.5532 22.3592
H -25.9423 -11.2447 22.1181
H -25.8307 -9.74373 22.2808
O -28.5462 -7.19586 22.6732
H -28.0448 -6.55044 23.1715
H -29.3359 -7.34073 23.1944
O -6.8344 -16.8013 6.77567
H -7.42958 -17.5506 6.79869
H -6.33635 -16.8654 7.59059
O -7.89874 24.1933 -26.0734
H -7.43981 24.684 -26.7552
H -8.79822 24.1223 -26.393
O -19.4797 3.06201 -4.21743
H -20.0575 2.93581 -4.97012
H -18.8421 3.71286 -4.51077
O 7.7582 -24.3666 19.4244
H 8.29911 -24.2612 18.6417
H 8.26283 -23.9497 20.1228
O 28.7192 -10.5309 27.1998
H 28.4926 -10.277 26.3051
H 29.6103 -10.874 27.1335
O 19.2467 -6.9503 26.9365
H 19.2315 -6.28833 26.2453
H 18.4847 -6.74807 27.4793
O -22.5747 14.7602 -18.3904
H -22.1555 15.2098 -17.6567
H -23.1598 14.1239 -17.9792
O 26.6213 21.0975 25.3014
H 26.2719 20.7454 24.4827
H 27.5323 20.8041 25.3194
O 8.77012 -9.81332 2.00521
H 7.93362 -9.39441 1.8027
H 9.37278 -9.47952 1.34067
O 27.0614 -8.90713 -10.7018
H 26.2452 -8.74753 -10.228
H 26.9159 -8.52352 -11.5666
O -18.29 -20.8363 15.171
H -18.2226 -21.6955 15.5876
H -17.5238 -20.3564 15.4853
O 28.479 13.2387 -1.83644
H 28.7969 12.8402 -2.64657
H 27.5802 13.5017 -2.03496
O 25.0138 13.6019 -9.54941
H 24.1035 13.7976 -9.32759
H 24.9644 13.1574 -10.3957
O -25.5003 0.201833 3.04552
H -26.0225 0.934722 2.71929
H -25.1058 0.529315 3.85379
O 27.9366 15.9847 7.28267
H 27.4709 15.2431 6.89614
H 28.2502 16.4889 6.53186
O -13.3243 -29.0645 15.626
H -13.2199 -29.8946 15.161
H -14.2219 -29.0865 15.9578
O 15.9138 27.7141 -3.69371
H 16.4631 28.4967 -3.64893
H 16.5335 26.9847 -3.68003
O 18.3706 23.9792 -26.5229
H 19.1706 24.5048 -26.5203
H 18.5326 23.2988 -27.1764
O -19.8645 -29.7993 27.5646
H -19.3949 -28.9658 27.5338
H -19.7827 29.8463 26.6792
O 19.6699 -14.5164 4.80902
H 19.3366 -14.0505 4.04216
H 19.049 -15.2325 4.94333
O 1.94115 24.003 11.506
H 1.16303 23.6685 11.952
H 2.33232 24.6133 12.1312
O -25.0082 25.3592 18.305
H -24.551 24.9537 17.5683
H -24.3637 25.9528 18.6901
O 12.0156 -0.452917 19.5329
H 12.2406 -0.843333 20.3774
H 12.4518 0.399117 19.5385
O -13.1934 1.97185 24.1079
H -12.6695 2.03098 23.309
H -13.5629 2.84795 24.218
O 14.7172 -21.9553 11.719
H 14.5801 -21.237 11.1013
H 14.4596 -22.7402 11.2353
O 9.42152 -8.48357 -26.9515
H 10.0139 -9.03223 -26.4374
H 9.7584 -7.59483 -26.8381
O -28.78 -0.983317 -22.9096
H -28.3454 -1.58048 -23.5185
H -28.1988 -0.950412 -22.1497
O -12.4149 18.7645 -29.2105
H -11.6973 19.3317 -28.9284
H -12.2352 17.9233 -28.7905
O 16.9434 21.4914 -3.80668
H 16.1844 21.6618 -3.24894
H 16.8053 20.6029 -4.13501
O 28.8378 26.679 22.9713
H 28.3216 27.1716 22.3334
H 29.7109 27.0686 22.9259
O -16.3804 -8.89777 4.72951
H -16.402 -9.29329 3.85812
H -17.2316 -8.46934 4.81982
O 17.6878 -1.16886 -23.6825
H 16.8933 -0.968451 -23.1878
H 17.3839 -1.30486 -24.5799
O -18.6307 -10.1153 -1.6243
H -18.8022 -9.91802 -0.70348
H -17.6766 -10.1004 -1.69926
O 27.7459 -0.71694 13.649
H 27.1661 -1.42808 13.3763
H 27.6939 -0.0787457 12.9375
O -29.3988 -26.0825 26.0084
H -29.532 -26.3884 26.9056
H 29.7266 -25.8386 25.7056
O 23.6905 -16.1255 -12.854
H 24.2918 -15.5429 -13.318
H 22.9241 -15.5822 -12.6699
O -15.9022 27.6332 -7.19983
H -16.561 26.9704 -7.4067
H -15.1354 27.3777 -7.71271
O -8.35181 11.0085 -24.5176
H -9.17652 11.0551 -24.034
H -8.16967 11.9139 -24.7693
O 23.2198 20.3446 -2.42798
H 24.0489 20.5876 -2.83996
H 23.3942 20.3973 -1.48828
O -5.13029 -23.5094 17.1652
H -5.9272 -24.0385 17.2
H -4.73545 -23.7254 16.3204
O -8.45214 -0.450074 -4.51348
H -9.27332 -0.67065 -4.95307
H -7.80407 -0.418829 -5.21724
O -6.45085 -27.9119 12.4328
H -5.83631 -27.1813 12.502
H -5.89484 -28.6843 12.3303
O -0.178037 -24.1651 -18.0707
H -0.387586 -23.3965 -17.5399
H -0.796564 -24.1287 -18.8003
O -15.1121 24.9332 15.74
H -15.122 25.8887 15.7966
H -14.3321 24.7315 15.2231
O -1.6393 14.8419 -14.7961
H -1.00672 14.1882 -15.094
H -1.34698 15.0745 -13.9148
O 15.679 -10.3471 -26.143
H 15.2752 -10.5019 -25.2891
H 16.4849 -9.87025 -25.9445
O 5.56702 -20.2795 -3.92443
H 5.84405 -21.1937 -3.98562
H 5.25753 -20.0631 -4.80399
O 27.3489 3.44449 -10.5488
H 26.4242 3.35465 -10.779
H 27.5323 4.37827 -10.652
O 16.8151 5.43977 5.76716
H 16.6898 4.4925 5.71035
H 17.3809 5.65196 5.0248
O -28.1107 1.8284 -4.19793
H -27.5062 2.13685 -4.87291
H -28.9646 1.81135 -4.63017
O 26.7274 -25.2969 -28.8573
H 26.7986 -25.6204 -27.9592
H 27.4568 -24.684 -28.9502
O 25.4472 18.1842 19.1378
H 26.1908 18.4206 18.5832
H 24.7698 18.8231 18.9159
O -14.1586 -9.75688 -28.3523
H -14.525 -9.04645 -27.8258
H -13.9612 -9.35231 -29.1971
O -2.77387 24.5129 -27.4943
H -3.10312 23.8028 -26.9433
H -2.13897 24.0921 -28.074
O -18.1493 -21.9987 -20.4848
H -18.8548 -21.4909 -20.8855
H -18.4851 -22.235 -19.6201
O -16.9005 23.2454 -1.84475
H -17.4979 23.1943 -1.09854
H -16.5592 24.1393 -1.81816
O -29.5104 10.7709 -22.9538
H -29.1495 9.9768 -23.348
H 29.541 10.6506 -22.9974
O 22.1684 -29.1643 3.64364
H 22.7348 -28.3927 3.63794
H 22.7715 -29.9042 3.71391
O -9.35377 -2.41574 -25.6779
H -9.57155 -2.55228 -26.5999
H -9.91041 -1.6863 -25.4053
O -4.89922 -22.9054 28.3014
H -5.76586 -22.7277 27.9359
H -4.85628 -22.3655 29.0906
O -9.99067 -7.66 -17.4142
H -10.2822 -6.81166 -17.0801
H -9.45538 -8.02441 -16.7092
O 26.9244 14.3116 -21.9217
H 27.4755 14.2612 -21.1407
H 27.5421 14.4213 -22.6447
O 29.3951 -13.1742 17.6902
H -29.8629 -13.7752 17.7571
H 28.8211 -13.5733 17.0364
O 13.5546 28.3023 -9.22521
H 14.3491 28.3656 -9.75526
H 13.1221 27.5067 -9.5353
O 26.1205 11.6979 14.9094
H 25.5735 12.4828 14.9374
H 25.543 11.0149 14.5686
O -21.0723 -20.8672 27.685
H -21.4374 -21.274 28.4707
H -21.7349 -21.0124 27.0096
O -0.199394 11.4981 7.01662
H -0.818804 12.2057 7.19536
H 0.644818 11.8374 7.31401
O 24.5444 29.7626 -24.6319
H 24.9115 -29.4254 -24.2823
H 24.9055 29.697 -25.5159
O 24.2508 -5.5128 -26.7238
H 24.9335 -6.181 -26.6633
H 24.6288 -4.83342 -27.2822
O -15.3176 -16.052 9.49319
H -15.2541 -15.2297 9.97908
H -14.5339 -16.5406 9.74485
O -28.8731 22.1455 -26.7365
H -28.6623 22.7557 -26.0298
H -29.6659 21.6988 -26.4393
O -2.03532 -27.9323 -24.7379
H -2.68809 -27.5442 -24.1552
H -1.73593 -27.2038 -25.2819
O 24.039 17.2306 -9.0143
H 23.3594 17.786 -9.3963
H 24.28 17.6721 -8.19991
O 16.4898 25.6601 8.56503
H 16.8814 25.3869 9.39462
H 15.5525 25.7192 8.75
O 28.3983 -26.6392 -5.64505
H 28.4956 -26.3667 -4.73261
H 28.8645 -27.4735 -5.69746
O -2.93098 1.72908 -24.3323
H -2.85134 1.39053 -25.2241
H -3.84548 1.57246 -24.097
O -9.38263 -23.0226 -24.9933
H -9.7477 -23.7328 -24.4655
H -10.0433 -22.86 -25.6666
O 19.7067 3.81045 24.6991
H 20.5232 3.91631 25.1874
H 19.3762 2.95306 24.9672
O -26.4716 -17.9718 -13.1817
H -26.2221 -17.5275 -13.992
H -26.1501 -18.8669 -13.29
O -3.51432 -8.5023 -21.6947
H -4.02515 -7.73096 -21.4491
H -4.12931 -9.23179 -21.6181
O 23.1011 3.94741 16.1495
H 23.3078 3.35598 16.8731
H 22.2644 4.34267 16.3941
O -21.9373 -11.6275 -23.8488
H -22.35 -11.6379 -22.9853
H -22.6509 -11.8164 -24.4582
O -26.8874 -28.0798 18.2543
H -27.1961 -27.1769 18.3296
H -26.1226 -28.1206 18.8285
O 18.1658 17.0317 -24.6642
H 17.5071 16.3779 -24.4299
H 18.5508 16.7039 -25.4769
O 26.6986 -6.25851 16.6451
H 27.6199 -6.51504 16.6855
H 26.6544 -5.63604 15.9193
O -11.864 10.4082 5.82858
H -11.4426 11.216 5.53495
H -12.7866 10.5223 5.60061
O -17.3018 -6.70951 -17.1835
H -18.2274 -6.9131 -17.0487
H -16.9496 -7.47896 -17.6308
O -7.27557 -24.4296 13.2378
H -6.72523 -24.6394 13.9923
H -7.99487 -23.9134 13.6015
O -2.67277 -6.81954 17.6079
H -2.64449 -6.47655 16.7147
H -3.00901 -7.71062 17.5123
O 10.3039 21.4457 23.7647
H 10.0021 22.0756 24.4191
H 9.96492 21.7809 22.9346
O 6.4135 -23.2594 -19.0857
H 6.94309 -23.5419 -18.3401
H 6.1561 -22.3628 -18.8712
O -29.1892 -11.1674 -0.453845
H -29.685 -11.5092 -1.19785
H -28.3715 -10.8489 -0.83632
O -13.8189 23.1548 24.8926
H -14.6528 23.3031 24.4466
H -13.8793 22.2582 25.2224
O 4.92574 14.7506 -18.238
H 4.67667 15.3412 -17.5271
H 5.75941 15.0966 -18.5565
O 9.43987 12.3779 17.4332
H 9.69898 13.1753 16.9714
H 8.51014 12.2745 17.2303
O 1.15302 21.1841 12.6099
H 1.13221 20.446 13.219
H 0.287624 21.5854 12.6894
O -15.1843 1.34057 3.23029
H -14.2793 1.26928 2.92668
H -15.6376 1.80491 2.52664
O 2.33602 -20.8542 -21.8446
H 2.902 -21.5975 -21.6366
H 1.73599 -21.1885 -22.5112
O 10.3474 -15.3308 -22.5213
H 11.129 -15.284 -23.0718
H 9.82547 -16.0355 -22.905
O -26.6996 21.7835 -4.40409
H -26.1028 21.5094 -3.70778
H -26.195 22.4136 -4.91847
O 21.8235 -29.9706 27.4499
H 22.2472 29.4713 28.1019
H 20.9042 29.7632 27.467
O -21.6858 -2.07446 -0.762
H -20.8811 -2.01018 -1.2763
H -22.3379 -2.40943 -1.3775
O -7.76099 29.7667 12.0457
H -8.09557 -29.4914 11.5418
H -7.37581 -29.838 12.8278
O -2.80027 3.58366 13.7837
H -2.79229 4.32633 14.3876
H -2.11729 2.99937 14.1129
O -25.6095 16.817 22.359
H -24.6959 17.1013 22.3295
H -25.5947 15.9254 22.0111
O 9.75801 15.3734 17.295
H 10.2079 15.4998 18.1304
H 8.95881 15.8946 17.3716
O -23.3726 20.9597 16.4954
H -24.2012 20.5223 16.2993
H -22.7046 20.3912 16.1122
O 9.34017 -19.0621 29.4137
H 9.00783 -19.959 29.3766
H 8.93207 -18.687 -29.806
O 20.5911 20.0414 5.28014
H 21.0316 20.783 4.86518
H 20.3117 19.4891 4.54999
O -5.43617 -6.2838 7.68503
H -5.09548 -7.17665 7.63043
H -6.30083 -6.38085 8.08399
O -5.53539 -3.83652 6.77353
H -4.88452 -3.32306 7.25202
H -5.3677 -4.74149 7.03647
O 3.32103 23.1679 -10.4096
H 2.65887 23.8527 -10.5031
H 2.88787 22.4833 -9.89977
O -11.5299 -2.13443 28.4769
H -12.1728 -2.84123 28.4186
H -10.6867 -2.56474 28.3354
O 7.24596 -18.8528 -13.3138
H 7.06686 -19.7852 -13.1919
H 6.60412 -18.5682 -13.9644
O -22.2604 -29.6416 28.7687
H -21.3437 -29.655 28.4933
H -22.5572 -28.7532 28.5715
O -8.44813 -9.52009 15.5571
H -8.87197 -8.79622 16.0182
H -7.81493 -9.867 16.1855
O -20.6637 5.2435 10.5247
H -21.4516 4.75296 10.2904
H -20.228 4.69885 11.1803
O 12.5636 27.201 -12.421
H 11.9684 27.9086 -12.1734
H 12.1071 26.4011 -12.1603
O 19.6655 -0.30257 20.2395
H 20.5375 -0.162281 20.6086
H 19.1502 -0.651153 20.967
O 17.8773 -13.8788 21.934
H 17.5656 -13.3237 21.2192
H 17.4913 -14.7367 21.7574
O -14.122 -26.9121 -13.4065
H -14.8066 -26.3078 -13.6933
H -14.1578 -26.8794 -12.4506
O -21.6757 14.4546 5.23172
H -21.6432 13.5056 5.35197
H -22.4203 14.7384 5.76202
O 26.4019 -4.53632 3.73005
H 25.8715 -4.26642 4.47976
H 26.5067 -5.48162 3.83807
O 23.5971 10.7752 27.7361
H 23.2208 9.89647 27.7849
H 23.1157 11.2036 27.0283
O -20.935 29.7053 11.6071
H -20.073 29.6847 11.1915
H -21.4968 29.1997 11.0198
O -20.6853 -21.6653 -12.2586
H -21.5247 -21.2081 -12.309
H -20.9125 -22.5926 -12.3272
O -23.4633 -0.551978 12.8755
H -23.9387 -0.0775677 12.1934
H -22.9639 0.123637 13.3341
O 23.4028 15.591 5.57959
H 23.7532 16.4794 5.64309
H 23.1078 15.3854 6.4667
O 7.85848 20.807 1.5219
H 7.61239 20.7955 2.44685
H 7.91067 19.8834 1.27599
O 1.47301 -27.8885 -29.7009
H 1.69643 -28.2345 29.4351
H 0.784384 -28.4707 -29.3799
O -25.8041 -11.3924 10.7748
H -25.502 -10.7558 10.1269
H -25.9656 -10.8742 11.5632
O 28.3808 6.9464 -18.7292
H 27.8407 6.22727 -19.0568
H 29.0284 7.0935 -19.4185
O -8.20225 -12.5995 2.93312
H -8.26415 -11.7753 3.416
H -7.31588 -12.5999 2.57175
O -16.417 11.1352 15.5046
H -16.4793 10.205 15.7214
H -15.4891 11.3448 15.6109
O -14.6939 3.26122 -22.2641
H -14.0935 3.40343 -21.5323
H -15.4767 3.7613 -22.0328
O -18.6351 3.61113 20.5725
H -18.3948 2.87787 21.1389
H -17.8273 3.83057 20.1083
O 3.26809 -26.5316 16.7029
H 4.1803 -26.6619 16.962
H 3.2982 -26.4537 15.7494
O 9.98788 16.6866 -19.215
H 9.79516 16.5473 -20.1422
H 10.9369 16.8072 -19.1827
O -25.4359 27.9277 -10.8974
H -25.2582 26.9901 -10.971
H -25.2196 28.2814 -11.7602
O -17.8512 9.99112 -19.8043
H -18.3602 10.178 -20.5931
H -17.5808 9.07833 -19.9039
O -7.39025 27.7243 -26.7115
H -7.19304 28.657 -26.7979
H -7.52761 27.594 -25.7732
O 3.17954 14.7787 20.5765
H 3.19968 13.8459 20.3628
H 2.27823 14.9418 20.8545
O 6.75741 -19.4864 -24.1914
H 5.9206 -19.8237 -23.8717
H 7.31045 -20.2625 -24.2812
O 4.72012 -15.009 13.1666
H 4.93906 -14.0993 13.3684
H 3.87632 -14.9589 12.7175
O -18.7685 17.6355 -19.5453
H -19.6119 18.0209 -19.7828
H -18.9656 16.7151 -19.3715
O 26.0845 14.3855 -1.6388
H 26.2776 15.2717 -1.94486
H 26.4238 14.3614 -0.744085
O -5.96916 6.07624 27.2751
H -6.89873 5.93391 27.0966
H -5.89591 7.01804 27.4296
O -6.25789 0.0712133 29.9633
H -6.61359 -0.762391 29.6554
H -6.56196 0.142305 -29.1318
O 15.7416 17.1603 26.0564
H 16.1267 17.1422 25.1803
H 15.5129 16.2486 26.237
O -0.00765098 -3.71628 -26.7076
H 0.0909016 -4.35215 -25.999
H 0.493952 -2.95429 -26.4178
O -14.045 -22.3833 14.2037
H -14.0436 -21.4261 14.2007
H -14.7732 -22.6204 14.778
O 22.903 -7.27458 -12.7884
H 22.2121 -6.68977 -12.4773
H 23.3965 -6.74928 -13.4183
O 7.40487 -0.95976 13.0117
H 8.21316 -1.35433 13.3391
H 6.87588 -1.7026 12.7208
O 3.57111 -5.94609 25.8211
H 4.34195 -6.03759 26.3811
H 2.93668 -5.4748 26.3611
O 29.9401 24.5613 -23.9005
H 29.3424 23.8158 -23.8438
H 29.3797 25.3279 -23.7807
O -15.2559 -24.6857 -1.7161
H -15.0601 -25.1813 -2.51126
H -14.6358 -25.0184 -1.06722
O -21.4655 -10.8787 -17.268
H -21.3899 -10.2036 -17.9423
H -20.6784 -10.7731 -16.7335
O -14.0064 -5.59731 -14.8901
H -13.6166 -5.87612 -14.0615
H -14.8244 -5.16869 -14.6383
O -13.0773 26.8983 4.19535
H -12.8631 27.2266 3.3221
H -12.9489 27.6508 4.77283
O -8.30023 -6.23006 7.87171
H -8.97775 -5.64238 8.20613
H -8.59993 -6.46704 6.99407
O -17.5499 7.34908 -20.9577
H -17.8467 6.44803 -20.8303
H -17.6404 7.50072 -21.8985
O -4.06259 26.7462 -12.8971
H -4.27989 26.8186 -13.8265
H -3.11541 26.6089 -12.8821
O 21.6624 1.08954 12.0119
H 22.0613 0.226026 11.9049
H 20.7592 0.974963 11.7163
O -27.2597 -19.8307 -16.5377
H -28.153 -19.4913 -16.4825
H -27.1046 -19.9468 -17.4751
O -28.9471 14.9214 -11.506
H -29.4964 14.2235 -11.149
H -28.3371 14.4714 -12.0906
O -28.1441 1.59316 1.57705
H -28.6555 0.986629 2.11261
H -27.9512 2.32579 2.16208
O -24.2803 -2.63007 18.8393
H -23.8129 -2.20165 19.5564
H -24.7218 -1.91572 18.3799
O 14.3037 24.2983 -13.1963
H 14.7492 24.5602 -14.002
H 14.431 25.0367 -12.6007
O 28.1444 -10.9673 -9.14407
H 27.4675 -10.4957 -9.62947
H 28.8018 -11.1895 -9.80341
O 28.5478 -18.8556 -29.5319
H 28.7518 -18.8429 -28.5967
H 29.2905 -19.3067 -29.9334
O 12.595 17.4966 9.59798
H 13.075 18.2674 9.29499
H 12.7722 17.4577 10.5378
O -5.6218 8.2523 -26.1604
H -5.6651 7.69318 -26.9361
H -6.50154 8.21108 -25.7855
O 21.1814 6.54264 -29.4049
H 21.772 7.10266 -29.9087
H 21.4424 6.67684 -28.4938
O -25.5862 -17.9577 -23.7379
H -24.9867 -17.2122 -23.7694
H -25.1869 -18.5604 -23.1105
O 28.1699 -13.2152 28.0934
H 28.1957 -12.5088 27.448
H 27.24 -13.3255 28.2914
O 17.4523 9.09073 -19.1612
H 17.8006 9.20095 -18.2765
H 17.496 9.96564 -19.5471
O -8.61689 -7.89351 -6.10669
H -8.54009 -8.45143 -6.88067
H -8.92088 -7.05195 -6.44669
O -16.9922 -0.558603 -25.0128
H -16.4823 -1.2915 -24.6677
H -16.4297 0.205541 -24.8868
O 21.1988 2.04883 5.46071
H 22.1233 1.91712 5.2505
H 21.185 2.18356 6.40828
O -27.1747 -9.89391 5.47925
H -27.5561 -9.14019 5.02903
H -26.2366 -9.70593 5.50955
O 16.555 -2.93314 2.10351
H 15.9142 -2.38882 2.56093
H 16.0285 -3.51035 1.55049
O -26.9449 -27.9892 -14.3099
H -27.2596 -28.07 -13.4095
H -26.9354 -27.0468 -14.4772
O 23.7343 -18.0128 -22.6142
H 24.3699 -18.2407 -21.9358
H 22.9691 -17.7008 -22.1312
O 6.80506 -27.8284 24.8956
H 5.90139 -27.5432 24.7606
H 7.25234 -27.6028 24.0799
O -17.4401 -11.819 -29.8536
H -16.6838 -11.6314 -29.2975
H -17.3897 -12.7608 29.9827
O -17.3051 -1.04236 20.806
H -17.6615 -1.86552 20.4719
H -17.6446 -0.978678 21.6987
O 23.0504 -6.70594 -15.5516
H 22.9593 -7.22772 -14.7543
H 22.9053 -7.32873 -16.2638
O -18.6233 -29.6068 7.14464
H -19.1616 29.6017 7.14355
H -17.813 -29.8671 6.70648
O 23.6282 23.1697 -22.8355
H 23.1498 23.9818 -23.0022
H 23.1039 22.7129 -22.1778
O 29.4025 4.83763 -0.721992
H 29.5132 4.62835 0.205473
H 29.3853 3.98652 -1.15967
O 16.0003 8.46989 -13.6787
H 15.8235 8.81248 -14.5548
H 16.3592 7.59564 -13.8308
O -10.6592 26.4335 -20.9053
H -10.6953 27.229 -20.3741
H -11.4885 25.9892 -20.7286
O 8.57605 5.57758 0.493147
H 8.81911 6.41723 0.883211
H 8.92916 5.61473 -0.395765
O 16.0363 -9.76038 -9.36091
H 16.9133 -9.86873 -9.72889
H 15.8696 -10.5786 -8.89305
O 6.98184 -8.33727 4.80477
H 7.30109 -8.83977 5.55431
H 7.76285 -8.17155 4.27675
O -6.50868 -19.8171 6.37979
H -6.30361 -20.4761 7.04312
H -7.12964 -20.2509 5.79457
O -26.5495 26.4295 -2.59534
H -27.1642 26.4071 -1.86189
H -26.1274 25.5706 -2.58104
O 18.282 -3.83952 -20.001
H 17.6143 -4.37643 -19.5742
H 19.1045 -4.11028 -19.5932
O 4.13193 7.97419 27.4298
H 4.29439 7.19625 27.9633
H 4.73735 8.63134 27.7731
O 24.1107 -11.6826 0.937064
H 24.7534 -11.7906 0.236019
H 24.0044 -12.5608 1.30261
O -22.6018 2.84744 12.1446
H -22.0434 2.17766 11.7499
H -23.494 2.53305 11.998
O 24.4819 -27.0666 -26.9269
H 23.6446 -27.5165 -27.0395
H 24.243 -26.1745 -26.6752
O 2.84044 14.0704 -19.9834
H 3.39495 14.3262 -19.2463
H 2.98282 13.1283 -20.0752
O -28.8481 -6.03351 6.0128
H -29.1313 -5.61556 6.82601
H -29.2611 -6.89685 6.03017
O 17.2627 20.6799 6.16825
H 16.861 20.8878 7.01186
H 18.2033 20.7692 6.32176
O -11.5251 -23.497 4.16145
H -11.6726 -24.3181 3.69218
H -12.036 -23.5853 4.96612
O -0.630678 3.86745 -28.7831
H -0.597754 4.74244 -29.1698
H -0.0715325 3.92624 -28.0084
O 15.0369 19.4028 5.52962
H 14.7743 19.0939 6.39671
H 15.7142 20.0566 5.70277
O -11.7538 -20.9059 2.71728
H -11.3364 -21.7346 2.95257
H -12.5108 -21.1599 2.18936
O 12.3499 24.5582 20.7286
H 12.2807 24.2346 19.8304
H 12.7115 23.8219 21.2218
O -1.83586 28.7063 -6.60201
H -2.31701 29.5302 -6.52474
H -0.96939 28.9631 -6.91747
O -1.14336 -7.3815 -10.7127
H -1.81153 -7.60473 -11.3607
H -1.36758 -6.49403 -10.4327
O 1.69593 -5.1893 5.26601
H 1.27685 -4.32897 5.24534
H 2.369 -5.14477 4.58688
O 28.9059 -24.0803 1.87627
H 29.5355 -23.3903 2.08531
H 28.1 -23.612 1.65834
O 17.6087 -13.5123 -23.6155
H 18.2544 -13.2002 -22.9815
H 16.8613 -12.9243 -23.5061
O -26.4631 22.0284 -7.96214
H -26.3076 22.9537 -7.77326
H -25.8027 21.5641 -7.44778
O -22.7553 11.8153 -27.0222
H -21.8893 11.8137 -26.6144
H -22.6333 12.2928 -27.8428
O -16.1412 -24.2343 -10.4079
H -16.0204 -23.7343 -9.60065
H -17.0728 -24.1442 -10.6088
O 1.14576 -12.5485 -29.5456
H 0.612747 -12.3425 -28.7777
H 0.836393 -11.9453 29.7786
O 8.62448 24.4171 10.2992
H 7.87808 24.7427 9.79619
H 8.50449 24.7874 11.1737
O 13.514 -10.7824 -0.171117
H 14.3444 -11.1442 0.138361
H 13.6887 -9.84895 -0.29082
O 7.03468 18.8561 9.03387
H 7.52786 18.1405 9.43503
H 7.61764 19.6128 9.09452
O -17.5823 17.7514 -23.6518
H -16.66 17.5472 -23.806
H -18.0612 17.1044 -24.1698
O 29.517 -21.0081 -17.6559
H -29.9349 -21.1106 -18.4339
H 28.6202 -21.0246 -17.9901
O -5.34099 -4.03567 -9.11976
H -5.7309 -3.16778 -9.01502
H -4.46091 -3.86451 -9.45501
O -15.3228 11.9543 -23.1328
H -15.2295 12.9054 -23.1862
H -15.7477 11.7082 -23.9545
O -12.4877 -17.2447 12.3978
H -12.5196 -17.4135 11.4561
H -11.8133 -16.5729 12.4984
O 2.70373 -2.85829 -10.0132
H 2.87914 -2.5955 -10.9167
H 3.53157 -3.22751 -9.70562
O -20.007 8.31402 13.2169
H -20.5104 7.66705 12.7226
H -19.8989 9.0475 12.6114
O 17.3403 -4.21488 -7.67057
H 17.0508 -4.78469 -6.958
H 17.6873 -3.4385 -7.23116
O -13.0554 22.6636 29.7071
H -12.3454 22.5867 29.0697
H -12.6301 22.5423 -29.4441
O 13.296 8.60643 -12.0034
H 12.8653 7.84748 -11.6101
H 14.1727 8.29497 -12.2283
O -22.2778 19.7701 26.2549
H -22.4044 19.2044 27.0166
H -21.3284 19.8709 26.186
O -1.59877 16.5216 22.4027
H -2.17579 16.566 23.1651
H -1.3313 17.4281 22.2511
O 21.7137 -18.8575 27.279
H 22.4338 -19.3193 26.8496
H 21.4263 -18.2098 26.6355
O -29.1745 15.3224 8.0403
H -29.3578 16.2601 7.98231
H 29.9799 14.9249 8.24798
O 7.36014 -2.97209 26.4781
H 7.49706 -3.11612 25.5417
H 8.23123 -3.06177 26.8646
O -11.4747 14.3831 27.3726
H -10.6068 14.6269 27.6943
H -12.0449 14.4613 28.1375
O 27.6817 -8.22777 12.76
H 27.341 -8.92619 13.3189
H 27.1002 -7.48507 12.9226
O 9.87267 18.0839 3.62472
H 10.4001 17.3747 3.99228
H 9.02378 17.6814 3.44133
O -12.897 -2.39422 -4.85176
H -12.5173 -3.27286 -4.84827
H -12.4488 -1.93623 -4.14073
O 16.1057 19.2292 -28.7367
H 16.7267 19.6367 -28.1329
H 15.7929 18.4532 -28.2717
O -19.1288 -8.4033 -26.4097
H -19.7452 -8.87114 -25.8464
H -18.9847 -8.99314 -27.1497
O 2.99959 3.61139 27.9852
H 2.1124 3.82265 28.2758
H 3.14569 4.1789 27.2283
O 18.0486 27.0776 26.3516
H 18.5668 27.3879 25.609
H 18.3645 27.5904 27.0956
O 11.4261 -9.47251 6.31785
H 11.6393 -8.53973 6.34424
H 12.2252 -9.8924 5.9993
O -23.5191 19.1892 -13.2059
H -24.1083 19.1619 -13.9598
H -24.0515 19.5523 -12.4982
O 2.51009 11.8035 18.8963
H 2.68826 11.4726 18.016
H 1.76664 12.3959 18.7842
O -2.31928 -17.5242 -29.3871
H -2.26202 -17.6752 29.6694
H -1.63471 -16.8804 -29.2052
O -9.90332 24.5673 -9.56737
H -9.36669 23.7846 -9.44227
H -9.38531 25.1229 -10.1498
O -0.900239 -11.3353 23.0077
H -0.342238 -11.6303 22.2881
H -1.62442 -10.8796 22.5786
O 11.7743 -13.3249 24.9018
H 12.3377 -13.893 25.4273
H 10.895 -13.685 25.0181
O 22.189 12.9601 17.0504
H 22.1614 13.6907 17.6682
H 22.3751 13.3678 16.2046
O 7.03355 17.2519 -11.7311
H 7.54762 18.059 -11.7576
H 6.52155 17.3199 -10.9252
O 1.98547 17.4257 12.7045
H 2.53261 17.6211 11.9437
H 1.62625 18.2735 12.9659
O -9.38697 7.15715 16.7328
H -8.43402 7.24723 16.7334
H -9.63955 7.27335 17.6488
O 28.4682 3.45765 5.2004
H 29.1993 4.06399 5.31936
H 28.524 3.19169 4.28258
O 5.30211 -11.7143 11.8551
H 4.50526 -11.1842 11.8721
H 5.67758 -11.6113 12.7295
O -4.55175 12.9224 12.9315
H -4.57487 12.7741 11.9862
H -3.62669 13.0691 13.1289
O -20.8845 16.705 -21.8706
H -20.0676 17.1615 -22.072
H -21.4871 16.9743 -22.5639
O 12.2823 24.642 -23.0253
H 11.8249 23.8553 -22.7283
H 13.2062 24.3922 -23.0373
O -25.2443 -26.3768 7.61701
H -25.996 -26.5298 7.04454
H -25.6291 -26.1202 8.45504
O 23.1125 16.7783 17.0906
H 22.7856 17.3203 17.8086
H 23.2608 15.9195 17.4864
O -27.0816 -14.5241 17.4435
H -27.565 -13.8303 17.892
H -26.1922 -14.4605 17.7915
O -19.2352 -9.77543 -4.19284
H -18.9904 -8.8655 -4.0245
H -19.1342 -10.2116 -3.34678
O -10.9016 15.2037 10.4494
H -10.0369 14.8731 10.6928
H -11.1948 15.696 11.2162
O -0.33323 -25.0679 24.0328
H -0.326492 -24.7805 23.1198
H -0.827562 -25.8875 24.0227
O 19.0345 -6.52097 18.0248
H 19.3582 -6.41183 18.9189
H 18.1559 -6.1413 18.0395
O -16.8864 -18.1208 23.4449
H -16.3965 -17.4246 23.0073
H -16.5813 -18.0954 24.3518
O 13.393 -28.4964 21.2506
H 14.2465 -28.6995 21.6334
H 13.5984 -28.068 20.4197
O 13.7309 23.993 -10.2704
H 13.3648 23.3639 -9.64866
H 12.9745 24.3109 -10.7635
O 6.32311 23.4774 19.241
H 7.0764 22.9186 19.4319
H 5.70076 23.2897 19.9436
O 27.2014 -14.3188 -17.1531
H 28.125 -14.2404 -16.9142
H 26.9845 -13.4764 -17.5525
O 19.0209 -24.6967 -6.57364
H 19.7935 -24.6187 -7.13331
H 19.3742 -24.8028 -5.69035
O -21.312 -7.70639 -9.23436
H -21.1935 -7.64137 -8.28675
H -20.6672 -8.35669 -9.51282
O 14.6142 -6.19832 -26.0784
H 14.3776 -5.39859 -26.5481
H 15.0893 -6.72334 -26.7225
O 11.2664 18.9329 -21.2992
H 11.1965 19.219 -20.3884
H 12.2072 18.8432 -21.4511
O 29.1304 19.0743 14.4796
H 29.507 19.0127 13.6018
H 29.1692 20.0067 14.6925
O 14.9045 -21.6099 -5.50532
H 14.3734 -22.4016 -5.41861
H 15.7633 -21.9265 -5.78535
O -29.9628 -8.32124 7.70808
H -29.1948 -8.58767 8.2135
H -29.8507 -8.74767 6.85848
O 29.445 13.854 1.64559
H 29.5138 12.9726 1.27872
H -29.7291 13.9854 2.11123
O 5.36007 0.490805 -13.9348
H 6.0308 0.0744924 -14.4761
H 4.96733 -0.230131 -13.4426
O -16.1997 11.013 26.2011
H -15.7444 11.5692 25.5689
H -15.5404 10.8171 26.8668
O 13.9522 2.52095 27.181
H 13.1268 2.05758 27.3229
H 13.6903 3.4091 26.9385
O -25.1179 17.1359 -7.1243
H -26.0324 17.0504 -7.39351
H -25.0812 16.7196 -6.26316
O 12.0991 -10.949 12.8266
H 11.3753 -11.2957 12.305
H 12.879 -11.1207 12.2989
O 4.85688 -1.7154 -12.0126
H 5.14446 -2.14532 -11.2072
H 4.57087 -2.43249 -12.5785
O -21.616 -28.3101 9.27362
H -21.585 -28.7942 10.0987
H -21.7543 -28.982 8.60611
O 15.2167 19.777 -6.34746
H 15.7345 19.1736 -5.81439
H 15.8568 20.2034 -6.91727
O -16.7926 -1.44541 -19.2932
H -16.9288 -0.618963 -19.7565
H -17.3177 -2.08191 -19.7783
O 0.185331 29.5335 23.9261
H 0.183515 28.6571 24.311
H 1.00492 29.926 24.2269
O 21.2907 -2.91826 27.3677
H 20.8405 -3.72453 27.1156
H 20.9362 -2.70532 28.231
O -11.7291 -22.8937 -27.1437
H -12.191 -23.2494 -27.9029
H -10.9832 -22.423 -27.5155
O 4.65365 -17.362 -25.1032
H 5.23501 -18.0683 -24.8216
H 5.0459 -16.5686 -24.7386
O -13.7306 9.39939 -24.0829
H -13.2001 10.19 -24.1816
H -13.5696 9.11305 -23.1839
O 26.7727 13.969 5.89216
H 26.2734 13.6887 5.12506
H 27.687 13.9261 5.61224
O 3.87639 -13.3903 -4.1488
H 4.0956 -12.4617 -4.2264
H 4.62542 -13.8465 -4.5322
O 14.5613 -9.97645 -12.6086
H 15.1663 -10.2165 -11.9068
H 14.353 -10.8052 -13.0398
O -9.50195 27.3617 -24.8053
H -8.86042 27.2946 -24.0981
H -10.2655 27.7713 -24.3986
O -12.413 1.87562 -13.7656
H -12.6415 2.79973 -13.6652
H -12.7386 1.45991 -12.9671
O 17.7911 12.5132 0.098754
H 16.8779 12.5958 0.373173
H 18.2882 12.5107 0.916759
O 21.6232 15.0191 9.03102
H 21.8434 14.1216 8.78169
H 22.116 15.172 9.83724
O -26.8462 -2.92765 -19.4655
H -26.945 -3.87781 -19.526
H -26.1283 -2.72238 -20.0644
O 7.78756 -27.3311 22.3942
H 7.88652 -26.419 22.6671
H 8.66028 -27.5888 22.0973
O 13.8089 4.61329 -12.7856
H 13.5316 4.30186 -11.924
H 13.0981 5.18582 -13.0741
O 3.75449 -15.3818 26.0567
H 4.06945 -14.6768 25.491
H 3.19735 -15.9143 25.489
O -13.3363 12.4111 14.0067
H -13.4717 12.7853 13.1361
H -12.9565 13.1253 14.5185
O 9.67297 -23.8099 -26.5505
H 9.41053 -23.4059 -27.3776
H 10.5559 -24.1412 -26.7147
O -15.4233 9.45279 2.39016
H -14.8809 10.2415 2.39346
H -15.8981 9.49153 1.55991
O 21.094 15.5119 12.0923
H 20.9526 16.0368 12.8801
H 20.2942 15.6285 11.5795
O -10.0323 11.0125 18.2766
H -9.13129 11.077 18.5931
H -10.0299 11.4895 17.4467
O -11.3976 -26.2189 16.8393
H -11.1316 -25.9085 15.9738
H -12.3066 -25.9324 16.928
O 7.83337 25.5798 -29.4154
H 8.32102 25.3605 29.7906
H 7.98007 26.518 -29.2951
O -9.98515 15.2549 15.9605
H -10.8489 14.9163 15.7249
H -9.74829 15.8334 15.2356
O 28.1123 -0.267236 19.8177
H 29.026 -0.471903 19.6189
H 27.8295 -0.972708 20.3996
O -1.81955 -3.54828 22.0145
H -2.19419 -2.72223 22.3203
H -0.909012 -3.52228 22.3085
O 2.73566 -5.7807 22.9398
H 1.85067 -5.45805 22.7697
H 2.76548 -5.91116 23.8876
O -19.7845 -25.5476 -24.6911
H -19.5578 -24.6724 -24.3766
H -20.464 -25.3978 -25.3484
O -8.10851 -23.5804 -12.539
H -8.64528 -23.0131 -13.0924
H -8.57577 -23.6132 -11.7043
O -14.9678 -18.8942 -11.2095
H -14.659 -19.3351 -12.001
H -14.2277 -18.9412 -10.6044
O 11.7552 25.9262 -8.74626
H 12.294 25.6303 -8.01254
H 11.1326 25.2134 -8.88956
O 28.4933 27.4095 25.4651
H 28.5151 27.1674 24.5393
H 27.6547 27.0736 25.7813
O -10.4824 8.5942 -22.99
H -10.9217 8.65795 -23.838
H -9.99619 7.77077 -23.0329
O -19.8786 -5.75898 17.3599
H -20.179 -4.87625 17.5762
H -19.0767 -5.87142 17.8704
O -8.93145 14.251 3.17347
H -9.38926 15.0894 3.2337
H -8.33799 14.3545 2.42961
O 23.2465 -6.67586 21.8108
H 24.0585 -7.12222 21.571
H 23.0681 -6.96641 22.7053
O 22.1844 13.4744 29.2957
H 21.5136 12.9579 28.8492
H 22.6955 12.831 29.7866
O -21.7966 6.791 17.1818
H -20.8702 7.0258 17.1272
H -22.0308 6.52966 16.2912
O -27.0457 4.63517 -11.9786
H -27.3942 5.52666 -11.9742
H -27.7986 4.08424 -12.1927
O 17.5369 29.5111 19.7718
H 18.1731 29.7016 20.4611
H 17.9492 28.8242 19.2479
O -27.752 23.3751 12.1824
H -27.6665 22.4629 11.9052
H -28.6888 23.491 12.3407
O -23.3457 -26.4945 0.189892
H -23.0767 -25.6417 -0.151404
H -24.3013 -26.4841 0.135654
O 2.53536 -4.00817 1.03561
H 2.18182 -4.77433 1.48755
H 3.4374 -4.24906 0.824582
O 5.85894 17.0155 19.9081
H 4.94563 17.0789 19.6287
H 6.14173 17.924 20.0121
O 21.5783 25.9959 17.5972
H 21.1933 25.8956 18.4679
H 21.7762 26.9298 17.5284
O 23.7334 1.63279 1.28263
H 23.3711 0.747507 1.31753
H 24.3539 1.60959 0.55411
O -10.294 23.5468 3.10091
H -11.0535 23.8843 3.57574
H -10.3049 24.0156 2.26646
O 16.8884 13.056 22.9851
H 16.0049 13.2259 23.3119
H 17.0282 12.1227 23.1455
O -21.8177 -17.6843 13.5991
H -22.1741 -17.0231 14.1924
H -20.9891 -17.9456 14.0009
O 25.6427 22.456 -2.89674
H 25.5877 23.3844 -2.67037
H 26.506 22.1838 -2.58538
O 0.922995 22.6207 24.9964
H 0.491863 22.4821 25.8397
H 1.72787 22.1055 25.0508
O -9.61045 24.1127 -15.92
H -9.6178 23.3326 -15.3654
H -8.79508 24.0462 -16.417
O 11.3672 29.9253 1.75613
H 10.5011 -29.6832 1.86986
H 11.9777 -29.3496 1.88942
O -7.29477 -4.91294 -19.0732
H -6.55534 -5.2601 -19.5722
H -6.89391 -4.48403 -18.3172
O -23.8308 8.38533 -15.0273
H -24.0393 8.07525 -15.9086
H -24.4125 9.13347 -14.8923
O -19.5835 13.9077 -29.6478
H -19.2307 13.6731 29.4939
H -19.7511 14.8483 -29.7061
O 0.780974 3.74888 9.21148
H 1.53885 3.80057 9.79387
H 0.0701703 4.15709 9.7058
O -3.88888 -1.50501 4.85456
H -4.08491 -1.4991 5.79146
H -3.50755 -2.36828 4.69461
O 19.9434 -8.85254 10.3081
H 19.4622 -8.42158 9.60173
H 19.5814 -8.47536 11.11
O -25.5066 29.0346 7.25214
H -25.9074 29.8298 6.90088
H -26.1874 28.3666 7.17063
O 13.8253 -19.7357 -27.285
H 14.6403 -20.2369 -27.2547
H 13.62 -19.6674 -28.2174
O -6.63512 -9.7862 -13.5594
H -6.87573 -8.88583 -13.7777
H -5.85811 -9.69975 -13.0071
O -6.7237 12.646 -2.8174
H -6.50489 13.5661 -2.96518
H -6.6616 12.2425 -3.68317
O -9.07165 13.069 25.6021
H -8.30831 13.5102 25.2294
H -9.82092 13.4826 25.1733
O 28.3102 -24.3522 25.9548
H 27.367 -24.3837 25.7946
H 28.5985 -23.5434 25.5317
O 9.71814 -27.8871 11.2695
H 8.98005 -27.7524 11.8639
H 10.2418 -28.5703 11.6881
O -15.0351 -2.38013 -23.0578
H -14.1945 -2.30502 -23.5095
H -15.3643 -3.2441 -23.3056
O 23.398 -28.108 -5.27685
H 23.4785 -28.7912 -4.61127
H 24.0724 -28.3207 -5.92191
O 4.97466 26.4402 -3.68996
H 4.11645 26.8213 -3.50445
H 5.59566 27.1435 -3.50062
O 6.55975 -13.3335 2.34341
H 7.48812 -13.5327 2.2222
H 6.20734 -13.2821 1.45493
O -1.71731 -9.22814 26.5987
H -1.16439 -9.40949 25.8387
H -1.29516 -8.48571 27.031
O 27.1622 -12.2524 13.25
H 26.9382 -11.9394 12.3736
H 26.5143 -11.8434 13.8238
O 12.993 -0.115842 24.6281
H 13.6045 -0.0252235 25.3589
H 13.2487 0.572808 24.0144
O 19.2528 -27.3244 19.048
H 19.8242 -26.9609 19.7245
H 18.3674 -27.1063 19.3391
O -17.0239 21.9109 -28.873
H -16.682 22.6503 -28.3702
H -16.3503 21.2354 -28.7946
O -6.65537 9.71987 6.35718
H -7.0476 8.93182 5.98119
H -7.15256 9.87572 7.16015
O -7.85016 -16.6321 14.2393
H -8.29298 -17.2643 13.6732
H -8.37649 -15.8359 14.1676
O -16.9964 -23.1082 28.5184
H -16.3487 -22.615 29.0219
H -17.043 -22.6538 27.6772
O -25.4332 23.6173 -26.3015
H -24.491 23.7427 -26.4144
H -25.8311 24.3451 -26.7792
O -4.61933 19.9767 29.1874
H -4.72767 20.9135 29.3514
H -5.39769 19.7289 28.6884
O -10.9615 24.0414 7.9576
H -11.7023 23.5928 7.55011
H -11.0077 23.7916 8.88046
O -23.4397 15.8497 29.1686
H -23.9893 15.8468 28.385
H -23.1888 16.7665 29.2823
O 1.53419 8.26411 19.4273
H 1.58108 8.5174 20.3492
H 2.44775 8.17029 19.1574
O 18.3557 -15.8012 19.6188
H 18.546 -16.3141 18.8333
H 19.1461 -15.8783 20.1532
O -27.473 4.57379 26.0279
H -28.2198 4.1129 25.6458
H -27.8016 5.45434 26.2092
O -28.8165 16.4531 -21.4336
H -29.7077 16.1081 -21.4868
H -28.8374 17.2538 -21.9576
O -7.07523 22.8226 0.0134672
H -7.01283 22.7614 0.966667
H -7.75346 23.4802 -0.140887
O 11.3391 -11.6042 19.5194
H 10.6804 -10.9097 19.5232
H 10.8389 -12.4085 19.381
O 24.5765 15.7445 1.35753
H 25.0712 14.987 1.04483
H 24.8305 16.4562 0.77
O -19.3573 19.9377 -2.72968
H -18.962 19.6081 -1.92261
H -18.6867 20.5041 -3.11146
O 29.2472 10.0395 -2.03715
H -29.8486 9.95334 -2.33938
H 29.2203 9.54648 -1.21713
O -21.159 -19.389 -6.7199
H -20.3867 -19.5976 -7.24538
H -21.0555 -18.4636 -6.49804
O -13.1135 17.7078 -6.21176
H -13.6413 18.0502 -5.49034
H -12.2534 17.5461 -5.8242
O -28.7295 16.8912 21.357
H -28.4829 16.0736 20.9246
H -27.9488 17.1481 21.8477
O -21.8854 -24.1472 -12.71
H -21.3554 -24.491 -13.429
H -22.7517 -24.0117 -13.0939
O 4.21558 -20.3451 -23.7604
H 3.41894 -20.3864 -23.2314
H 3.91399 -20.0745 -24.6276
O -22.1741 -19.1298 17.7506
H -22.0085 -20.0087 17.4095
H -21.7378 -18.5455 17.1305
O -8.82342 3.38979 -4.91979
H -9.72922 3.12065 -5.07251
H -8.89572 4.20412 -4.42192
O 8.53927 18.1636 0.429793
H 8.47679 17.5476 -0.300241
H 9.45358 18.1133 0.708634
O 2.33803 23.3053 29.5753
H 1.7805 23.3377 28.7979
H 2.08673 22.4943 -29.9827
O -4.52782 19.2263 -13.8568
H -4.45481 18.2992 -14.0833
H -4.39231 19.2534 -12.9096
O -28.2786 -4.73101 8.74771
H -28.4306 -3.79815 8.89905
H -27.9137 -5.05162 9.5725
O 22.8602 -13.4598 8.66381
H 21.9101 -13.485 8.55071
H 23.014 -13.8984 9.5006
O -22.0575 -19.398 -26.9505
H -22.9337 -19.234 -26.6018
H -21.5979 -18.5649 -26.8461
O 25.2054 26.3539 -0.468909
H 26.1622 26.3343 -0.450441
H 24.9547 26.6576 0.403551
O 1.80288 2.15289 -21.8754
H 1.49183 2.50013 -22.7114
H 1.24912 2.57565 -21.219
O -8.53561 -12.4737 14.8133
H -8.43571 -13.0886 15.54
H -7.79367 -11.8754 14.9015
O 5.67953 -1.56202 23.2982
H 5.46151 -0.643743 23.1387
H 4.92828 -1.90664 23.781
O -4.09094 29.9735 -20.1483
H -3.84622 29.1835 -19.6663
H -4.07982 -29.331 -19.4907
O -15.8151 -0.722489 15.1993
H -16.1064 -0.502064 14.3145
H -15.4381 -1.59845 15.1166
O -0.518039 -26.0794 -28.5678
H 0.0629271 -26.1885 -27.8149
H 0.0669793 -26.0864 -29.3254
O -2.96043 -26.6989 26.3748
H -2.78123 -26.3117 27.2316
H -3.28913 -27.5761 26.5718
O -11.0389 7.18628 12.9769
H -11.8198 6.78247 13.3555
H -10.6407 6.4924 12.4513
O 10.3528 23.5344 -16.6675
H 11.1244 23.093 -16.3124
H 9.62584 23.2128 -16.1343
O -22.9217 -0.939765 16.461
H -23.7496 -1.19451 16.8684
H -23.1502 -0.204398 15.8925
O -20.828 1.99344 18.2577
H -20.1121 2.62003 18.1521
H -21.0036 1.98612 19.1986
O 25.6367 -27.1314 25.2815
H 25.6558 -27.6001 26.1159
H 26.4748 -27.3409 24.8693
O -21.4789 27.3706 1.66489
H -22.4292 27.4189 1.56077
H -21.1333 27.9495 0.985379
O 6.67839 -20.9059 -15.9796
H 6.28192 -20.3341 -16.6369
H 7.47985 -20.4521 -15.7188
O -16.4776 28.9984 0.748749
H -15.5851 28.7891 1.02398
H -17.0197 28.3254 1.16047
O 19.5848 -1.59748 -29.6656
H 18.9079 -2.26485 -29.5536
H 19.1253 -0.766686 -29.5437
O -23.7 5.00625 25.2417
H -23.573 4.8672 26.1802
H -24.5149 4.54672 25.0392
O -29.2951 -21.8995 -4.69345
H -29.3724 -22.678 -4.14198
H -28.6954 -21.3259 -4.21623
O -23.8884 5.72622 -1.96715
H -24.252 6.55993 -2.26552
H -23.418 5.3838 -2.72721
O 7.75998 22.428 -16.3619
H 7.6707 21.6547 -15.8049
H 7.09514 23.0354 -16.0375
O 28.9743 0.151949 -24.8499
H 29.3584 0.978325 -25.1428
H 29.6229 -0.214527 -24.2489
O -18.281 -28.417 -19.0972
H -18.5471 -27.4975 -19.0997
H -17.3406 -28.3951 -19.2744
O -21.797 17.79 9.77469
H -21.8438 16.8341 9.75362
H -21.8786 18.0545 8.8584
O -28.8376 -28.5721 -12.4794
H -28.5164 -27.9666 -11.8112
H -29.2568 -28.0101 -13.131
O -20.2001 -4.14565 4.65767
H -20.3136 -4.74148 3.91717
H -20.0423 -3.29118 4.25617
O 26.713 -10.4914 -13.0304
H 27.3572 -10.4435 -12.324
H 26.5404 -9.57839 -13.2602
O -6.84422 -10.0104 27.4546
H -6.81523 -10.2996 26.5426
H -6.04334 -9.49896 27.5697
O 2.17981 8.81375 12.6395
H 2.01864 8.77318 11.6968
H 1.91054 7.95526 12.9662
O -15.3911 -1.25385 -14.87
H -14.4948 -1.00098 -14.6489
H -15.4809 -1.03372 -15.7972
O -7.23593 -14.5778 16.5083
H -7.76083 -15.3432 16.7427
H -7.53876 -13.8888 17.0997
O 14.2549 -6.85815 -13.3113
H 14.9839 -6.40953 -13.7396
H 13.5113 -6.26521 -13.4196
O 2.9305 -2.99444 -4.92845
H 3.56024 -3.71384 -4.88239
H 3.32397 -2.3697 -5.53764
O 26.4239 -23.2779 21.0271
H 27.3636 -23.2785 20.8449
H 26.1538 -22.3696 20.8921
O 18.1181 19.0748 9.93071
H 18.8888 19.1834 9.37344
H 18.2749 19.6579 10.6734
O 1.88007 26.0198 -11.3078
H 0.967489 26.3038 -11.255
H 2.18276 26.3416 -12.157
O -26.8461 17.3861 -19.6822
H -26.4206 16.5872 -19.3709
H -27.484 17.0824 -20.3279
O -22.7448 10.6579 -23.071
H -23.435 9.99548 -23.0392
H -23.1137 11.3636 -23.6022
O -6.43259 8.92505 27.9085
H -7.29148 8.85155 28.3246
H -6.10343 9.77969 28.1868
O 27.7353 21.0616 29.0569
H 28.3741 20.5708 28.5399
H 28.2181 21.3372 29.8361
O -10.7657 3.46991 25.8578
H -11.7012 3.54276 25.6686
H -10.7274 3.14182 26.7562
O -11.0494 8.68108 -8.87271
H -11.4793 7.85595 -8.64779
H -10.2871 8.42133 -9.39015
O -24.9156 -24.7098 23.5811
H -24.6625 -25.3685 22.9344
H -25.5155 -25.1689 24.169
O -5.18839 -25.0155 11.4306
H -5.3922 -25.3591 10.5607
H -6.0287 -24.7072 11.7697
O 27.1166 4.14698 19.6193
H 26.3519 4.56757 19.2262
H 26.7739 3.34362 20.0109
O -22.2182 -6.765 -12.9454
H -22.9757 -6.22045 -12.7313
H -21.4756 -6.3101 -12.548
O -3.48699 -24.8792 -25.5195
H -3.9727 -24.6924 -26.3229
H -2.76379 -24.2522 -25.525
O 12.4931 12.5698 7.91106
H 12.3272 11.6364 8.04338
H 13.1703 12.5998 7.2352
O 16.0254 -7.5283 9.74364
H 16.2398 -6.94472 10.4714
H 15.5213 -6.98324 9.13947
O -5.52499 -5.35624 23.5057
H -4.94677 -5.89517 22.9658
H -5.75938 -5.91996 24.2429
O 21.1472 -6.59847 -24.6745
H 20.5211 -6.73895 -23.9643
H 20.9813 -5.70224 -24.9669
O -23.6697 -10.8074 -9.88906
H -23.6696 -9.85267 -9.95811
H -24.2808 -10.9964 -9.17694
O 25.7417 8.97679 -13.6889
H 26.2323 9.51399 -13.0668
H 26.315 8.23114 -13.8664
O 14.9389 26.1295 -26.3144
H 14.4259 26.9351 -26.3789
H 15.6437 26.2422 -26.9522
O -12.004 1.70899 4.45838
H -12.0676 2.64931 4.62566
H -12.7308 1.32786 4.95108
O -27.333 18.4541 -8.79502
H -27.9946 18.7257 -8.15885
H -26.8579 19.2581 -9.00519
O 15.7298 26.3916 -23.7157
H 15.2997 27.2155 -23.487
H 15.8563 26.4418 -24.6632
O 20.8368 -3.88727 -6.31448
H 21.758 -4.10879 -6.1786
H 20.3927 -4.73319 -6.37319
O -10.5577 -28.9818 -29.9726
H -10.1133 -28.3214 29.4958
H -11.2443 -29.327 29.4566
O -3.41214 -10.9694 -2.48009
H -3.15349 -10.6232 -1.62601
H -2.9403 -10.4268 -3.1119
O 7.46164 -26.4407 27.7837
H 7.86815 -25.5795 27.8801
H 7.53177 -26.636 26.8493
O -25.5542 -7.14704 20.1215
H -25.7824 -6.2868 19.7692
H -25.0797 -7.57906 19.4113
O -23.511 -13.8064 -8.56742
H -23.016 -14.5965 -8.78397
H -23.4199 -13.7186 -7.61862
O -5.73622 -21.9387 -3.70091
H -6.6304 -21.5972 -3.69784
H -5.54226 -22.0952 -4.6251
O -28.5058 -26.2145 -7.89386
H -28.7459 -25.288 -7.91073
H -29.3408 -26.6776 -7.82688
O 15.6485 -17.3095 -23.172
H 15.4539 -16.3733 -23.2136
H 14.8755 -17.7322 -23.5462
O -0.185855 -19.6365 29.159
H -0.773552 -19.5257 28.4117
H 0.134706 -18.754 29.3452
O -20.0842 6.19184 20.425
H -19.5002 6.69459 20.9929
H -19.7426 5.29834 20.4604
O 1.93254 0.471513 7.73851
H 1.05783 0.10387 7.86484
H 2.26811 0.602664 8.62532
O -14.6318 -29.1264 -24.7089
H -15.0187 -29.7564 -25.317
H -15.3052 -28.9918 -24.0422
O -10.8708 12.0926 29.6589
H -10.9954 13.0266 29.4908
H -10.1396 12.0551 -29.7245
O -20.6205 -0.773531 14.6522
H -21.1059 0.050066 14.6998
H -19.7905 -0.588679 15.0917
O 1.30227 15.3102 -25.3432
H 0.403992 15.4931 -25.0678
H 1.60078 16.1259 -25.7454
O 12.8832 -5.21563 23.3087
H 12.3531 -4.4816 22.9984
H 13.1338 -5.68425 22.5126
O 3.60034 -3.97794 15.9797
H 3.24581 -4.75684 16.4085
H 4.54627 -4.04073 16.1121
O -19.1079 -17.9253 -23.2264
H -19.3104 -17.0815 -22.8225
H -18.4588 -17.7197 -23.8992
O -14.0765 -8.52639 11.7398
H -14.6018 -8.32256 10.966
H -13.3744 -9.08833 11.4121
O 16.4495 -7.17864 -27.7902
H 17.1001 -7.79393 -27.4521
H 15.8315 -7.72539 -28.2755
O -25.8664 -7.43671 29.7617
H -25.5563 -7.60623 28.8722
H -25.6935 -6.50591 29.9029
O 4.78013 18.7546 15.0335
H 5.55563 19.3157 15.0401
H 5.06679 17.9541 14.5939
O 18.2468 1.93766 -23.9009
H 18.5519 2.24581 -23.0475
H 18.6224 1.06153 -23.9879
O 6.94964 -17.0828 17.4657
H 6.4683 -17.0552 16.6388
H 6.30084 -17.3618 18.1118
O 24.613 -24.1511 13.359
H 24.4457 -23.6313 14.1452
H 23.7427 -24.3708 13.0268
O 10.932 -11.192 22.7131
H 11.1745 -10.6029 21.9987
H 11.7641 -11.4251 23.1248
O -8.60181 17.2961 -17.519
H -9.40654 16.8486 -17.7805
H -8.70872 18.1907 -17.8424
O 19.7476 -6.06415 22.6465
H 20.1311 -6.40637 21.839
H 18.8707 -6.44666 22.6766
O -27.2644 12.0437 -13.6805
H -28.2133 11.9193 -13.6988
H -27.1482 12.9835 -13.5406
O -20.1897 18.0127 4.41857
H -20.726 18.1702 3.64155
H -19.3847 18.5053 4.25846
O -3.53917 20.5716 10.6763
H -3.33022 21.2662 11.301
H -2.73686 20.053 10.6169
O -10.7074 -12.3304 -0.224404
H -10.8316 -12.7234 0.639548
H -11.1034 -12.9556 -0.831535
O 5.88068 7.58831 -17.0725
H 5.15548 8.12745 -17.3882
H 6.4078 7.41462 -17.8524
O -11.308 -9.86359 -5.92033
H -10.8769 -10.1381 -6.7297
H -12.2039 -9.65457 -6.18457
O 9.11541 15.0211 26.6703
H 8.29713 15.3344 26.2849
H 9.6916 15.7855 26.6643
O 15.8562 15.5471 -23.9707
H 15.45 15.7376 -23.1252
H 15.7797 14.5976 -24.0651
O 22.9885 -17.326 14.4109
H 23.8466 -17.1709 14.0161
H 22.7741 -18.2279 14.1726
O 15.8047 -21.2181 15.3784
H 15.1056 -20.6889 15.7625
H 15.379 -22.0417 15.1403
O -29.5337 5.51425 -22.0991
H -29.6891 6.39792 -21.7657
H 29.8619 5.42605 -22.836
O -20.2762 -11.533 21.7318
H -19.5853 -11.0156 22.1455
H -21.0304 -10.9444 21.7
O -6.172 23.4898 11.5075
H -5.34169 23.7242 11.922
H -6.14366 23.9205 10.6531
O -1.80187 6.7617 -12.7793
H -1.99128 6.84291 -13.7141
H -1.27068 5.96843 -12.7101
O -6.06397 -1.67239 14.8819
H -6.75834 -1.01394 14.8591
H -6.13038 -2.06116 15.7541
O -25.863 -23.7211 -8.08667
H -26.6185 -23.1391 -8.16876
H -26.0762 -24.2881 -7.34556
O -24.8532 -8.42341 -25.8996
H -24.8484 -7.46853 -25.8331
H -25.6144 -8.6222 -26.4448
O 19.4256 -24.6207 -19.5256
H 18.4879 -24.4995 -19.3762
H 19.5018 -25.5141 -19.8604
O 18.8969 4.52682 -26.5297
H 17.9758 4.4973 -26.2712
H 19.2222 3.64269 -26.3602
O 9.42557 -21.8851 10.7474
H 9.34925 -21.2698 10.0181
H 9.69408 -22.7084 10.3397
O 8.02298 12.5796 21.0418
H 7.98121 12.8739 21.9517
H 7.38488 11.868 20.9902
O -25.9834 -6.19044 6.8198
H -25.7298 -6.12728 5.89896
H -26.8322 -5.75037 6.86572
O 13.0221 -21.3568 21.2192
H 12.915 -21.8308 20.3945
H 13.9587 -21.1652 21.266
O -15.9319 8.20641 10.2568
H -15.0112 8.43622 10.382
H -15.9139 7.46235 9.65491
O -20.2079 15.4042 -16.5706
H -19.7872 16.2284 -16.8157
H -19.7932 14.7475 -17.13
O 19.1616 -22.2898 10.543
H 19.8667 -21.6452 10.4828
H 18.7676 -22.1351 11.4016
O -20.854 -18.5008 25.1289
H -19.9892 -18.3929 24.7331
H -21.3266 -19.0698 24.5213
O 18.7985 -13.9971 14.9832
H 17.8988 -14.0299 15.3083
H 18.7302 -14.2487 14.0622
O -0.436715 23.4535 13.5792
H -1.19297 23.3794 12.9972
H -0.810765 23.6776 14.4313
O 23.7994 17.3569 26.1789
H 23.9027 16.4201 26.0118
H 22.9458 17.5748 25.8045
O -21.374 12.1564 10.4057
H -22.274 11.8377 10.3372
H -21.4105 12.8359 11.0789
O -1.96911 -22.0547 -24.1748
H -2.45216 -21.9222 -24.9905
H -2.44482 -22.753 -23.7249
O -15.0823 -16.5154 16.5954
H -15.3685 -16.8022 17.4626
H -15.8935 -16.4035 16.0997
O 22.9234 -22.4509 11.723
H 23.4878 -22.7445 11.0078
H 22.658 -21.5663 11.4717
O -7.27097 -7.21477 10.5492
H -7.64471 -8.05525 10.814
H -6.64666 -7.00061 11.2424
O 11.0156 18.8698 -29.8159
H 10.9023 19.1112 29.2648
H 10.6353 19.5999 -29.3274
O -27.0655 -1.53615 0.288542
H -27.8939 -1.99651 0.154183
H -27.2739 -0.845702 0.917868
O 11.8621 6.36382 -10.9236
H 11.1281 6.94229 -10.7165
H 12.399 6.36406 -10.1312
O 6.54303 -23.649 15.5617
H 7.3037 -23.0806 15.6823
H 5.98671 -23.4695 16.3197
O 10.1315 -22.6327 -22.2648
H 10.1359 -22.8446 -21.3313
H 10.0213 -21.6824 -22.2946
O -6.5947 28.0439 -18.2471
H -6.67282 28.0518 -19.201
H -6.83562 28.9307 -17.9792
O -11.9815 12.0244 25.6167
H -11.6087 12.7708 26.0858
H -12.7137 11.7388 26.1631
O -1.03598 2.48192 -22.6437
H -1.82539 2.29466 -23.1517
H -0.97509 3.43717 -22.6383
O 18.7377 -17.3559 -14.7098
H 18.2551 -17.8594 -15.3654
H 18.0665 -17.0518 -14.0989
O -10.2637 -13.7745 7.66819
H -10.6052 -12.8863 7.56434
H -9.39091 -13.7433 7.27644
O 25.9989 13.9176 -4.57944
H 25.9654 13.3226 -5.32848
H 25.2346 13.6838 -4.05276
O 24.1035 6.06021 -7.31467
H 23.7382 6.17588 -6.43751
H 24.0022 5.12573 -7.49552
O -16.468 -18.6061 -13.2749
H -16.0728 -18.9357 -12.4677
H -15.7701 -18.1044 -13.6963
O 29.9132 -26.7233 28.6405
H 29.5753 -27.4644 28.1376
H 29.1311 -26.2755 28.9628
O 25.4055 0.0809575 -24.2773
H 25.0549 0.711153 -23.6479
H 24.635 -0.377907 -24.612
O 7.88079 -8.48367 -23.9187
H 7.41454 -9.07318 -24.5114
H 7.26294 -8.32226 -23.2056
O -14.3542 -9.15503 22.9164
H -14.6892 -9.44969 22.0696
H -14.3456 -8.20004 22.852
O 3.73441 25.2015 25.5842
H 3.77749 25.1813 26.5402
H 3.75394 24.2806 25.3236
O -17.3551 9.69784 -14.3213
H -17.4977 8.76349 -14.17
H -17.1372 9.75985 -15.2513
O 15.983 28.5838 9.55155
H 15.8275 28.1474 10.3892
H 16.4721 27.9436 9.03458
O 25.5895 14.0617 -25.208
H 26.5406 14.0437 -25.3139
H 25.2758 14.5864 -25.9446
O -18.8391 3.53173 -21.2746
H -18.6687 4.10886 -20.5302
H -19.5716 3.94243 -21.7339
O -16.2749 -25.1948 -4.30181
H -16.6373 -24.3091 -4.32365
H -17.0256 -25.7654 -4.46607
O 0.716977 3.85868 -17.7126
H 1.42126 4.42078 -18.0355
H 0.0786807 3.84015 -18.4257
O -8.33715 -0.486725 27.6401
H -8.53138 -0.338369 26.7146
H -7.47538 -0.0911637 27.7709
O 14.43 -0.550674 0.921052
H 13.9516 -0.571539 0.0922274
H 14.2956 0.336831 1.25346
O -4.76043 8.74066 24.9894
H -5.50012 8.58038 25.5754
H -5.09705 8.53699 24.1168
O 27.8558 -2.79766 20.7303
H 28.1261 -3.52162 21.2951
H 27.4416 -3.2215 19.9786
O -21.2951 -23.621 11.5206
H -21.7232 -22.7739 11.6445
H -21.9015 -24.1184 10.972
O -26.9372 11.1647 -9.81414
H -27.8515 10.9092 -9.69189
H -26.4509 10.6195 -9.19561
O 16.4682 0.699041 5.46994
H 16.6624 1.20813 6.25692
H 16.4532 1.3451 4.76381
O 27.0417 -15.0784 -9.82509
H 26.5301 -15.7708 -10.2436
H 26.5388 -14.847 -9.04421
O 13.4246 -18.9479 13.8284
H 13.1199 -18.2327 13.27
H 14.2555 -19.2195 13.4385
O -13.2471 24.1599 -7.06831
H -13.2811 24.8191 -7.7615
H -13.0483 23.3422 -7.52434
O 14.2233 0.915876 -16.4962
H 14.074 0.752014 -17.4274
H 13.9019 1.80634 -16.3547
O 11.8604 21.2605 16.1067
H 11.0772 21.5463 15.6363
H 11.5759 20.4924 16.602
O 22.2913 28.2204 29.3767
H 22.1926 28.0901 -29.6801
H 23.2328 28.1444 29.2212
O 13.0332 -4.85869 -29.5365
H 12.255 -5.415 -29.5009
H 12.9463 -4.27603 -28.7821
O -20.8799 29.7529 14.241
H -20.9565 -29.3004 14.122
H -21.0092 29.3896 13.3649
O -20.9559 -17.4832 0.888796
H -20.6733 -18.1284 1.53694
H -20.3703 -17.619 0.143902
O -12.6637 1.66365 -23.8806
H -12.1219 1.79626 -23.1027
H -13.4766 1.28555 -23.5452
O -6.31666 -9.645 -22.5137
H -6.97992 -9.20545 -21.9817
H -6.7857 -9.9231 -23.3004
O 19.8534 23.8247 26.3107
H 20.6119 23.8073 25.7272
H 19.7377 24.75 26.5265
O 1.75235 -27.812 3.72109
H 1.83132 -26.8638 3.61725
H 2.18227 -28.1749 2.94667
O 9.01989 0.271347 -13.9374
H 8.53706 0.408951 -14.7523
H 9.72729 -0.327813 -14.1757
O -22.7822 -21.5885 10.6666
H -22.3535 -21.1525 9.93008
H -23.3467 -20.916 11.0479
O -3.64551 16.1493 28.9162
H -3.92807 16.4573 29.7773
H -4.44851 15.8411 28.4962
O 14.9505 5.88647 -3.35943
H 14.1897 6.00855 -3.92735
H 14.5973 5.93621 -2.47115
O 11.4864 -0.400103 6.86492
H 10.6198 0.0031722 6.81318
H 11.3756 -1.25979 6.45882
O -15.1412 -11.705 3.9161
H -15.0309 -10.9804 4.53175
H -14.4417 -12.3188 4.14005
O 5.35139 23.2918 -23.9775
H 5.98721 23.626 -23.3449
H 5.80187 22.5664 -24.4102
O -19.2354 2.34557 14.8552
H -19.1563 3.1667 15.3407
H -18.3358 2.11791 14.6204
O -17.6838 2.6642 -29.4327
H -16.9589 2.11464 -29.7305
H -17.9523 2.27671 -28.5997
O 24.3938 -19.6611 -17.1209
H 24.5721 -20.593 -17.2476
H 24.3771 -19.547 -16.1706
O -13.8454 0.184394 -3.34843
H -13.4008 0.470406 -4.14638
H -14.6664 0.676436 -3.34168
O -27.0952 -9.49113 -18.2508
H -26.9983 -10.2091 -17.6252
H -27.3112 -8.73038 -17.7116
O -17.935 14.6848 -3.50013
H -18.4186 14.9497 -2.7177
H -17.0454 15.0062 -3.35273
O 8.08734 5.84094 -24.5932
H 7.60137 6.43089 -24.017
H 8.32406 6.38217 -25.3463
O -2.17369 -28.6059 7.7067
H -2.13614 -27.6529 7.62517
H -1.6512 -28.9303 6.97321
O -5.4055 14.0438 3.24886
H -6.08641 13.763 3.8602
H -4.58503 13.8972 3.71955
O -19.6244 -23.8238 -29.2899
H -18.7917 -24.1475 -28.9462
H -19.5707 -22.8731 -29.1926
O 4.57164 -5.86743 10.7918
H 4.30442 -5.60904 11.6739
H 5.01757 -5.09665 10.4407
O -7.35382 7.14594 5.0429
H -7.84729 6.80682 5.78971
H -7.1995 6.38026 4.48959
O -16.8817 -0.473482 -3.13151
H -16.0418 -0.925119 -3.21447
H -16.8053 0.283746 -3.71204
O -2.49097 5.67788 -25.5752
H -2.02077 5.27426 -24.8456
H -3.16137 5.03718 -25.8124
O -23.3853 27.8131 -8.63078
H -22.6418 28.3979 -8.48439
H -23.1812 27.0321 -8.11634
O -26.6633 -18.9745 -5.51438
H -26.0974 -19.6837 -5.81941
H -27.5186 -19.3862 -5.39085
O -29.4423 23.9159 -2.03773
H -28.6351 24.1082 -2.51493
H -29.756 23.0953 -2.41773
O 10.5528 14.0443 2.93701
H 10.3074 13.1194 2.91302
H 9.74888 14.5119 2.71024
O -23.4134 -2.69687 -3.19721
H -23.2384 -1.76483 -3.32725
H -22.6254 -3.13595 -3.51753
O -23.724 -4.42386 -25.3312
H -23.1364 -4.33748 -26.0818
H -24.5826 -4.16737 -25.6678
O 9.46351 18.0722 -23.0234
H 9.6558 17.1459 -23.1689
H 10.0702 18.3375 -22.3321
O 21.9869 10.5903 19.9533
H 21.8514 9.78654 19.4515
H 21.1043 10.9228 20.1169
O -5.98572 4.4057 15.7419
H -5.76187 4.64222 14.8418
H -6.0911 3.45455 15.721
O 28.7145 25.6833 -1.61942
H 29.2804 26.4517 -1.5441
H 29.3148 24.9386 -1.58285
O 8.25281 26.9313 -25.8738
H 7.53275 26.6486 -25.31
H 9.02817 26.5111 -25.5017
O -5.77487 15.9305 13.227
H -6.13215 15.0771 13.4724
H -5.21394 15.748 12.4731
O -24.9811 10.8518 0.251212
H -25.6118 10.239 0.629128
H -25.2808 11.7136 0.540556
O -8.92833 21.2854 -1.68539
H -8.29894 21.352 -0.967288
H -9.22203 22.1847 -1.83119
O 28.4273 17.8899 9.66506
H 28.7913 17.5164 10.4677
H 29.1929 18.1142 9.1361
O -23.2461 15.9194 -9.03815
H -23.5988 16.5319 -8.39266
H -24.0172 15.5762 -9.48964
O -21.6135 28.2492 9.50906
H -21.4044 27.3222 9.39367
H -21.639 28.602 8.61961
O 18.79 2.01146 28.6212
H 19.687 2.33485 28.7053
H 18.3475 2.66814 28.0834
O 9.27369 6.31284 -2.11042
H 8.4434 6.72556 -2.34813
H 9.81291 7.03135 -1.77995
O 9.63829 14.1519 14.8847
H 10.3202 13.8467 14.2863
H 10.0207 14.9172 15.3141
O -24.7442 10.79 22.022
H -24.3984 10.746 22.9134
H -24.2757 10.1026 21.5486
O 29.511 -28.9425 -6.27242
H -29.7394 -29.4247 -5.92332
H 29.3857 -29.2979 -7.15234
O -26.1191 26.2129 -23.0429
H -25.6865 25.8065 -23.7938
H -26.914 26.6033 -23.4062
O 24.4723 26.2272 19.3673
H 24.9277 27.0653 19.4474
H 23.6487 26.3556 19.8379
O 0.560909 14.274 10.4881
H -0.112102 14.3102 9.80838
H 1.09832 13.5174 10.2536
O -26.1018 -0.0178107 -4.20711
H -27.0381 0.160899 -4.12002
H -25.7453 0.767169 -4.623
O -17.5522 -22.1154 1.66075
H -17.1951 -21.3578 1.19735
H -17.7889 -22.7313 0.967233
O 22.1355 -1.52405 21.6991
H 22.2872 -2.4492 21.5059
H 22.0376 -1.49052 22.6507
O 5.70948 -7.53087 -28.3666
H 6.29498 -7.50286 -29.1233
H 6.2047 -7.1093 -27.6642
O -19.5714 18.8351 26.4362
H -18.7459 18.3712 26.2962
H -20.1346 18.1962 26.873
O 18.4169 22.1634 17.3975
H 18.1462 22.7772 16.7148
H 18.0376 22.5168 18.2022
O 25.2877 16.7427 9.13825
H 25.0463 15.8256 9.00851
H 26.2414 16.7536 9.05662
O -5.29539 6.44987 -28.2915
H -6.09524 6.64097 -28.7814
H -4.97705 5.62726 -28.6633
O 13.8363 1.88069 10.2489
H 14.686 1.48099 10.0635
H 13.7614 2.59161 9.61231
O 27.3302 -9.76867 6.74186
H 28.2209 -10.0668 6.55727
H 27.3786 -8.81477 6.67885
O -10.4534 -29.0979 -17.5941
H -10.4446 -28.1421 -17.5441
H -10.3314 -29.3867 -16.6897
O -4.9989 -5.84969 -5.13422
H -5.60135 -6.40141 -4.63533
H -4.17224 -6.33223 -5.13005
O -24.9991 3.16336 -20.7441
H -24.4605 3.95365 -20.7042
H -25.8042 3.39813 -20.2827
O 2.82522 14.3261 -28.6266
H 3.16511 15.1165 -28.207
H 2.46584 14.6321 -29.4594
O -12.2052 11.6676 -3.61848
H -11.6418 11.79 -2.85441
H -11.6605 11.1901 -4.24425
O -1.8662 -23.1929 -14.9549
H -1.81551 -22.6891 -14.1425
H -2.08318 -22.5454 -15.6256
O 19.53 26.7567 -18.1133
H 19.7239 25.8886 -17.7597
H 19.9327 26.7575 -18.9817
O 16.1102 20.9011 -20.3326
H 15.387 21.5262 -20.2848
H 16.556 20.9849 -19.4897
O -16.0417 -20.2136 0.0998433
H -16.4213 -20.0816 -0.768877
H -15.4035 -19.5063 0.192948
O 27.5434 -8.28154 29.8078
H 27.6923 -7.52889 29.2354
H 26.8271 -8.00899 -29.6187
O -9.60307 -2.24708 0.247511
H -9.19655 -1.4691 -0.134218
H -8.87031 -2.75275 0.599056
O -4.40599 8.56254 -8.37905
H -4.00097 8.30109 -9.20599
H -3.83944 8.18705 -7.70506
O 26.1812 1.3427 26.3533
H 26.8073 1.68938 25.7177
H 26.1774 0.398524 26.196
O 28.8432 -5.0885 18.8198
H 28.0737 -5.48769 19.2256
H 28.4913 -4.37296 18.2903
O 28.8371 -28.3478 -8.86382
H 27.9121 -28.5863 -8.80251
H 29.14 -28.7667 -9.66942
O -13.015 -11.5949 23.6763
H -13.2579 -10.7002 23.438
H -13.2992 -11.6864 24.5858
O 10.4451 26.7268 26.0005
H 10.6966 26.7244 25.0769
H 11.0409 27.3541 26.4099
O -18.2045 28.0988 11.1434
H -18.4937 28.2853 10.2502
H -18.1215 27.1457 11.1747
O 1.5218 -8.54824 -21.3807
H 1.34236 -9.43875 -21.6824
H 0.773544 -8.3274 -20.8262
O 4.23966 -26.0035 14.0821
H 4.10106 -26.9482 14.15
H 4.90475 -25.9069 13.4006
O -28.0108 14.897 2.09133
H -27.3734 14.2038 2.26281
H -28.2124 14.8124 1.15943
O 26.7323 -27.4304 28.4104
H 26.711 -27.6108 29.3503
H 26.3491 -26.5574 28.3249
O 15.9812 -26.0692 2.65827
H 15.431 -26.2177 1.88921
H 16.4982 -25.2945 2.43747
O -28.2838 8.61628 -4.8142
H -28.6583 7.85523 -4.37061
H -27.5057 8.27729 -5.25672
O 5.21455 6.88399 -10.3953
H 4.266 6.96288 -10.294
H 5.33119 6.47736 -11.2539
O 5.10591 -8.94158 -15.1743
H 5.34341 -9.86505 -15.0905
H 4.33217 -8.94296 -15.7378
O 27.0224 -18.8563 -14.7117
H 27.3916 -19.6979 -14.9795
H 26.1095 -18.8931 -14.9972
O 3.45985 29.4311 -15.1055
H 3.39556 -29.6158 -15.1673
H 3.99412 29.2767 -14.3264
O 10.0971 -29.2313 26.8099
H 10.9817 -29.5075 26.57
H 9.54825 -29.5262 26.0833
O -9.55936 -9.41673 29.0941
H -9.17815 -8.53888 29.1109
H -8.88206 -9.97974 29.4689
O -11.34 12.9006 22.447
H -11.6008 13.0867 23.349
H -10.9969 13.7322 22.1199
O 19.8475 -1.33184 2.26575
H 19.1442 -1.53576 2.88223
H 19.43 -1.36722 1.40513
O 21.5432 0.140516 -9.13192
H 21.5297 -0.0523887 -8.19446
H 21.2252 1.04106 -9.19624
O 18.2429 5.77671 -1.78997
H 18.8746 6.1016 -1.14834
H 17.9012 6.56551 -2.21097
O -2.64969 13.5037 -9.64132
H -1.92627 13.8272 -10.1782
H -2.24571 13.2832 -8.80205
O -20.5449 29.5016 17.8904
H -20.7697 29.1802 18.7635
H -20.8064 28.7952 17.2998
O 2.88036 26.8322 -27.5304
H 2.55042 27.6808 -27.8258
H 2.1209 26.4036 -27.1358
O -3.64349 -9.06771 -11.3398
H -3.05648 -9.33748 -10.6335
H -4.29391 -8.51092 -10.9119
O 20.7916 28.7736 16.9523
H 20.33 29.2155 16.2397
H 21.4697 28.2581 16.5158
O 6.35089 -10.6228 -28.5722
H 6.83635 -10.6676 -29.396
H 5.51786 -10.2136 -28.8066
O -1.11827 5.65998 -9.15001
H -1.67885 5.47322 -8.39695
H -0.417327 6.20818 -8.79731
O 3.31136 21.6021 18.6844
H 3.9989 21.4617 18.0334
H 2.9415 22.4566 18.4624
O -10.7779 -26.5684 4.14595
H -11.0258 -26.7835 3.24679
H -11.3889 -27.0664 4.68903
O -18.6477 3.1804 -9.47705
H -18.7871 2.2392 -9.37245
H -19.5268 3.54231 -9.5883
O 18.729 2.66299 0.950853
H 18.147 3.42279 0.937016
H 19.5092 2.96671 1.41489
O 15.1832 -5.55317 8.02317
H 14.5799 -4.82808 7.86029
H 15.9023 -5.40988 7.40788
O -12.8118 -8.21791 -9.90107
H -12.3689 -9.06631 -9.88375
H -12.2243 -7.63077 -9.42522
O 26.9751 24.1865 -22.7094
H 26.6227 23.2974 -22.7489
H 26.4741 24.6725 -23.3644
O -25.0804 -8.15681 4.93481
H -25.1869 -8.75931 4.19868
H -24.8497 -7.32097 4.52939
O 4.58246 18.3438 -17.3605
H 4.27235 17.8976 -18.1485
H 3.87803 18.9517 -17.1359
O -28.0096 26.2317 17.8462
H -27.1473 26.2372 17.4306
H -28.6249 26.1239 17.121
O 7.05445 -26.6109 -16.3238
H 7.0075 -27.474 -15.9125
H 6.14652 -26.3984 -16.5399
O 12.5407 -15.2605 22.8317
H 12.2502 -14.6231 23.484
H 12.8753 -14.729 22.1093
O -16.9087 8.72158 16.7525
H -16.434 7.89796 16.8644
H -17.8113 8.51295 16.9934
O -25.0588 13.2478 13.31
H -24.2003 13.0643 13.6913
H -24.9204 13.1834 12.365
O 2.85253 -25.5381 29.718
H 2.02507 -25.6743 29.2565
H 2.6661 -25.7868 -29.3767
O 1.80584 5.05451 7.06549
H 1.54359 4.40111 6.41701
H 1.37488 4.77682 7.87381
O 0.145729 -2.26296 -6.02877
H -0.360078 -1.90983 -5.29686
H 0.252427 -3.19123 -5.82102
O -23.9457 -23.8281 -26.6388
H -24.6727 -23.6589 -26.0395
H -24.338 -23.7828 -27.5108
O -11.8023 -3.83071 21.1833
H -12.5306 -4.27292 20.7471
H -12.1769 -3.49929 21.9994
O 10.2046 12.7666 -2.75127
H 11.1353 12.5606 -2.83919
H 10.1874 13.6736 -2.44587
O -28.777 -22.6867 -28.3763
H -28.7683 -21.8218 -28.7863
H -27.9574 -23.0936 -28.657
O -15.948 12.1723 4.81559
H -16.8974 12.0515 4.80632
H -15.605 11.4153 4.34072
O -21.476 27.9985 -5.2013
H -22.2034 28.4773 -5.59858
H -20.6924 28.3839 -5.59337
O -26.0877 13.577 -11.1297
H -25.1682 13.3343 -11.2386
H -26.4545 12.8862 -10.5779
O -2.26695 27.4601 26.133
H -3.01235 27.9379 25.7692
H -2.37725 27.5292 27.0813
O 5.23183 -6.5925 -13.3178
H 4.29244 -6.6525 -13.4916
H 5.46194 -5.69296 -13.5505
O 5.09735 -24.364 20.3926
H 4.796 -23.5744 20.8421
H 5.9796 -24.1468 20.0915
O -0.719919 18.4412 -23.7217
H -1.48554 18.0692 -24.1596
H -0.42752 19.1424 -24.304
O 13.911 26.1905 13.9045
H 14.4479 26.0286 14.6802
H 14.5362 26.4606 13.232
O -20.1557 13.3073 -21.9573
H -20.7257 14.0484 -22.1627
H -19.3062 13.7041 -21.7645
O -3.57064 18.0714 20.8622
H -3.08197 17.4828 20.2869
H -3.32817 17.7982 21.747
O -11.7123 14.6957 24.621
H -11.7891 14.8271 25.566
H -12.4968 14.2016 24.3829
O 29.8382 -4.04651 -7.02877
H 28.9499 -4.00677 -6.67447
H -29.6212 -4.32672 -6.29022
O 16.841 -19.3894 25.0167
H 15.9465 -19.1438 24.7808
H 17.0089 -18.9255 25.8369
O -26.5166 -27.3083 -17.241
H -26.7152 -28.0651 -17.7924
H -26.2645 -27.6851 -16.398
O -1.7897 4.06159 23.1677
H -1.34206 4.59767 23.8223
H -2.70421 4.34047 23.2138
O 16.8331 -25.2096 -12.9548
H 17.2565 -24.8211 -13.7203
H 17.0724 -26.1356 -12.9922
O -8.36815 -27.9409 -20.7778
H -7.56103 -28.454 -20.8171
H -9.05318 -28.5846 -20.5972
O 26.3496 4.99102 0.979646
H 25.6088 4.67656 0.461418
H 25.9489 5.41429 1.73892
O -16.2538 -20.0583 3.49317
H -15.9811 -20.0553 4.41068
H -15.9075 -20.8788 3.14249
O 0.548434 -20.9722 20.9877
H 1.34347 -21.2482 21.4438
H 0.719195 -20.0648 20.7354
O -17.7316 -17.7147 -26.072
H -17.8204 -17.7206 -27.0251
H -16.8689 -18.0961 -25.909
O -27.1858 14.8848 -14.1072
H -27.7235 15.3443 -14.7522
H -26.4264 15.4533 -13.9792
O -19.4263 -19.8139 -25.369
H -19.7152 -19.4792 -24.52
H -18.9493 -19.0845 -25.7648
O -29.8323 -22.5715 -24.9127
H 29.596 -23.3391 -24.8995
H -29.7403 -22.3567 -25.8409
O -16.9585 -22.258 22.0139
H -16.9748 -21.4223 22.4804
H -17.6429 -22.78 22.4325
O -10.3367 24.5633 -24.8818
H -11.0913 24.3118 -25.4142
H -10.0381 25.3888 -25.2636
O -1.86195 3.69398 20.5142
H -1.92288 4.44011 21.1107
H -2.60127 3.8038 19.9162
O -9.18698 -26.0628 -14.9169
H -9.7835 -26.7595 -14.643
H -8.8675 -25.6846 -14.0977
O 20.5324 10.951 14.0679
H 21.2635 11.157 13.4854
H 19.8666 11.606 13.8584
O 6.28133 10.8804 -18.3139
H 5.90917 11.472 -18.9679
H 6.56506 10.1161 -18.8154
O 1.13506 28.1097 7.94243
H 1.75691 28.7784 7.65538
H 0.288413 28.4127 7.61436
O 19.3995 -23.8968 6.46663
H 20.2078 -23.4565 6.72947
H 19.175 -24.4521 7.21325
O 28.6467 12.4087 -8.87085
H 28.0977 11.7018 -9.21023
H 28.5071 13.1342 -9.47948
O -23.9398 -9.3944 -5.49603
H -24.1991 -8.7028 -4.88719
H -24.4094 -9.19062 -6.30483
O -13.2549 -24.9175 2.15145
H -12.4273 -24.8254 1.67952
H -13.251 -24.2001 2.78515
O -17.0132 3.10823 -17.7717
H -17.7246 3.25299 -17.1479
H -16.4622 2.44408 -17.3575
O 21.5911 -3.67502 3.26172
H 20.7353 -3.28028 3.09447
H 21.4281 -4.61806 3.24388
O -26.935 -12.6918 -14.7951
H -26.9242 -11.7459 -14.6485
H -27.862 -12.9286 -14.7657
