ITEM: TIMESTEP
0
ITEM: NUMBER OF ATOMS
5541
ITEM: BOX BOUNDS pp pp pp
0.0 38.2
0.0 38.2
0.0 38.2
ITEM: ATOMS id type x y z
1 1 6.747 13.294 14.716
2 1 9.443 13.475 21.926
3 1 6.833 11.362 16.901
4 1 8.758 13.358 16.711
5 1 10.213 12.066 18.634
6 1 7.831 14.924 20.522
7 1 10.275 13.313 19.322
8 1 12.468 13.713 18.416
9 1 10.833 8.935 17.971
10 1 7.392 16.120 19.551
11 1 8.541 12.758 16.381
12 1 7.590 8.392 18.702
13 1 9.878 10.866 19.776
14 1 10.328 11.755 17.759
15 1 10.833 15.289 18.172
16 1 9.997 13.457 18.983
17 1 8.571 12.720 17.578
18 1 10.330 12.930 13.334
19 1 8.826 14.488 16.993
20 1 11.333 12.382 15.436
21 1 10.825 14.728 13.858
22 1 9.597 13.275 12.675
23 1 9.779 12.866 16.683
24 1 9.937 11.299 18.424
25 1 9.568 9.911 17.800
26 1 8.681 10.992 18.976
27 1 7.723 8.980 16.042
28 1 7.248 10.533 17.858
29 1 9.384 8.842 16.767
30 1 7.721 11.435 13.923
31 1 10.439 10.164 18.566
32 1 8.214 11.302 15.960
33 1 8.475 9.273 19.577
34 1 10.256 9.358 19.096
35 1 10.133 14.422 15.650
36 1 8.834 12.722 20.367
37 1 10.368 10.808 21.737
38 1 7.381 10.108 22.352
39 1 9.927 11.974 18.004
40 1 8.261 12.961 20.820
41 1 11.765 11.205 18.943
42 1 12.078 13.715 16.908
43 1 6.419 9.478 16.225
44 1 7.721 11.936 16.422
45 1 7.144 12.601 22.806
46 1 10.784 10.507 16.922
47 1 11.597 13.556 19.429
48 1 8.793 12.700 18.802
49 1 8.512 10.386 16.941
50 1 10.919 12.805 14.746
51 1 9.894 14.128 17.949
52 1 8.234 10.791 17.026
53 1 9.621 14.949 19.313
54 1 8.137 12.604 19.418
55 1 8.693 14.824 19.266
56 1 6.785 14.156 17.760
57 1 9.884 8.619 16.801
58 1 6.829 13.915 18.341
59 1 10.067 12.753 17.964
60 1 10.288 11.114 17.419
61 1 33.694 17.692 21.683
62 1 30.607 11.638 19.366
63 1 30.019 12.392 19.162
64 1 31.978 15.723 24.802
65 1 32.421 17.424 19.709
66 1 31.311 12.235 21.781
67 1 31.206 13.405 20.245
68 1 30.461 11.484 22.380
69 1 30.682 12.730 19.757
70 1 29.381 12.215 16.965
71 1 31.646 13.441 21.565
72 1 31.904 14.112 22.013
73 1 31.000 12.717 25.019
74 1 30.443 12.644 17.751
75 1 33.887 13.629 21.310
76 1 34.281 14.184 18.803
77 1 28.827 15.058 22.873
78 1 30.223 15.389 17.190
79 1 28.049 13.422 21.555
80 1 33.004 10.882 22.243
81 1 33.848 14.796 21.105
82 1 30.583 15.080 21.961
83 1 29.953 12.465 21.293
84 1 30.486 13.641 23.836
85 1 27.881 14.559 22.056
86 1 30.630 15.736 20.298
87 1 30.480 13.054 18.471
88 1 27.900 12.579 18.529
89 1 29.125 16.331 22.000
90 1 29.389 13.494 19.431
91 1 30.253 15.431 16.801
92 1 30.414 16.403 17.577
93 1 29.202 12.667 19.785
94 1 29.010 16.207 21.241
95 1 30.421 10.968 20.728
96 1 29.550 13.218 19.392
97 1 29.529 15.585 22.258
98 1 29.138 12.891 19.797
99 1 30.809 13.664 19.708
100 1 30.912 14.816 16.747
101 1 31.322 15.498 21.039
102 1 28.049 11.547 20.285
103 1 29.215 12.195 20.268
104 1 27.607 15.627 20.643
105 1 33.662 13.343 22.142
106 1 32.528 14.149 24.243
107 1 26.298 16.073 23.446
108 1 29.683 15.330 20.405
109 1 33.293 13.892 15.864
110 1 31.939 14.884 22.737
111 1 29.959 12.930 23.871
112 1 30.398 11.616 21.493
113 1 32.771 17.027 22.485
114 1 30.628 17.820 19.301
115 1 28.690 17.108 20.327
116 1 30.035 16.601 19.581
117 1 29.922 13.158 22.218
118 1 29.160 15.748 17.664
119 1 31.637 15.630 21.253
120 1 30.727 15.302 20.447
121 1 11.788 20.560 29.134
122 1 12.495 22.998 28.080
123 1 15.039 22.109 26.583
124 1 14.276 21.070 29.752
125 1 14.052 24.236 19.621
126 1 14.648 21.833 24.447
127 1 14.424 17.135 25.168
128 1 13.459 19.737 25.268
129 1 13.460 23.537 25.499
130 1 15.281 26.874 29.116
131 1 14.845 21.176 25.629
132 1 14.809 22.408 26.065
133 1 11.598 21.816 25.357
134 1 13.454 22.631 21.275
135 1 15.519 23.846 23.963
136 1 13.658 22.621 25.100
137 1 13.846 22.530 24.105
138 1 14.441 22.624 29.118
139 1 12.611 23.080 26.187
140 1 15.689 26.813 24.437
141 1 15.728 22.791 27.203
142 1 12.939 21.943 27.811
143 1 15.532 20.468 24.077
144 1 13.070 27.134 26.243
145 1 13.760 22.401 26.721
146 1 14.594 25.522 23.472
147 1 15.025 23.189 23.827
148 1 14.099 24.846 22.641
149 1 16.431 23.739 23.601
150 1 14.209 24.020 24.485
151 1 14.189 22.080 26.823
152 1 16.620 22.660 27.290
153 1 12.561 22.999 29.941
154 1 12.282 22.702 26.012
155 1 12.671 24.401 25.289
156 1 15.471 20.436 22.085
157 1 14.711 21.908 21.754
158 1 13.123 21.475 26.597
159 1 13.775 21.199 23.971
160 1 15.512 22.631 28.188
161 1 15.031 22.771 24.893
162 1 14.045 23.612 24.416
163 1 11.355 24.446 25.472
164 1 16.649 19.886 26.691
165 1 16.312 20.948 19.554
166 1 13.460 23.095 24.392
167 1 14.857 23.881 24.829
168 1 16.960 24.028 29.458
169 1 16.807 20.765 25.473
170 1 13.250 21.214 22.926
171 1 15.869 21.011 22.816
172 1 11.936 21.856 26.905
173 1 11.968 24.016 25.413
174 1 16.707 23.517 26.097
175 1 13.843 23.210 26.113
176 1 12.499 22.484 24.954
177 1 13.445 22.149 27.842
178 1 15.263 21.685 27.218
179 1 13.782 20.994 25.569
180 1 12.845 20.358 23.691
181 1 13.853 -2.915 2.933
182 1 11.686 3.271 2.370
183 1 11.086 1.660 5.412
184 1 -5.311 0.181 21.001
185 1 -8.387 -1.221 18.447
186 1 -10.527 -3.140 18.919
187 1 7.843 24.144 13.340
188 1 9.804 24.930 13.239
189 1 10.778 21.791 15.268
190 1 17.793 13.388 0.510
191 1 17.722 12.720 -3.268
192 1 16.389 15.563 0.924
193 1 12.402 12.096 8.624
194 1 12.929 7.720 11.028
195 1 13.599 11.845 5.275
196 1 -1.886 3.484 1.835
197 1 -2.218 5.142 4.185
198 1 -5.801 4.734 3.081
199 1 21.801 -0.744 5.242
200 1 21.745 -4.337 7.347
201 1 21.839 -6.530 3.275
202 1 20.412 4.585 19.381
203 1 22.196 10.269 22.942
204 1 25.407 7.776 18.373
205 1 20.515 13.032 19.469
206 1 19.009 14.130 21.404
207 1 20.210 15.021 21.829
208 1 29.030 -2.084 13.440
209 1 26.492 -4.071 12.426
210 1 25.223 -3.816 12.758
211 1 22.430 -3.267 3.498
212 1 25.163 -5.387 4.364
213 1 22.533 -3.189 3.979
214 1 44.884 13.523 9.361
215 1 44.118 12.751 11.736
216 1 43.893 12.349 9.744
217 1 36.974 21.258 18.770
218 1 39.507 20.160 21.109
219 1 36.947 16.333 21.349
220 1 0.049 7.188 9.522
221 1 1.078 10.932 4.983
222 1 -0.539 6.714 7.106
223 1 8.047 -1.949 10.609
224 1 6.017 0.456 7.082
225 1 6.066 0.394 4.777
226 1 7.058 8.920 15.915
227 1 4.690 8.787 15.147
228 1 3.199 8.460 14.339
229 1 6.403 5.711 3.170
230 1 6.665 5.390 0.560
231 1 8.792 7.281 -2.163
232 1 15.925 17.601 7.202
233 1 16.299 17.848 10.836
234 1 15.108 15.500 9.925
235 1 11.126 9.807 9.532
236 1 10.735 13.520 7.889
237 1 11.520 12.503 10.994
238 1 13.915 18.159 1.198
239 1 16.872 18.490 -1.879
240 1 15.603 20.204 -0.241
241 1 20.719 1.757 -1.406
242 1 15.078 -2.831 0.844
243 1 18.872 -2.699 1.798
244 1 17.148 11.629 6.387
245 1 17.460 12.633 3.218
246 1 18.213 13.473 2.759
247 1 27.846 24.646 -4.718
248 1 28.897 21.809 0.370
249 1 27.199 24.622 0.755
250 1 44.335 13.147 6.905
251 1 43.930 13.776 2.918
252 1 44.270 14.161 7.029
253 1 25.551 3.983 15.684
254 1 24.570 3.819 13.530
255 1 26.557 2.702 14.454
256 1 20.889 5.907 26.341
257 1 18.585 4.815 23.435
258 1 18.934 3.688 26.822
259 1 3.163 19.620 12.890
260 1 4.164 18.737 8.802
261 1 2.135 23.407 7.728
262 1 21.048 16.811 -7.703
263 1 21.111 14.438 -3.219
264 1 20.457 14.911 -5.868
265 1 2.768 9.958 5.024
266 1 4.277 8.880 0.067
267 1 5.637 8.391 -2.671
268 1 0.495 27.743 12.082
269 1 2.829 26.886 13.307
270 1 2.360 27.723 14.284
271 1 8.314 -0.592 14.948
272 1 10.218 -1.539 18.103
273 1 10.659 2.230 15.138
274 1 19.360 12.748 -2.411
275 1 19.564 7.355 1.797
276 1 17.864 9.580 -3.055
277 1 21.359 12.436 7.664
278 1 22.179 14.807 5.333
279 1 18.172 17.336 6.732
280 1 5.726 18.363 -7.563
281 1 8.738 21.347 -10.004
282 1 10.535 18.900 -4.027
283 1 27.796 19.190 11.659
284 1 29.693 15.903 8.957
285 1 27.413 16.125 3.350
286 1 20.182 11.154 17.850
287 1 16.000 7.045 15.179
288 1 17.994 10.223 9.247
289 1 34.658 1.574 12.062
290 1 34.575 5.092 13.893
291 1 35.974 -0.244 11.618
292 1 42.455 15.305 14.448
293 1 40.375 11.841 14.320
294 1 37.002 13.823 16.993
295 1 30.475 21.444 9.940
296 1 31.061 24.817 5.801
297 1 31.060 24.122 7.285
298 1 0.695 23.124 9.297
299 1 -0.728 23.174 7.435
300 1 -2.710 22.343 6.541
301 1 10.699 3.892 11.146
302 1 8.474 1.277 7.356
303 1 10.766 9.176 8.302
304 1 5.247 -7.050 7.583
305 1 5.332 -5.942 10.151
306 1 5.603 -6.228 4.414
307 1 -2.689 8.266 6.369
308 1 -1.454 7.113 8.969
309 1 -3.713 8.992 7.080
310 1 25.457 15.655 -15.522
311 1 22.415 15.312 -13.233
312 1 24.298 17.319 -17.571
313 1 11.681 10.420 4.380
314 1 6.729 9.946 4.177
315 1 9.656 12.546 3.719
316 1 17.315 -3.178 11.464
317 1 19.494 -1.695 11.500
318 1 18.397 -4.141 8.516
319 1 22.105 16.859 5.210
320 1 19.576 16.146 6.308
321 1 21.537 17.756 6.449
322 1 37.296 14.001 18.984
323 1 36.721 15.783 16.795
324 1 34.683 14.422 18.231
325 1 18.585 6.180 0.868
326 1 17.005 8.455 9.305
327 1 17.056 7.572 7.773
328 1 17.197 1.071 5.589
329 1 16.971 2.867 -0.959
330 1 18.312 4.706 -0.301
331 1 20.060 -0.877 -3.567
332 1 22.531 -0.292 -7.380
333 1 20.611 -0.681 -1.335
334 1 26.674 20.019 8.992
335 1 22.907 17.628 5.316
336 1 25.352 19.277 4.810
337 1 -1.160 24.490 13.438
338 1 -1.523 24.101 10.234
339 1 -1.922 22.201 12.707
340 1 5.643 16.677 18.181
341 1 3.754 13.903 18.933
342 1 5.380 15.736 19.761
343 1 8.662 14.428 0.834
344 1 8.548 12.370 -0.831
345 1 9.081 12.657 1.008
346 1 8.491 23.340 22.041
347 1 9.362 19.857 26.869
348 1 5.934 24.916 22.055
349 1 26.847 9.006 -7.555
350 1 26.168 9.193 -5.443
351 1 24.064 8.128 -8.717
352 1 30.435 9.782 2.223
353 1 32.025 7.275 -1.276
354 1 30.743 4.260 1.009
355 1 10.938 23.532 17.946
356 1 10.898 24.698 11.379
357 1 11.238 20.627 13.252
358 1 28.701 -2.502 -5.802
359 1 28.409 -6.468 -6.978
360 1 30.395 -8.938 -9.696
361 1 5.473 24.596 23.666
362 1 8.073 25.560 25.047
363 1 6.858 26.717 23.002
364 1 17.767 12.167 12.447
365 1 18.877 13.771 10.703
366 1 17.597 17.606 10.604
367 1 37.217 22.688 2.682
368 1 34.603 21.492 3.669
369 1 34.617 19.756 5.838
370 1 43.227 24.501 23.866
371 1 40.303 22.659 22.725
372 1 39.973 23.516 24.312
373 1 26.848 25.419 6.552
374 1 27.307 22.131 8.806
375 1 30.080 23.899 6.640
376 1 10.010 27.963 -4.185
377 1 7.895 30.132 3.436
378 1 6.708 26.658 -2.925
379 1 6.774 6.897 1.595
380 1 3.718 8.410 -1.639
381 1 4.561 9.205 0.652
382 1 9.323 17.188 1.588
383 1 7.494 17.278 3.315
384 1 7.365 17.627 4.937
385 1 12.514 21.097 17.315
386 1 12.705 23.919 20.985
387 1 13.699 22.832 15.185
388 1 9.230 14.114 -5.212
389 1 10.369 13.480 -5.308
390 1 8.043 14.216 -6.121
391 1 23.017 26.664 8.171
392 1 22.903 26.509 3.262
393 1 24.988 28.946 8.751
394 1 15.470 32.085 11.923
395 1 15.715 28.338 6.663
396 1 16.648 32.233 12.996
397 1 25.740 40.801 2.194
398 1 27.382 41.009 3.793
399 1 25.339 44.070 4.821
400 1 8.984 25.000 26.378
401 1 10.161 25.990 29.596
402 1 8.809 25.805 22.179
403 1 7.772 29.390 4.386
404 1 6.508 24.343 3.508
405 1 9.143 24.346 -0.581
406 1 35.234 12.833 3.379
407 1 34.503 13.802 1.398
408 1 34.739 13.536 3.941
409 1 21.663 4.042 5.221
410 1 21.578 1.813 7.215
411 1 20.948 5.774 4.472
412 1 31.370 -0.654 -0.635
413 1 28.253 2.118 -2.729
414 1 33.810 2.036 -0.818
415 1 13.009 5.199 9.412
416 1 14.655 6.684 7.330
417 1 12.084 5.170 4.164
418 1 15.421 21.204 11.359
419 1 12.106 18.305 9.194
420 1 14.002 22.601 11.370
421 1 15.425 42.325 12.515
422 1 16.318 40.014 12.421
423 1 16.925 40.184 9.584
424 1 17.069 6.406 3.506
425 1 17.897 4.534 6.032
426 1 20.064 2.925 3.216
427 1 4.695 32.221 9.724
428 1 2.029 28.807 10.168
429 1 2.266 30.881 9.591
430 1 25.761 11.773 12.862
431 1 26.216 13.193 16.100
432 1 28.359 16.773 16.114
433 1 25.697 16.790 19.293
434 1 28.579 13.530 12.102
435 1 29.504 16.418 13.497
436 1 11.189 16.476 20.341
437 1 11.893 14.385 21.891
438 1 13.384 15.053 22.490
439 1 2.991 22.822 -9.235
440 1 5.243 28.621 -9.839
441 1 3.180 25.063 -14.124
442 1 20.909 31.663 26.610
443 1 16.876 29.540 20.537
444 1 19.562 30.695 24.125
445 1 25.527 13.120 9.729
446 1 27.412 16.487 6.458
447 1 27.923 11.923 6.647
448 1 8.302 17.718 -8.831
449 1 6.095 15.597 -7.296
450 1 3.552 18.791 -9.296
451 1 28.074 27.080 11.625
452 1 27.422 30.131 10.820
453 1 28.328 29.864 16.827
454 1 11.402 8.248 10.132
455 1 10.212 10.475 6.718
456 1 10.298 6.467 7.760
457 1 19.690 27.025 13.499
458 1 19.587 31.713 13.785
459 1 20.561 33.500 18.540
460 1 13.427 25.042 8.892
461 1 14.529 21.798 6.304
462 1 14.002 22.672 6.966
463 1 5.379 20.720 7.053
464 1 3.486 22.620 8.920
465 1 1.640 21.408 8.282
466 1 7.783 -5.160 4.063
467 1 8.345 -3.797 3.052
468 1 10.104 -3.407 3.115
469 1 17.299 11.000 -0.777
470 1 15.980 12.268 -5.540
471 1 18.377 10.464 0.500
472 1 8.085 16.234 8.304
473 1 6.854 15.586 9.949
474 1 4.892 16.108 5.758
475 1 14.441 12.594 25.594
476 1 15.683 14.937 19.698
477 1 13.865 15.598 23.128
478 1 36.157 21.095 4.327
479 1 37.968 18.601 1.726
480 1 37.591 19.619 4.092
481 1 14.090 25.000 13.411
482 1 12.229 28.578 13.408
483 1 14.483 25.987 10.169
484 1 26.300 17.812 10.161
485 1 21.930 17.305 13.223
486 1 22.712 15.804 6.380
487 1 23.231 13.657 13.878
488 1 22.230 13.340 13.157
489 1 26.110 11.440 13.910
490 1 30.423 32.243 0.974
491 1 29.675 33.454 -0.061
492 1 31.455 32.944 1.141
493 1 15.861 22.696 5.370
494 1 15.084 19.001 0.050
495 1 12.505 19.227 1.792
496 1 -4.541 8.908 9.526
497 1 -6.032 12.651 0.496
498 1 -8.302 10.932 5.482
499 1 -0.601 28.550 7.975
500 1 -1.050 26.427 8.532
501 1 -3.899 26.404 7.634
502 1 10.364 21.025 -3.089
503 1 9.752 24.110 -2.474
504 1 11.751 21.623 0.154
505 1 10.467 22.773 -4.646
506 1 9.710 23.324 -7.609
507 1 8.490 23.538 -3.145
508 1 19.428 28.796 9.938
509 1 20.089 31.797 6.436
510 1 17.764 28.685 7.669
511 1 5.321 31.059 35.478
512 1 5.556 28.952 36.791
513 1 2.446 29.403 30.873
514 1 19.544 22.391 10.240
515 1 18.075 27.687 9.441
516 1 17.681 26.418 7.630
517 1 15.439 18.891 20.729
518 1 16.044 20.054 18.484
519 1 16.313 22.237 17.112
520 1 36.586 17.062 16.197
521 1 36.199 15.590 18.877
522 1 36.265 16.652 18.783
523 1 15.715 19.720 10.999
524 1 18.489 17.887 14.013
525 1 18.296 17.882 13.513
526 1 16.437 10.688 13.937
527 1 15.970 9.739 16.825
528 1 14.533 9.589 14.099
529 1 29.162 19.955 2.401
530 1 28.494 13.595 5.445
531 1 27.839 19.490 6.799
532 1 16.981 29.895 -2.773
533 1 18.390 24.784 -7.070
534 1 17.366 26.930 -8.601
535 1 24.035 35.346 -1.805
536 1 23.920 36.757 0.452
537 1 24.801 36.447 -0.730
538 1 13.165 13.159 17.670
539 1 12.790 8.838 15.371
540 1 12.651 9.256 15.398
541 1 27.251 16.931 6.946
542 1 29.072 15.792 12.376
543 1 27.634 15.573 10.937
544 1 6.448 22.150 14.637
545 1 8.146 22.217 10.493
546 1 8.058 23.023 12.661
547 1 9.402 6.499 3.240
548 1 8.050 6.591 2.690
549 1 8.960 6.629 4.053
550 1 28.055 24.963 7.355
551 1 28.054 27.761 10.277
552 1 28.313 23.711 5.330
553 1 23.814 16.394 16.361
554 1 23.402 16.332 15.162
555 1 24.693 15.938 18.758
556 1 10.173 28.157 -7.938
557 1 8.250 28.017 -9.291
558 1 9.084 28.302 -7.502
559 1 4.380 22.217 4.589
560 1 -0.142 20.071 1.764
561 1 1.373 19.346 0.684
562 1 18.724 18.349 21.066
563 1 17.266 15.589 16.214
564 1 17.149 16.123 14.125
565 1 26.414 58.436 11.685
566 1 23.509 56.017 10.446
567 1 27.145 60.225 14.692
568 1 25.850 27.047 -4.176
569 1 25.217 26.402 -0.767
570 1 23.688 25.461 -4.865
571 1 13.656 30.474 5.852
572 1 14.444 27.609 4.668
573 1 12.992 26.274 1.661
574 1 7.758 41.495 13.510
575 1 9.209 41.675 13.496
576 1 7.997 40.237 15.102
577 1 6.950 25.778 23.578
578 1 7.357 19.999 27.534
579 1 6.655 22.273 21.987
580 1 24.325 9.648 15.825
581 1 28.882 8.364 20.087
582 1 26.707 7.573 17.391
583 1 6.749 21.413 15.080
584 1 6.138 19.766 17.121
585 1 8.647 18.852 16.063
586 1 5.993 26.521 -2.327
587 1 4.951 27.136 0.050
588 1 6.122 24.817 0.253
589 1 25.732 33.104 8.964
590 1 24.999 33.592 7.218
591 1 27.520 32.561 8.568
592 1 19.438 6.064 -1.638
593 1 18.947 5.335 0.031
594 1 21.248 6.720 -2.916
595 1 28.353 24.220 3.571
596 1 28.559 26.292 2.429
597 1 28.729 24.719 -1.053
598 1 26.891 7.444 9.334
599 1 26.875 6.471 3.739
600 1 27.195 7.738 7.306
601 1 30.386 33.591 14.282
602 1 30.459 34.035 12.157
603 1 31.824 33.086 14.415
604 1 34.062 7.944 -4.262
605 1 36.790 10.903 -1.510
606 1 32.732 8.991 -3.228
607 1 33.175 23.589 9.412
608 1 34.623 22.096 4.029
609 1 35.189 23.025 8.606
610 1 -4.330 13.085 -19.274
611 1 -8.142 11.340 -19.709
612 1 -4.671 12.620 -17.803
613 1 13.894 34.318 17.384
614 1 13.949 31.805 16.554
615 1 14.955 30.414 17.726
616 1 28.498 31.678 -2.089
617 1 25.992 28.471 1.346
618 1 27.394 29.176 -1.648
619 1 22.926 17.744 6.667
620 1 23.928 17.399 5.531
621 1 26.599 17.802 4.988
622 1 18.182 38.476 7.163
623 1 18.145 37.899 7.651
624 1 18.977 36.308 8.341
625 1 23.847 10.143 11.676
626 1 23.866 10.634 6.290
627 1 25.670 15.461 10.854
628 1 20.205 38.405 16.989
629 1 18.025 36.094 20.520
630 1 17.944 36.174 15.510
631 1 9.747 36.238 9.560
632 1 11.205 33.784 10.573
633 1 11.972 37.017 6.440
634 1 29.775 32.904 -1.884
635 1 30.932 35.396 0.487
636 1 28.942 31.960 -1.669
637 1 27.984 25.646 26.647
638 1 31.050 29.896 23.429
639 1 33.053 23.726 25.197
640 1 28.872 46.130 4.838
641 1 28.050 48.089 4.372
642 1 27.624 46.189 1.418
643 1 42.275 26.741 14.773
644 1 41.942 29.076 11.611
645 1 44.113 27.701 12.846
646 1 19.172 19.822 6.155
647 1 21.667 19.552 8.911
648 1 19.942 22.323 6.186
649 1 23.184 25.280 8.477
650 1 20.403 26.921 8.827
651 1 21.285 31.275 5.380
652 1 9.276 32.328 -7.949
653 1 11.464 32.450 -6.203
654 1 7.922 31.154 -6.195
655 1 7.050 37.561 2.280
656 1 9.177 35.217 3.581
657 1 9.368 35.014 0.654
658 1 21.029 35.970 1.283
659 1 21.751 33.560 -1.079
660 1 21.003 34.112 2.813
661 1 12.386 20.478 11.658
662 1 11.060 20.062 12.222
663 1 10.349 22.435 11.645
664 1 9.711 26.608 -17.307
665 1 8.200 23.508 -11.689
666 1 6.761 24.478 -12.412
667 1 31.268 24.739 -0.825
668 1 26.907 17.499 -1.384
669 1 30.780 24.696 -2.539
670 1 13.380 45.971 22.720
671 1 12.604 45.968 26.111
672 1 14.204 44.795 22.105
673 1 31.109 27.481 3.465
674 1 29.628 30.825 6.917
675 1 29.707 30.076 4.807
676 1 28.623 8.769 23.330
677 1 28.553 11.402 19.750
678 1 29.175 8.987 23.701
679 1 17.879 23.733 3.562
680 1 18.301 24.295 7.637
681 1 16.599 25.403 0.650
682 1 28.714 32.784 16.515
683 1 27.436 30.970 14.897
684 1 28.952 32.567 15.804
685 1 8.481 39.507 0.365
686 1 11.292 39.483 -1.985
687 1 9.109 39.476 1.832
688 1 6.578 5.266 14.116
689 1 6.673 5.372 17.927
690 1 6.631 4.604 17.697
691 1 -5.089 6.969 17.690
692 1 -4.945 5.463 19.778
693 1 -6.555 6.841 14.930
694 1 23.291 7.723 14.917
695 1 25.864 11.998 14.134
696 1 27.636 11.564 12.928
697 1 10.540 25.289 3.197
698 1 11.414 23.468 5.796
699 1 15.665 27.673 7.367
700 1 1.858 11.979 3.252
701 1 1.681 13.564 3.557
702 1 0.898 12.212 3.852
703 1 9.259 13.186 7.556
704 1 10.313 10.289 8.622
705 1 5.641 13.608 13.449
706 1 2.851 7.591 10.234
707 1 0.580 9.358 10.821
708 1 -1.325 9.784 11.645
709 1 27.528 1.151 6.727
710 1 26.272 -2.022 0.371
711 1 27.424 -1.310 -0.223
712 1 13.600 26.536 -3.207
713 1 11.394 20.942 2.457
714 1 13.929 27.039 4.293
715 1 30.595 9.314 -1.528
716 1 31.011 10.613 -2.178
717 1 34.312 6.673 -3.356
718 1 35.332 -14.974 5.216
719 1 37.585 -17.768 3.646
720 1 35.671 -16.045 10.258
721 1 38.446 20.572 7.707
722 1 37.974 21.946 5.992
723 1 37.290 18.810 5.624
724 1 25.463 30.812 -5.799
725 1 26.828 28.611 -4.782
726 1 25.386 28.948 -2.764
727 1 -9.439 5.323 8.657
728 1 -8.249 2.058 9.778
729 1 -4.500 4.591 10.299
730 1 18.171 20.383 7.257
731 1 23.129 19.585 2.549
732 1 20.563 16.281 4.009
733 1 23.806 18.863 13.744
734 1 23.078 19.591 17.993
735 1 21.643 18.082 19.259
736 1 6.194 17.981 -2.152
737 1 5.286 17.027 -0.771
738 1 11.083 18.061 -3.946
739 1 12.485 -6.031 29.959
740 1 12.789 -7.464 27.929
741 1 15.340 -7.641 29.197
742 1 22.424 -5.686 15.382
743 1 22.600 -3.503 14.433
744 1 20.683 -5.197 13.121
745 1 34.080 22.419 11.356
746 1 33.406 21.081 11.186
747 1 31.010 17.461 9.006
748 1 -6.002 6.281 24.147
749 1 -9.236 9.806 19.492
750 1 -9.203 6.043 20.784
751 1 10.229 -2.509 12.922
752 1 10.354 -1.742 7.960
753 1 15.475 -5.366 11.594
754 1 17.827 -1.543 11.401
755 1 18.912 -1.002 11.015
756 1 18.003 -3.620 10.606
757 1 15.198 18.414 10.720
758 1 14.549 18.581 12.174
759 1 15.693 17.460 10.716
760 1 32.699 29.905 14.022
761 1 32.539 29.947 13.513
762 1 32.073 26.918 17.129
763 1 32.434 5.745 2.984
764 1 30.559 9.267 4.228
765 1 28.669 7.623 5.495
766 1 -9.358 1.525 10.983
767 1 -7.531 2.755 10.667
768 1 -11.650 2.040 12.251
769 1 47.869 1.251 -3.473
770 1 47.839 5.486 2.450
771 1 50.277 5.314 -0.551
772 1 18.717 21.154 -4.783
773 1 17.263 25.077 -1.863
774 1 17.006 22.728 -5.288
775 1 20.173 13.946 10.837
776 1 23.594 14.498 8.381
777 1 22.035 16.510 8.944
778 1 25.160 12.286 4.770
779 1 22.380 13.062 8.923
780 1 22.843 11.547 4.870
781 1 -4.363 3.740 11.731
782 1 -4.232 3.228 12.854
783 1 -0.937 4.058 14.968
784 1 18.144 3.146 8.027
785 1 18.535 4.949 6.848
786 1 19.093 2.624 6.292
787 1 2.063 28.436 10.671
788 1 4.158 33.321 10.740
789 1 1.861 31.832 14.015
790 1 20.178 -10.149 9.817
791 1 17.686 -8.611 4.077
792 1 18.501 -11.307 2.750
793 1 17.928 17.498 8.925
794 1 19.430 16.685 13.351
795 1 16.595 18.930 11.174
796 1 32.465 13.774 28.793
797 1 32.049 11.054 31.357
798 1 30.932 11.586 31.151
799 1 32.579 17.983 0.755
800 1 32.051 18.261 -0.140
801 1 31.702 19.327 -0.493
802 1 16.746 26.069 3.784
803 1 16.226 25.387 4.016
804 1 16.382 29.411 4.723
805 1 6.788 -12.747 7.955
806 1 6.899 -12.750 4.947
807 1 8.414 -9.479 11.950
808 1 8.027 25.918 5.887
809 1 8.673 25.594 -0.554
810 1 10.857 28.939 5.356
811 1 8.953 20.748 2.435
812 1 7.810 17.901 3.987
813 1 9.950 19.895 -1.477
814 1 17.161 16.527 6.677
815 1 19.715 14.113 6.142
816 1 19.379 13.167 9.348
817 1 1.661 5.112 14.631
818 1 1.843 6.246 21.351
819 1 -1.675 4.721 19.993
820 1 16.748 22.879 26.734
821 1 16.942 21.955 26.473
822 1 16.282 21.834 24.561
823 1 28.056 16.348 4.145
824 1 26.454 18.204 0.237
825 1 26.254 16.962 -0.175
826 1 18.859 25.687 19.974
827 1 20.129 24.603 16.358
828 1 22.506 26.546 21.658
829 1 44.749 11.831 29.883
830 1 43.826 15.400 26.990
831 1 43.833 15.826 31.309
832 1 6.284 13.112 4.161
833 1 5.904 11.067 5.184
834 1 9.444 8.465 3.972
835 1 13.330 12.140 4.060
836 1 12.610 12.857 8.751
837 1 13.654 15.203 7.897
838 1 25.910 10.188 3.961
839 1 25.787 9.628 7.709
840 1 25.591 7.341 6.718
841 1 16.757 -6.303 18.770
842 1 20.262 -2.363 18.741
843 1 21.449 -2.342 19.962
844 1 5.718 11.492 13.487
845 1 -1.185 8.970 8.819
846 1 2.085 12.071 9.987
847 1 25.103 14.126 28.672
848 1 24.742 15.365 28.110
849 1 24.826 11.150 29.473
850 1 -3.948 25.737 15.635
851 1 -4.670 23.885 11.209
852 1 0.575 23.658 11.747
853 1 14.409 23.607 1.946
854 1 11.994 22.101 4.576
855 1 12.929 18.192 1.798
856 1 19.735 20.454 4.451
857 1 17.644 21.936 5.419
858 1 20.003 20.048 8.176
859 1 17.397 -0.898 -0.740
860 1 17.877 -2.531 0.377
861 1 17.519 -3.425 -2.030
862 1 38.235 14.260 -2.869
863 1 34.601 11.332 -5.811
864 1 37.112 13.051 -2.423
865 1 27.395 13.628 11.631
866 1 23.442 12.908 13.880
867 1 28.903 12.460 12.250
868 1 34.314 9.549 1.991
869 1 32.615 9.241 3.383
870 1 35.958 5.159 7.330
871 1 30.590 5.574 7.632
872 1 29.994 7.551 2.840
873 1 33.232 4.174 3.136
874 1 24.651 19.143 7.026
875 1 27.413 18.792 1.637
876 1 23.735 20.691 0.642
877 1 34.924 25.496 15.801
878 1 32.810 27.895 19.456
879 1 35.605 26.826 23.348
880 1 25.218 22.615 5.527
881 1 26.640 27.948 7.352
882 1 24.990 23.255 7.358
883 1 -6.368 12.240 18.725
884 1 -6.901 11.049 20.347
885 1 -7.613 11.536 19.211
886 1 -6.030 7.706 14.997
887 1 -5.023 9.039 12.985
888 1 -3.876 8.909 13.393
889 1 14.665 21.122 2.338
890 1 15.765 21.518 3.027
891 1 16.938 22.343 2.808
892 1 -2.186 5.271 1.763
893 1 -1.538 7.790 2.431
894 1 -2.436 6.371 2.384
895 1 23.680 21.736 9.800
896 1 26.733 23.645 7.936
897 1 25.818 25.556 8.914
898 1 30.517 41.530 19.235
899 1 28.257 38.407 20.289
900 1 27.991 35.981 18.749
901 1 17.166 29.573 0.144
902 1 15.373 28.938 2.059
903 1 15.993 30.853 1.136
904 1 18.687 13.692 4.246
905 1 18.038 15.930 8.665
906 1 23.101 14.177 5.702
907 1 29.073 14.199 7.481
908 1 29.614 14.348 3.994
909 1 29.987 16.058 5.170
910 1 28.442 9.182 24.768
911 1 26.613 5.801 23.951
912 1 27.992 5.185 23.512
913 1 31.678 37.199 16.065
914 1 32.417 37.077 19.421
915 1 33.302 38.394 19.646
916 1 28.692 27.921 -1.429
917 1 27.622 23.841 -2.805
918 1 26.773 28.359 -4.552
919 1 27.116 19.689 13.697
920 1 31.713 21.347 11.692
921 1 29.757 19.303 10.396
922 1 26.694 0.944 15.697
923 1 25.941 3.023 13.145
924 1 28.924 1.391 13.958
925 1 -8.929 16.148 21.170
926 1 -7.955 18.090 17.391
927 1 -7.867 17.171 15.398
928 1 27.664 9.657 -2.400
929 1 28.765 9.074 0.539
930 1 27.923 10.986 -2.006
931 1 8.875 1.862 19.644
932 1 7.430 6.002 22.776
933 1 8.080 3.234 18.949
934 1 10.128 10.847 -10.911
935 1 7.864 12.127 -9.025
936 1 10.320 10.641 -11.722
937 1 27.680 32.644 24.358
938 1 27.905 30.752 23.410
939 1 23.556 30.595 25.133
940 1 6.157 9.434 25.205
941 1 8.627 4.797 24.330
942 1 10.420 11.576 26.059
943 1 4.691 20.199 11.223
944 1 5.140 23.553 11.227
945 1 4.410 22.841 11.653
946 1 34.876 23.341 23.892
947 1 36.710 27.143 29.167
948 1 36.758 25.170 24.539
949 1 10.619 10.146 13.977
950 1 9.704 7.884 11.664
951 1 8.844 12.824 14.981
952 1 21.022 24.968 17.464
953 1 22.420 23.607 15.428
954 1 25.283 22.405 17.685
955 1 19.092 29.200 14.846
956 1 18.881 24.856 15.621
957 1 17.446 24.645 16.413
958 1 38.152 14.336 14.646
959 1 39.176 15.558 14.243
960 1 38.502 14.239 16.713
961 1 12.888 16.306 18.189
962 1 14.703 15.946 17.864
963 1 9.776 16.309 19.953
964 1 1.953 17.605 28.300
965 1 0.090 21.934 29.925
966 1 2.261 18.396 23.747
967 1 18.905 28.807 6.334
968 1 19.229 28.138 5.793
969 1 21.193 27.384 8.814
970 1 9.083 35.004 7.909
971 1 9.678 34.592 5.169
972 1 8.102 36.114 8.136
973 1 23.352 40.018 1.442
974 1 23.308 35.792 3.962
975 1 25.717 37.931 3.419
976 1 7.772 12.555 -1.494
977 1 9.125 14.542 0.610
978 1 8.265 13.154 -1.400
979 1 26.360 34.512 12.007
980 1 26.316 33.477 13.391
981 1 27.068 35.686 12.167
982 1 25.200 23.812 10.043
983 1 25.493 24.155 10.488
984 1 24.498 23.929 9.439
985 1 15.228 17.220 11.448
986 1 11.722 14.014 11.310
987 1 12.266 14.334 9.318
988 1 12.618 16.380 -1.980
989 1 12.149 13.261 -1.007
990 1 12.992 17.005 3.910
991 1 31.551 17.863 25.960
992 1 35.650 17.295 25.798
993 1 37.854 17.534 25.879
994 1 22.570 13.630 12.853
995 1 22.867 12.304 12.774
996 1 24.946 17.400 11.545
997 1 19.092 21.767 16.035
998 1 19.309 19.912 17.429
999 1 19.097 25.099 14.748
1000 1 18.635 19.168 14.154
1001 1 14.605 16.018 14.995
1002 1 18.356 19.855 18.119
1003 1 2.853 30.197 18.891
1004 1 3.562 29.535 19.155
1005 1 0.872 29.633 18.893
1006 1 11.023 11.386 13.482
1007 1 8.349 5.392 10.412
1008 1 11.480 13.453 9.711
1009 1 24.196 14.983 -3.855
1010 1 22.356 14.193 -2.334
1011 1 21.516 16.751 -2.374
1012 1 -1.578 20.762 17.111
1013 1 2.335 22.704 17.865
1014 1 0.593 24.550 15.598
1015 1 5.175 36.337 8.205
1016 1 8.734 33.210 7.030
1017 1 5.356 34.081 4.457
1018 1 32.884 11.742 -4.049
1019 1 30.903 15.092 -1.280
1020 1 32.140 12.732 -1.175
1021 1 22.309 14.173 14.247
1022 1 22.877 14.338 15.583
1023 1 23.449 11.887 11.863
1024 1 8.565 21.761 6.075
1025 1 6.181 23.117 5.326
1026 1 5.409 21.395 4.751
1027 1 31.100 14.159 1.329
1028 1 27.875 14.860 -2.473
1029 1 28.150 13.203 -3.247
1030 1 27.164 13.834 15.249
1031 1 25.779 16.432 14.268
1032 1 28.295 14.938 13.850
1033 1 32.179 36.009 12.776
1034 1 30.494 35.119 9.149
1035 1 32.134 36.407 10.683
1036 1 42.007 13.181 22.553
1037 1 43.166 13.675 22.956
1038 1 41.032 14.700 22.185
1039 1 -6.184 23.911 4.714
1040 1 -6.062 27.002 4.037
1041 1 -5.914 28.807 7.396
1042 1 15.259 39.413 5.408
1043 1 12.862 34.582 9.356
1044 1 13.946 31.886 1.746
1045 1 25.245 31.770 7.283
1046 1 23.522 33.311 7.453
1047 1 24.307 33.269 2.853
1048 1 -2.673 21.842 8.704
1049 1 0.914 25.554 11.527
1050 1 0.757 21.429 13.458
1051 1 15.932 26.707 4.433
1052 1 16.221 24.530 5.332
1053 1 16.189 26.604 9.918
1054 1 28.440 18.011 7.993
1055 1 27.070 15.085 4.142
1056 1 26.062 17.045 -0.292
1057 1 11.181 26.378 12.720
1058 1 13.191 22.374 11.000
1059 1 12.274 23.154 12.919
1060 1 17.726 -3.135 16.287
1061 1 20.868 -5.855 18.962
1062 1 21.277 -7.200 13.135
1063 1 23.383 15.064 2.480
1064 1 20.178 11.444 2.453
1065 1 19.731 11.795 4.139
1066 1 20.600 31.535 17.427
1067 1 22.502 29.204 18.713
1068 1 19.925 29.823 17.515
1069 1 40.141 21.025 13.468
1070 1 39.740 20.144 16.083
1071 1 38.051 19.388 15.751
1072 1 28.963 24.079 5.697
1073 1 28.771 23.160 7.589
1074 1 30.434 21.087 8.990
1075 1 44.918 17.481 20.363
1076 1 47.743 18.016 19.679
1077 1 48.663 18.439 20.511
1078 1 12.228 30.411 14.243
1079 1 15.494 30.376 10.224
1080 1 11.809 31.041 13.626
1081 1 0.044 11.549 1.230
1082 1 1.799 17.046 -0.599
1083 1 0.218 13.386 0.845
1084 1 10.945 23.362 19.671
1085 1 12.442 24.569 17.413
1086 1 10.531 21.573 16.097
1087 1 11.506 31.992 19.119
1088 1 13.655 29.005 20.524
1089 1 10.879 28.079 22.192
1090 1 27.680 39.446 1.779
1091 1 29.170 38.603 6.052
1092 1 24.885 37.915 4.560
1093 1 18.320 25.836 6.054
1094 1 21.076 22.122 5.683
1095 1 19.725 24.010 9.046
1096 1 25.131 21.220 3.422
1097 1 24.780 21.380 2.780
1098 1 23.580 24.464 1.817
1099 1 18.548 33.062 4.269
1100 1 17.896 29.484 6.118
1101 1 19.636 30.051 5.878
1102 1 40.428 14.799 11.802
1103 1 39.785 15.765 13.922
1104 1 40.157 14.523 11.649
1105 1 14.279 16.374 6.998
1106 1 16.114 14.927 15.166
1107 1 16.843 12.460 15.733
1108 1 21.274 19.052 6.545
1109 1 22.087 16.109 8.326
1110 1 23.798 20.053 7.619
1111 1 37.550 27.331 10.102
1112 1 35.735 26.301 9.796
1113 1 37.934 25.688 13.823
1114 1 38.510 20.209 17.463
1115 1 39.367 21.112 15.898
1116 1 38.739 21.021 15.606
1117 1 5.351 31.693 17.853
1118 1 7.697 31.346 20.390
1119 1 7.637 29.164 12.020
1120 1 13.695 32.858 1.043
1121 1 12.032 34.290 -1.092
1122 1 13.817 33.429 -1.255
1123 1 5.415 29.293 5.717
1124 1 2.883 29.023 6.244
1125 1 4.024 27.950 2.756
1126 1 10.494 43.216 12.659
1127 1 8.784 46.171 12.958
1128 1 7.221 43.301 14.214
1129 1 23.793 25.830 27.340
1130 1 22.952 29.059 26.202
1131 1 23.222 29.676 24.396
1132 1 16.838 25.400 12.275
1133 1 19.014 23.880 9.959
1134 1 20.041 23.161 11.753
1135 1 15.901 4.801 4.322
1136 1 13.775 1.193 2.509
1137 1 18.265 2.711 2.800
1138 1 24.952 28.539 5.275
1139 1 21.503 24.931 -1.105
1140 1 20.410 26.979 2.770
1141 1 16.572 39.713 0.862
1142 1 15.140 35.826 -0.226
1143 1 17.287 38.358 -1.354
1144 1 15.235 31.719 17.523
1145 1 17.735 33.614 17.439
1146 1 16.652 30.650 19.212
1147 1 12.902 41.682 7.700
1148 1 13.399 37.096 8.245
1149 1 13.740 40.746 9.911
1150 1 18.433 46.876 14.784
1151 1 21.883 47.444 12.273
1152 1 22.140 46.470 15.522
1153 1 45.726 23.753 -0.721
1154 1 48.056 27.270 -5.814
1155 1 45.465 25.509 2.953
1156 1 25.162 20.881 -4.209
1157 1 23.259 21.942 -4.950
1158 1 21.449 21.568 -4.457
1159 1 20.651 43.316 25.823
1160 1 20.219 43.960 29.068
1161 1 24.117 41.582 29.585
1162 1 22.944 28.187 26.300
1163 1 25.738 31.715 27.211
1164 1 23.088 29.476 21.652
1165 1 13.963 29.577 24.613
1166 1 15.623 30.351 23.689
1167 1 13.937 31.741 23.782
1168 1 17.651 31.608 18.318
1169 1 16.501 31.326 14.284
1170 1 17.656 34.067 12.198
1171 1 24.408 21.565 2.057
1172 1 22.435 17.408 -2.866
1173 1 23.522 19.361 0.684
1174 1 21.837 21.594 11.185
1175 1 22.391 21.058 14.479
1176 1 21.289 23.217 16.947
1177 1 0.720 45.418 7.546
1178 1 5.569 46.362 11.337
1179 1 2.923 49.222 11.304
1180 1 30.254 21.224 -1.048
1181 1 31.522 22.751 8.714
1182 1 32.630 21.839 -0.017
1183 1 21.662 24.007 2.513
1184 1 24.628 23.639 5.838
1185 1 25.095 21.449 3.423
1186 1 13.944 30.738 -3.085
1187 1 14.504 28.040 -2.864
1188 1 14.134 32.715 -0.525
1189 1 47.615 54.491 24.503
1190 1 46.663 52.183 20.309
1191 1 47.729 54.657 21.662
1192 1 23.143 40.189 14.027
1193 1 19.639 42.337 17.117
1194 1 21.112 40.087 17.049
1195 1 2.361 -0.213 2.416
1196 1 5.107 2.703 3.180
1197 1 5.904 3.716 2.856
1198 1 16.223 18.786 -0.982
1199 1 18.444 22.959 -2.590
1200 1 16.913 21.102 1.881
1201 1 1.584 7.907 14.838
1202 1 -3.594 8.255 14.863
1203 1 -3.012 7.015 15.458
1204 1 24.466 16.121 30.122
1205 1 22.034 14.974 31.055
1206 1 22.956 16.390 25.251
1207 1 30.091 -5.922 12.472
1208 1 34.141 -2.598 13.284
1209 1 32.587 -2.022 13.904
1210 1 13.001 32.067 19.768
1211 1 14.058 28.405 18.740
1212 1 12.328 28.503 18.406
1213 1 16.296 15.181 1.462
1214 1 15.568 10.475 -0.484
1215 1 14.569 10.998 1.405
1216 1 30.419 10.170 4.869
1217 1 29.048 12.287 2.719
1218 1 30.192 8.566 2.724
1219 1 24.628 15.955 11.714
1220 1 26.135 11.919 9.651
1221 1 27.337 17.367 11.915
1222 1 27.381 25.774 14.718
1223 1 30.411 25.065 15.968
1224 1 29.483 23.855 18.559
1225 1 24.915 6.098 34.509
1226 1 26.643 5.183 31.264
1227 1 24.929 5.992 29.777
1228 1 43.280 14.336 10.982
1229 1 44.527 13.830 14.130
1230 1 43.258 13.267 16.741
1231 1 19.908 8.662 22.995
1232 1 18.222 8.271 23.513
1233 1 19.705 8.187 21.536
1234 1 10.384 21.669 20.317
1235 1 9.576 17.887 14.257
1236 1 11.232 18.960 19.383
1237 1 33.898 13.785 5.411
1238 1 30.079 14.340 10.194
1239 1 30.724 14.747 12.094
1240 1 22.063 8.068 6.116
1241 1 20.760 8.586 10.545
1242 1 19.507 6.675 11.760
1243 1 13.011 3.351 7.471
1244 1 12.058 -0.631 9.530
1245 1 13.150 2.544 8.154
1246 1 22.050 13.143 18.431
1247 1 19.665 14.734 14.524
1248 1 22.151 15.269 14.119
1249 1 10.881 22.231 5.446
1250 1 7.802 21.604 0.745
1251 1 11.241 21.362 0.329
1252 1 18.042 26.534 6.171
1253 1 17.027 26.748 8.115
1254 1 15.986 30.195 5.833
1255 1 21.095 15.951 23.402
1256 1 17.774 12.369 17.512
1257 1 18.225 12.812 23.282
1258 1 20.997 20.881 13.470
1259 1 19.817 20.985 11.356
1260 1 21.770 22.742 8.974
1261 1 26.115 9.527 3.909
1262 1 22.941 12.199 5.521
1263 1 23.725 13.007 3.490
1264 1 16.491 5.653 17.597
1265 1 19.048 4.668 20.302
1266 1 16.306 8.206 17.546
1267 1 36.283 8.801 13.099
1268 1 30.352 9.428 14.496
1269 1 34.928 7.285 12.733
1270 1 35.783 7.694 -8.936
1271 1 36.415 8.758 -4.803
1272 1 36.064 7.431 -6.571
1273 1 1.487 16.195 26.016
1274 1 1.254 12.682 27.014
1275 1 2.473 12.826 28.002
1276 1 22.003 24.724 11.849
1277 1 21.614 25.157 12.890
1278 1 24.923 21.676 13.158
1279 1 -1.380 1.641 16.604
1280 1 -1.697 1.786 17.311
1281 1 -0.342 5.715 17.907
1282 1 23.313 1.321 8.310
1283 1 26.243 3.163 10.374
1284 1 24.325 0.297 9.097
1285 1 11.790 16.261 7.357
1286 1 13.097 16.115 10.071
1287 1 12.768 14.876 8.115
1288 1 22.556 28.955 1.390
1289 1 21.772 28.666 0.836
1290 1 21.459 27.248 0.051
1291 1 16.981 9.576 2.873
1292 1 18.429 7.705 -1.114
1293 1 18.098 7.737 -0.160
1294 1 26.460 16.708 -7.542
1295 1 24.970 19.156 -7.041
1296 1 29.366 16.216 -7.715
1297 1 19.143 9.079 3.486
1298 1 22.373 9.776 3.777
1299 1 22.452 10.177 2.176
1300 1 25.311 13.676 23.238
1301 1 26.150 13.758 21.349
1302 1 26.275 14.793 23.814
1303 1 22.211 -0.575 -7.873
1304 1 23.354 -2.677 -5.197
1305 1 19.944 -3.195 -0.803
1306 1 40.610 14.637 -2.389
1307 1 39.777 11.501 -5.220
1308 1 37.053 14.109 -3.326
1309 1 43.282 -2.475 9.596
1310 1 40.924 -0.122 7.473
1311 1 42.415 -1.331 3.114
1312 1 -4.392 16.572 11.543
1313 1 -5.154 18.763 13.734
1314 1 -1.948 19.270 15.104
1315 1 19.189 10.409 29.758
1316 1 16.517 11.447 26.622
1317 1 20.487 11.224 24.674
1318 1 11.826 35.478 9.954
1319 1 5.856 32.252 7.815
1320 1 9.795 35.282 10.633
1321 1 14.039 17.759 6.286
1322 1 11.491 15.143 4.985
1323 1 16.345 18.107 3.807
1324 1 35.115 -1.256 4.292
1325 1 38.121 0.967 6.289
1326 1 34.660 1.442 4.231
1327 1 24.402 24.392 9.834
1328 1 24.772 22.034 12.871
1329 1 23.122 21.221 10.809
1330 1 29.765 9.620 28.310
1331 1 28.473 6.665 23.714
1332 1 28.946 6.764 26.035
1333 1 18.519 20.647 12.712
1334 1 19.679 20.355 11.411
1335 1 15.093 18.622 12.094
1336 1 25.196 28.089 10.316
1337 1 26.574 30.093 8.435
1338 1 25.606 34.299 7.750
1339 1 14.388 28.432 11.737
1340 1 13.228 30.537 12.578
1341 1 12.745 27.991 16.093
1342 1 24.034 19.186 5.138
1343 1 23.614 19.293 5.817
1344 1 22.477 19.829 3.877
1345 1 41.715 3.755 -5.265
1346 1 41.420 5.189 -9.236
1347 1 40.435 3.984 -14.121
1348 1 43.598 1.490 15.809
1349 1 45.447 0.410 16.978
1350 1 42.361 3.667 20.706
1351 1 24.032 7.959 11.590
1352 1 23.956 9.005 5.592
1353 1 21.264 8.314 6.959
1354 1 9.636 8.662 7.557
1355 1 11.778 9.115 9.123
1356 1 9.515 7.305 7.755
1357 1 12.550 8.701 17.430
1358 1 14.527 10.899 17.058
1359 1 13.557 7.107 17.447
1360 1 14.469 23.571 15.140
1361 1 16.176 21.210 20.083
1362 1 16.134 23.779 14.806
1363 1 29.060 23.477 10.110
1364 1 28.025 27.464 6.370
1365 1 28.826 25.089 6.121
1366 1 11.910 28.427 30.736
1367 1 14.934 25.627 25.984
1368 1 11.127 28.719 27.084
1369 1 23.192 8.127 13.027
1370 1 25.243 7.177 11.305
1371 1 26.383 6.983 10.523
1372 1 28.393 13.432 -5.197
1373 1 29.791 15.554 -6.364
1374 1 29.054 11.883 -2.676
1375 1 20.045 15.801 7.558
1376 1 18.827 15.267 3.561
1377 1 20.187 14.089 7.918
1378 1 43.839 6.228 19.364
1379 1 45.604 5.037 17.061
1380 1 41.835 9.638 17.903
1381 1 8.767 16.686 5.466
1382 1 5.886 14.986 7.936
1383 1 8.010 15.403 4.260
1384 1 27.913 14.046 1.190
1385 1 28.681 14.204 -3.205
1386 1 26.488 11.230 -0.191
1387 1 21.721 15.179 7.025
1388 1 20.589 13.763 7.356
1389 1 19.926 11.401 5.536
1390 1 5.894 7.346 7.821
1391 1 6.059 6.844 3.009
1392 1 8.918 6.287 4.514
1393 1 3.099 22.100 19.669
1394 1 5.523 23.157 18.008
1395 1 3.842 22.499 18.378
1396 1 7.901 1.216 25.769
1397 1 6.107 3.393 28.621
1398 1 8.169 7.338 30.381
1399 1 15.390 10.211 12.902
1400 1 16.071 12.721 16.484
1401 1 18.197 10.527 15.298
1402 1 6.858 17.269 7.283
1403 1 6.069 21.372 4.392
1404 1 5.136 17.465 3.649
1405 1 26.288 32.781 13.621
1406 1 26.744 33.399 13.750
1407 1 29.384 30.850 17.248
1408 1 15.395 10.756 -2.714
1409 1 16.965 11.875 -3.213
1410 1 18.845 11.715 -0.285
1411 1 42.449 27.280 20.366
1412 1 42.443 23.695 20.697
1413 1 38.632 28.478 19.690
1414 1 15.369 33.387 9.983
1415 1 14.851 35.054 11.902
1416 1 14.673 37.279 13.260
1417 1 23.412 27.419 5.319
1418 1 26.611 30.516 1.205
1419 1 26.873 30.985 1.588
1420 1 29.008 13.978 29.530
1421 1 31.328 19.327 29.612
1422 1 30.775 14.479 26.577
1423 1 47.322 13.941 17.310
1424 1 47.893 19.071 19.310
1425 1 45.079 17.379 20.396
1426 1 20.815 19.492 6.827
1427 1 18.812 21.600 9.015
1428 1 17.476 24.552 10.757
1429 1 -1.861 6.363 -11.711
1430 1 -5.865 7.332 -4.025
1431 1 -2.841 9.040 -6.032
1432 1 -5.477 3.441 -13.861
1433 1 -4.345 4.947 -9.331
1434 1 -7.536 4.776 -13.516
1435 1 13.462 28.289 5.573
1436 1 14.614 30.461 4.626
1437 1 13.698 31.540 2.190
1438 1 11.704 12.298 5.479
1439 1 10.777 16.167 8.422
1440 1 13.565 20.281 8.298
1441 1 12.230 17.275 12.945
1442 1 10.700 15.151 10.717
1443 1 12.071 18.213 9.729
1444 1 3.641 23.801 -1.290
1445 1 4.565 22.803 -3.202
1446 1 6.352 18.397 -1.532
1447 1 24.317 26.991 22.013
1448 1 24.282 26.647 20.396
1449 1 23.447 25.141 22.128
1450 1 18.988 23.832 13.317
1451 1 19.288 26.183 8.150
1452 1 21.753 25.176 10.570
1453 1 26.483 31.122 6.522
1454 1 28.021 27.084 8.790
1455 1 24.918 28.421 6.272
1456 1 30.495 17.221 22.330
1457 1 31.213 15.259 22.967
1458 1 30.347 13.027 23.236
1459 1 41.951 22.721 32.069
1460 1 42.730 26.185 33.046
1461 1 44.333 24.782 31.662
1462 1 21.461 21.425 21.423
1463 1 18.669 19.500 23.728
1464 1 20.555 21.818 23.436
1465 1 33.120 35.557 17.707
1466 1 35.383 37.022 17.727
1467 1 33.709 35.330 17.338
1468 1 -9.407 37.724 21.204
1469 1 -10.079 35.959 17.415
1470 1 -9.708 36.801 20.601
1471 1 2.571 14.832 7.053
1472 1 2.713 11.895 4.400
1473 1 3.887 12.017 2.132
1474 1 -7.521 19.026 11.682
1475 1 -9.907 23.597 13.685
1476 1 -10.737 20.559 11.732
1477 1 2.461 19.695 -1.556
1478 1 -0.731 22.078 -1.226
1479 1 1.274 23.704 -0.270
1480 1 4.509 23.122 -9.300
1481 1 7.087 23.376 -7.599
1482 1 4.901 24.960 -9.383
1483 1 11.958 28.929 12.526
1484 1 12.550 26.235 12.995
1485 1 12.358 31.914 16.039
1486 1 7.773 17.150 5.490
1487 1 7.001 16.515 1.567
1488 1 8.979 17.260 8.205
1489 1 17.492 20.408 3.516
1490 1 16.180 17.200 3.736
1491 1 15.939 17.582 2.170
1492 1 23.324 12.976 2.880
1493 1 25.441 14.279 0.501
1494 1 24.955 13.176 0.715
1495 1 14.687 26.938 35.077
1496 1 14.655 25.040 30.890
1497 1 14.079 25.514 32.019
1498 1 21.404 18.215 -8.662
1499 1 19.482 12.052 -6.474
1500 1 18.822 15.184 -6.488
1501 1 24.741 34.824 -12.025
1502 1 27.300 33.885 -7.737
1503 1 25.784 31.837 -9.884
1504 1 37.429 32.500 13.482
1505 1 37.219 32.158 11.921
1506 1 35.612 33.779 13.013
1507 1 18.148 22.564 29.431
1508 1 17.790 22.456 26.667
1509 1 18.731 16.729 25.547
1510 1 -7.589 39.112 -0.870
1511 1 -9.728 34.646 1.550
1512 1 -8.090 38.644 0.302
1513 1 28.812 20.451 26.152
1514 1 30.921 18.805 28.329
1515 1 32.869 18.334 27.860
1516 1 7.295 27.047 10.711
1517 1 7.147 27.947 9.258
1518 1 8.792 27.273 6.432
1519 1 6.080 20.610 11.712
1520 1 3.603 22.015 12.783
1521 1 4.859 20.088 8.737
1522 1 29.753 30.626 17.899
1523 1 26.749 31.613 14.888
1524 1 27.957 31.686 15.507
1525 1 21.581 24.682 -7.644
1526 1 20.732 29.174 -6.363
1527 1 22.237 29.343 -10.968
1528 1 33.478 17.533 20.834
1529 1 37.202 19.135 13.700
1530 1 34.863 18.068 20.525
1531 1 27.299 21.705 12.763
1532 1 27.632 20.296 12.266
1533 1 27.580 19.465 12.218
1534 1 37.176 15.012 11.501
1535 1 35.824 15.121 11.711
1536 1 37.039 15.803 10.378
1537 1 39.803 31.634 25.039
1538 1 38.290 29.962 21.799
1539 1 35.816 30.298 23.743
1540 1 46.289 18.866 11.525
1541 1 40.552 17.550 8.742
1542 1 40.349 17.413 10.364
1543 1 36.342 28.699 7.838
1544 1 34.340 28.262 4.910
1545 1 37.678 26.102 10.238
1546 1 0.955 4.797 17.161
1547 1 -1.937 4.409 16.594
1548 1 -2.153 4.977 14.532
1549 1 15.158 30.835 -1.176
1550 1 15.828 30.318 -5.643
1551 1 16.834 30.570 -2.931
1552 1 15.234 15.396 14.083
1553 1 13.804 12.175 17.848
1554 1 16.050 15.357 17.921
1555 1 15.327 28.736 16.568
1556 1 13.355 27.195 20.499
1557 1 17.938 30.454 14.278
1558 1 -3.473 22.278 4.026
1559 1 -0.624 20.706 2.966
1560 1 -4.757 21.274 3.446
1561 1 23.469 23.045 6.662
1562 1 22.812 24.301 -2.199
1563 1 19.642 24.250 3.647
1564 1 22.898 18.786 15.784
1565 1 20.397 20.493 20.958
1566 1 22.686 22.838 19.748
1567 1 19.473 5.744 8.112
1568 1 19.774 4.977 14.323
1569 1 21.842 6.072 6.471
1570 1 33.321 34.146 26.198
1571 1 32.284 33.511 26.325
1572 1 32.540 37.748 23.628
1573 1 44.001 40.526 8.971
1574 1 42.453 41.573 9.374
1575 1 43.463 44.069 10.327
1576 1 20.346 12.262 -1.249
1577 1 22.882 11.579 -1.142
1578 1 20.921 11.113 -0.962
1579 1 24.677 26.369 16.519
1580 1 24.383 23.313 16.187
1581 1 22.846 25.454 12.956
1582 1 31.343 19.131 0.758
1583 1 29.548 19.388 2.543
1584 1 30.967 18.154 4.901
1585 1 22.417 25.871 10.959
1586 1 21.971 22.150 7.920
1587 1 22.816 23.214 11.712
1588 1 3.036 21.499 9.015
1589 1 1.535 23.792 10.299
1590 1 -0.722 20.551 12.991
1591 1 2.293 34.856 4.059
1592 1 1.935 37.543 5.253
1593 1 0.956 37.958 2.484
1594 1 10.399 36.717 17.276
1595 1 11.594 38.584 19.281
1596 1 9.628 35.264 10.585
1597 1 14.476 11.873 10.557
1598 1 14.212 7.486 12.492
1599 1 14.959 10.978 11.835
1600 1 10.966 16.903 17.421
1601 1 9.645 19.997 13.714
1602 1 10.366 20.965 18.113
1603 1 20.100 39.493 18.159
1604 1 18.691 39.483 18.574
1605 1 15.813 41.322 18.589
1606 1 16.012 11.597 17.416
1607 1 17.447 12.651 18.731
1608 1 14.167 13.340 19.204
1609 1 31.384 31.452 15.965
1610 1 30.286 32.391 17.845
1611 1 28.846 33.844 16.315
1612 1 26.339 29.181 12.185
1613 1 26.851 25.373 6.485
1614 1 24.664 27.294 8.461
1615 1 24.727 27.425 -0.058
1616 1 20.526 23.151 -0.148
1617 1 22.698 27.717 1.484
1618 1 38.815 18.882 16.241
1619 1 37.092 19.541 13.842
1620 1 39.925 17.956 11.122
1621 1 33.612 15.162 18.026
1622 1 33.102 14.191 16.969
1623 1 34.518 9.441 22.163
1624 1 4.664 12.472 -0.491
1625 1 5.844 12.551 -3.701
1626 1 4.361 15.214 -0.909
1627 1 3.609 36.331 5.475
1628 1 3.177 31.894 7.660
1629 1 2.825 32.770 6.930
1630 1 14.325 28.988 13.695
1631 1 11.255 28.585 17.224
1632 1 12.969 27.447 15.420
1633 1 7.203 30.645 32.379
1634 1 6.871 28.866 31.561
1635 1 5.770 28.733 33.944
1636 1 10.623 36.143 15.286
1637 1 9.719 35.944 17.251
1638 1 11.667 38.850 15.711
1639 1 32.468 28.244 16.128
1640 1 34.864 28.901 15.505
1641 1 34.198 34.027 15.179
1642 1 25.541 32.693 8.425
1643 1 28.006 32.671 7.100
1644 1 25.435 32.179 8.111
1645 1 23.141 30.625 26.812
1646 1 23.358 31.980 22.286
1647 1 23.785 28.513 22.778
1648 1 19.544 44.995 3.934
1649 1 19.545 47.012 0.518
1650 1 18.739 46.126 3.157
1651 1 17.320 49.490 8.957
1652 1 11.649 48.827 15.519
1653 1 12.853 52.222 9.286
1654 1 19.871 15.910 25.357
1655 1 17.960 17.755 22.718
1656 1 14.850 13.743 22.193
1657 1 28.825 9.559 4.488
1658 1 29.225 8.994 -0.773
1659 1 28.707 12.800 -2.586
1660 1 47.550 18.859 15.472
1661 1 50.569 22.828 14.748
1662 1 51.300 21.273 13.538
1663 1 8.296 25.689 3.005
1664 1 6.020 22.814 6.635
1665 1 8.233 22.591 7.315
1666 1 11.195 30.511 20.308
1667 1 7.755 28.940 16.075
1668 1 8.649 30.501 16.551
1669 1 21.000 44.484 12.728
1670 1 19.678 41.890 14.278
1671 1 17.886 44.551 18.649
1672 1 10.470 34.105 3.673
1673 1 11.220 33.517 3.916
1674 1 8.615 34.819 3.105
1675 1 13.241 43.895 8.848
1676 1 8.583 40.687 8.520
1677 1 9.475 41.563 13.849
1678 1 22.033 16.567 9.862
1679 1 21.411 15.673 14.161
1680 1 21.808 16.233 11.945
1681 1 5.785 38.671 21.261
1682 1 6.861 35.769 20.450
1683 1 7.490 37.220 22.554
1684 1 21.753 38.223 27.384
1685 1 25.001 39.451 29.991
1686 1 21.458 40.280 32.174
1687 1 27.857 48.082 6.667
1688 1 27.191 47.513 5.744
1689 1 28.939 44.426 10.348
1690 1 8.206 15.917 -0.476
1691 1 9.892 17.320 -2.329
1692 1 11.618 13.743 1.602
1693 1 18.184 2.025 22.138
1694 1 20.238 5.817 18.620
1695 1 18.843 2.034 17.672
1696 1 25.886 33.998 0.928
1697 1 26.149 34.765 3.841
1698 1 26.193 30.921 1.376
1699 1 27.015 20.044 20.202
1700 1 27.546 23.404 15.376
1701 1 29.801 20.544 17.514
1702 1 7.441 11.859 19.464
1703 1 10.039 12.766 19.484
1704 1 10.371 11.526 19.951
1705 1 -9.174 17.340 11.210
1706 1 -9.212 21.130 8.818
1707 1 -10.071 22.135 12.720
1708 1 5.568 5.954 21.305
1709 1 5.375 6.020 19.113
1710 1 4.815 4.601 19.167
1711 1 25.151 16.144 3.889
1712 1 25.913 18.244 8.861
1713 1 27.384 19.589 5.224
1714 1 18.458 15.039 16.875
1715 1 17.944 14.837 15.652
1716 1 18.741 12.335 19.027
1717 1 16.855 20.052 19.103
1718 1 13.928 22.800 18.653
1719 1 16.270 21.447 19.177
1720 1 7.318 12.609 20.445
1721 1 8.698 11.776 26.328
1722 1 9.935 12.017 22.223
1723 1 29.708 5.231 22.497
1724 1 30.588 5.468 22.320
1725 1 32.127 7.770 22.602
1726 1 28.036 -4.754 6.767
1727 1 27.007 -1.112 1.998
1728 1 28.218 -3.904 2.883
1729 1 30.557 15.074 19.136
1730 1 33.436 15.385 11.322
1731 1 31.893 17.558 16.248
1732 1 32.343 6.715 14.173
1733 1 30.861 3.708 13.225
1734 1 34.568 6.596 9.708
1735 1 23.050 -10.427 12.432
1736 1 24.713 -5.905 13.815
1737 1 27.208 -7.032 17.953
1738 1 33.041 15.101 17.300
1739 1 32.582 18.685 19.171
1740 1 33.923 12.664 17.031
1741 1 15.502 15.246 9.886
1742 1 17.677 15.764 4.131
1743 1 16.893 17.185 3.993
1744 1 17.627 12.581 2.021
1745 1 16.474 11.048 5.984
1746 1 17.566 11.731 6.474
1747 1 11.539 8.258 8.838
1748 1 15.675 7.662 10.041
1749 1 13.649 9.689 7.927
1750 1 24.600 16.976 20.459
1751 1 20.408 16.688 22.672
1752 1 19.673 17.850 27.067
1753 1 5.025 6.422 -4.716
1754 1 5.502 7.072 -3.944
1755 1 4.127 10.465 -4.206
1756 1 0.834 6.249 14.052
1757 1 3.257 5.324 14.056
1758 1 1.608 4.970 13.486
1759 1 21.543 7.736 12.118
1760 1 22.065 7.092 11.080
1761 1 18.035 5.664 10.345
1762 1 29.245 10.710 15.415
1763 1 29.319 11.898 12.923
1764 1 31.109 10.354 20.913
1765 1 16.494 1.436 29.009
1766 1 17.787 1.844 33.575
1767 1 15.771 4.395 27.290
1768 1 29.904 19.396 8.924
1769 1 31.352 16.912 13.801
1770 1 29.414 16.312 13.952
1771 1 17.867 0.952 25.809
1772 1 22.088 1.823 25.383
1773 1 15.973 0.762 19.796
1774 1 34.112 19.671 7.555
1775 1 34.742 20.937 6.826
1776 1 34.046 22.727 4.886
1777 1 34.629 4.848 10.433
1778 1 30.405 7.720 11.476
1779 1 34.563 6.142 10.584
1780 1 3.282 12.647 4.734
1781 1 5.389 12.143 7.235
1782 1 5.955 14.684 3.610
1783 1 -0.950 21.624 4.717
1784 1 -6.010 21.065 7.413
1785 1 -3.684 23.406 1.610
1786 1 15.234 20.397 12.910
1787 1 17.904 19.690 14.578
1788 1 15.168 17.847 12.046
1789 1 11.373 22.271 7.411
1790 1 10.148 23.542 8.002
1791 1 10.803 19.087 6.949
1792 1 23.684 9.830 8.159
1793 1 26.122 9.916 11.933
1794 1 25.456 11.266 13.511
1795 1 16.759 17.516 5.950
1796 1 14.297 16.140 1.552
1797 1 14.244 14.091 3.243
1798 1 15.868 3.026 24.161
1799 1 17.340 3.060 18.468
1800 1 16.405 3.779 20.032
1801 1 27.523 26.254 19.292
1802 1 25.594 28.362 21.547
1803 1 25.740 26.524 18.868
1804 1 36.175 6.271 18.380
1805 1 38.312 7.775 15.043
1806 1 38.219 0.019 13.742
1807 1 29.374 2.450 11.749
1808 1 28.415 -3.863 13.508
1809 1 30.893 0.259 13.342
1810 1 41.605 13.646 12.055
1811 1 42.028 11.080 11.496
1812 1 41.210 11.614 12.057
1813 1 18.765 6.544 22.374
1814 1 15.602 3.517 25.037
1815 1 16.765 6.195 25.847
1816 1 25.498 9.665 15.413
1817 1 26.201 5.803 17.458
1818 1 26.186 11.561 14.852
1819 1 6.929 12.238 13.270
1820 1 5.445 15.815 16.457
1821 1 7.429 15.989 14.226
1822 1 3.706 6.623 36.396
1823 1 3.511 4.083 31.748
1824 1 4.142 6.094 35.670
1825 1 -3.230 -1.697 7.531
1826 1 0.673 -0.435 8.089
1827 1 0.334 0.197 12.750
1828 1 23.071 2.226 8.481
1829 1 24.439 1.798 11.971
1830 1 21.814 2.759 6.153
1831 1 8.718 15.532 11.599
1832 1 7.589 13.618 13.751
1833 1 8.290 18.533 13.182
1834 1 30.967 18.846 16.416
1835 1 30.980 12.754 17.171
1836 1 29.642 14.948 14.612
1837 1 29.802 24.247 2.564
1838 1 29.783 27.080 3.022
1839 1 30.776 28.734 6.956
1840 1 23.585 12.197 26.262
1841 1 21.603 15.817 26.246
1842 1 21.992 12.880 25.290
1843 1 18.099 23.923 1.447
1844 1 19.241 22.380 2.426
1845 1 19.066 24.626 3.022
1846 1 43.418 9.241 11.527
1847 1 41.534 8.004 8.720
1848 1 38.591 8.682 8.965
1849 1 19.918 9.493 21.586
1850 1 17.353 9.367 21.859
1851 1 19.764 11.949 24.108
1852 1 40.368 10.995 14.050
1853 1 40.494 13.196 14.914
1854 1 39.562 14.946 18.035
1855 1 21.950 -0.635 19.610
1856 1 17.225 -4.362 14.958
1857 1 18.334 -3.660 16.267
1858 1 8.101 45.631 9.871
1859 1 5.842 45.318 15.524
1860 1 8.045 41.732 12.362
1861 1 -4.485 23.767 36.962
1862 1 -2.823 22.947 36.727
1863 1 -4.086 24.002 36.642
1864 1 12.848 1.370 9.514
1865 1 8.085 1.706 9.622
1866 1 8.843 1.505 8.918
1867 1 10.284 3.631 3.757
1868 1 9.738 1.096 6.989
1869 1 11.228 3.148 9.462
1870 1 4.756 45.226 18.270
1871 1 3.208 46.451 19.763
1872 1 5.765 44.524 18.429
1873 1 19.120 14.839 -1.773
1874 1 22.819 15.467 -3.955
1875 1 20.024 16.169 -0.699
1876 1 4.364 16.830 25.346
1877 1 7.894 16.877 24.861
1878 1 8.567 17.760 26.490
1879 1 15.593 19.733 21.865
1880 1 14.261 21.040 23.165
1881 1 16.855 23.762 21.031
1882 1 4.525 10.272 26.779
1883 1 8.512 11.386 28.746
1884 1 4.838 11.198 30.060
1885 1 3.734 21.393 20.616
1886 1 7.086 20.445 20.188
1887 1 3.904 19.832 17.466
1888 1 29.540 22.138 1.597
1889 1 27.259 21.482 0.922
1890 1 27.455 22.223 0.701
1891 1 27.063 4.411 10.057
1892 1 26.616 4.181 16.233
1893 1 29.891 5.694 16.035
1894 1 42.490 20.690 -1.082
1895 1 39.872 20.938 -5.395
1896 1 38.616 24.215 -5.645
1897 1 -7.901 20.528 18.257
1898 1 -8.271 20.002 19.863
1899 1 -10.432 20.195 19.290
1900 1 -1.351 23.427 7.076
1901 1 -0.173 22.609 8.111
1902 1 -1.203 22.850 9.965
1903 1 7.129 9.319 11.150
1904 1 4.232 8.751 5.432
1905 1 6.291 9.088 3.545
1906 1 29.581 5.478 17.172
1907 1 27.168 5.742 15.239
1908 1 30.144 7.275 16.695
1909 1 21.288 -0.295 2.270
1910 1 22.349 3.007 3.905
1911 1 22.262 0.934 3.764
1912 1 20.015 30.472 5.935
1913 1 24.615 28.952 6.230
1914 1 22.005 28.345 5.888
1915 1 33.340 12.706 7.447
1916 1 29.900 16.614 8.223
1917 1 29.469 14.802 2.453
1918 1 20.740 3.908 9.392
1919 1 20.614 7.970 8.748
1920 1 19.507 5.875 13.663
1921 1 24.250 28.121 17.123
1922 1 24.146 26.825 11.487
1923 1 24.576 29.339 13.735
1924 1 6.127 15.072 25.102
1925 1 7.406 10.957 26.960
1926 1 6.811 12.566 27.413
1927 1 9.710 15.101 4.989
1928 1 8.756 16.905 2.046
1929 1 8.229 14.772 9.534
1930 1 12.363 11.098 3.175
1931 1 8.334 10.603 5.105
1932 1 8.614 9.873 4.302
1933 1 12.601 13.789 7.322
1934 1 11.507 12.487 4.953
1935 1 11.798 16.048 4.060
1936 1 19.707 19.296 4.392
1937 1 19.067 18.993 2.203
1938 1 20.367 19.695 3.692
1939 1 34.736 17.960 17.826
1940 1 32.737 16.396 21.798
1941 1 33.153 15.221 19.977
1942 1 42.724 19.237 -3.066
1943 1 40.281 19.023 -1.646
1944 1 39.754 18.301 -1.099
1945 1 27.538 18.314 17.784
1946 1 27.622 16.467 19.815
1947 1 31.670 19.475 17.464
1948 1 23.960 15.878 21.960
1949 1 24.058 14.249 22.325
1950 1 22.997 15.345 25.005
1951 1 16.973 34.966 12.481
1952 1 20.281 33.342 14.542
1953 1 18.651 37.654 9.501
1954 1 16.227 23.161 14.088
1955 1 14.192 22.233 14.680
1956 1 13.226 24.047 14.571
1957 1 10.212 22.125 19.414
1958 1 13.125 21.585 20.768
1959 1 14.906 22.075 20.687
1960 1 13.856 17.682 -3.016
1961 1 14.963 20.609 -2.440
1962 1 15.482 18.924 -3.540
1963 1 27.140 35.899 8.275
1964 1 22.714 39.825 9.349
1965 1 23.745 37.596 8.048
1966 1 20.411 5.473 5.571
1967 1 21.622 7.350 5.323
1968 1 22.195 2.599 6.090
1969 1 -5.037 -0.025 26.843
1970 1 -6.995 4.452 23.827
1971 1 -8.755 0.310 27.661
1972 1 26.264 16.186 6.751
1973 1 28.880 21.193 7.737
1974 1 28.174 19.808 3.876
1975 1 34.897 21.104 23.656
1976 1 35.007 21.233 28.468
1977 1 35.777 19.286 19.319
1978 1 8.631 -1.141 9.210
1979 1 5.995 2.619 3.840
1980 1 9.706 -2.355 2.781
1981 1 3.963 19.897 23.386
1982 1 4.832 18.831 22.841
1983 1 3.654 21.298 24.958
1984 1 6.421 30.032 16.732
1985 1 6.449 28.539 11.832
1986 1 7.169 29.765 16.182
1987 1 15.454 17.728 19.646
1988 1 19.055 16.333 23.402
1989 1 20.178 17.945 21.874
1990 1 25.714 22.204 15.362
1991 1 26.556 24.123 9.244
1992 1 23.058 25.491 8.468
1993 1 10.330 18.684 15.907
1994 1 9.808 18.369 10.556
1995 1 11.870 15.694 10.971
1996 1 17.455 23.087 16.268
1997 1 16.813 21.415 15.437
1998 1 19.028 21.370 15.890
1999 1 24.856 3.237 18.335
2000 1 25.744 5.199 17.060
2001 1 25.534 2.699 11.923
2002 1 9.971 15.543 25.074
2003 1 12.923 17.440 25.197
2004 1 10.322 13.089 21.294
2005 1 29.473 23.073 27.440
2006 1 26.101 22.507 25.375
2007 1 26.442 20.170 25.025
2008 1 26.448 12.664 5.633
2009 1 22.952 17.916 9.018
2010 1 26.979 17.059 7.421
2011 1 33.025 23.014 16.240
2012 1 31.746 21.782 13.925
2013 1 33.446 21.327 18.954
2014 1 11.312 13.345 5.271
2015 1 11.857 16.814 11.675
2016 1 12.413 15.057 6.053
2017 1 16.570 6.875 7.585
2018 1 16.889 8.670 7.493
2019 1 16.590 5.058 5.935
2020 1 -1.415 11.676 6.325
2021 1 -6.936 11.838 3.154
2022 1 -5.475 11.420 5.113
2023 1 20.953 18.834 32.456
2024 1 24.766 18.402 32.743
2025 1 22.563 20.107 28.872
2026 1 3.047 27.057 23.464
2027 1 1.782 24.629 23.370
2028 1 3.600 26.956 26.229
2029 1 7.659 32.557 18.036
2030 1 9.032 28.122 17.344
2031 1 6.675 28.964 16.960
2032 1 16.053 29.277 14.179
2033 1 17.209 27.339 13.637
2034 1 17.618 28.087 12.777
2035 1 15.262 24.023 13.133
2036 1 16.274 24.215 11.221
2037 1 15.102 21.862 17.911
2038 1 3.188 21.372 12.928
2039 1 -0.105 19.800 11.957
2040 1 0.337 23.133 13.398
2041 1 29.211 18.381 -3.797
2042 1 27.608 20.790 0.789
2043 1 29.029 24.394 -3.227
2044 1 28.670 22.956 29.318
2045 1 27.817 24.078 25.311
2046 1 31.586 22.096 27.084
2047 1 32.253 28.373 12.461
2048 1 34.299 30.840 15.928
2049 1 31.000 32.143 10.787
2050 1 32.104 20.806 12.123
2051 1 34.925 22.336 17.539
2052 1 32.262 25.534 12.831
2053 1 6.057 25.295 26.983
2054 1 5.831 24.828 28.120
2055 1 4.620 24.035 26.901
2056 1 -4.282 27.629 14.198
2057 1 -3.962 25.822 12.309
2058 1 -5.390 24.487 14.983
2059 1 5.173 31.344 5.775
2060 1 5.015 32.615 8.796
2061 1 2.282 32.112 9.389
2062 1 -4.547 26.606 9.210
2063 1 -1.134 26.444 12.038
2064 1 -4.017 25.749 10.789
2065 1 19.927 33.108 7.436
2066 1 20.548 35.752 8.287
2067 1 19.091 36.064 5.349
2068 1 10.863 22.518 10.988
2069 1 10.364 22.934 14.595
2070 1 9.461 20.355 14.277
2071 1 15.227 16.981 37.249
2072 1 13.462 21.542 32.011
2073 1 13.152 21.468 32.002
2074 1 18.516 28.757 7.665
2075 1 18.459 27.180 5.706
2076 1 18.328 30.368 2.391
2077 1 24.872 46.321 19.574
2078 1 24.347 43.947 17.476
2079 1 27.357 40.187 21.710
2080 1 12.472 27.804 41.376
2081 1 14.099 28.104 46.999
2082 1 13.090 29.157 43.133
2083 1 38.249 32.754 -1.189
2084 1 40.648 36.403 0.187
2085 1 37.472 34.904 2.149
2086 1 24.681 16.667 10.864
2087 1 23.590 19.857 14.639
2088 1 22.557 19.552 12.230
2089 1 53.347 18.379 17.720
2090 1 55.023 17.276 22.905
2091 1 53.617 20.599 15.181
2092 1 17.177 42.646 17.004
2093 1 18.388 41.905 16.872
2094 1 17.909 43.069 16.741
2095 1 20.204 35.058 10.026
2096 1 19.600 33.957 13.717
2097 1 23.222 34.032 13.621
2098 1 3.960 26.575 19.483
2099 1 6.386 24.549 18.929
2100 1 6.172 24.820 18.733
2101 1 12.777 22.152 5.982
2102 1 14.234 23.832 9.869
2103 1 15.910 23.076 12.335
2104 1 21.075 31.320 19.008
2105 1 19.444 26.981 22.404
2106 1 17.880 32.596 16.590
2107 1 15.566 17.453 9.826
2108 1 17.248 17.748 14.479
2109 1 15.661 16.167 11.601
2110 1 -2.413 34.076 15.867
2111 1 -3.770 32.508 15.602
2112 1 0.326 34.124 15.598
2113 1 19.569 25.508 18.737
2114 1 19.986 22.132 13.940
2115 1 17.112 24.486 13.612
2116 1 36.191 26.702 9.212
2117 1 33.733 25.202 10.027
2118 1 39.120 29.100 12.012
2119 1 6.234 23.455 14.436
2120 1 6.691 23.788 16.405
2121 1 7.843 27.945 15.569
2122 1 31.830 40.982 4.168
2123 1 32.655 42.789 5.289
2124 1 34.692 42.871 10.081
2125 1 25.326 48.102 -4.330
2126 1 25.746 48.971 -3.649
2127 1 28.527 48.726 -0.670
2128 1 37.184 11.263 0.997
2129 1 38.387 13.879 5.501
2130 1 38.806 13.944 0.325
2131 1 38.986 37.301 12.835
2132 1 41.171 39.050 18.039
2133 1 41.862 37.226 17.591
2134 1 8.635 10.873 1.554
2135 1 5.683 9.085 -0.641
2136 1 3.259 11.675 -1.635
2137 1 -5.891 46.170 -2.103
2138 1 -3.298 45.338 -1.528
2139 1 -5.054 48.741 -1.108
2140 1 10.252 36.862 14.184
2141 1 11.491 35.861 15.395
2142 1 10.911 37.400 14.500
2143 1 11.921 44.666 26.448
2144 1 14.828 46.149 27.090
2145 1 15.919 42.813 24.437
2146 1 7.431 32.037 -0.952
2147 1 7.031 27.895 1.601
2148 1 8.954 27.805 0.155
2149 1 15.032 27.719 14.137
2150 1 14.983 25.657 9.692
2151 1 16.603 27.689 11.490
2152 1 30.667 32.638 28.180
2153 1 32.331 36.090 30.172
2154 1 32.475 35.987 26.087
2155 1 18.657 37.883 7.992
2156 1 18.199 40.727 8.278
2157 1 18.578 36.350 5.841
2158 1 26.313 48.618 14.018
2159 1 26.761 47.813 22.053
2160 1 27.385 48.699 23.289
2161 1 17.920 44.239 6.525
2162 1 17.431 44.990 4.944
2163 1 18.635 48.298 5.249
2164 1 29.769 30.862 25.385
2165 1 30.307 30.104 21.374
2166 1 28.928 25.564 25.572
2167 1 39.677 20.522 0.927
2168 1 38.794 21.870 2.904
2169 1 39.570 27.614 2.443
2170 1 32.857 18.844 4.390
2171 1 31.021 13.772 3.183
2172 1 34.890 18.798 3.720
2173 1 -1.347 4.896 3.000
2174 1 0.054 5.990 1.720
2175 1 0.340 3.158 3.690
2176 1 -5.348 4.466 20.880
2177 1 -7.531 7.740 24.667
2178 1 -5.918 3.586 25.409
2179 1 6.250 12.665 13.257
2180 1 4.516 12.615 14.546
2181 1 6.678 13.363 13.975
2182 1 27.803 14.667 16.043
2183 1 29.669 14.249 17.321
2184 1 26.141 12.366 16.404
2185 1 9.766 1.411 15.201
2186 1 9.515 1.360 13.058
2187 1 12.113 -1.642 13.536
2188 1 3.522 -7.578 -0.236
2189 1 1.429 -7.024 -0.057
2190 1 3.375 -8.039 0.361
2191 1 18.731 2.852 5.324
2192 1 19.368 4.588 7.922
2193 1 20.356 5.033 3.747
2194 1 35.243 0.208 22.696
2195 1 38.294 1.786 24.609
2196 1 35.314 2.412 24.853
2197 1 28.140 -2.946 14.912
2198 1 25.376 -4.062 14.903
2199 1 25.895 -4.804 14.997
2200 1 31.745 10.019 11.480
2201 1 29.906 8.611 9.665
2202 1 27.373 10.341 11.638
2203 1 26.224 16.528 3.570
2204 1 24.241 15.861 5.414
2205 1 26.930 16.935 7.039
2206 1 61.971 7.881 17.861
2207 1 57.681 11.239 16.717
2208 1 59.648 7.668 14.653
2209 1 51.935 9.607 15.081
2210 1 48.109 7.767 14.844
2211 1 48.044 10.553 11.354
2212 1 4.256 24.288 14.561
2213 1 4.410 27.207 12.299
2214 1 3.718 25.730 15.088
2215 1 11.692 -6.832 11.085
2216 1 11.011 -4.619 7.937
2217 1 11.341 -1.056 5.212
2218 1 3.890 2.892 14.824
2219 1 4.910 1.062 16.086
2220 1 6.234 5.732 14.252
2221 1 36.331 7.499 12.944
2222 1 37.939 10.599 11.992
2223 1 33.360 7.425 9.132
2224 1 9.310 16.546 38.696
2225 1 11.313 15.445 32.831
2226 1 13.242 14.374 32.086
2227 1 17.427 -6.819 25.698
2228 1 16.588 -5.733 28.103
2229 1 16.264 -8.862 28.693
2230 1 16.419 9.353 9.020
2231 1 17.917 9.774 8.732
2232 1 16.928 9.445 12.016
2233 1 14.750 1.120 26.291
2234 1 16.180 4.000 24.564
2235 1 12.179 3.318 22.973
2236 1 30.852 4.977 23.431
2237 1 31.553 9.861 19.560
2238 1 31.340 7.610 25.105
2239 1 30.922 -2.935 6.616
2240 1 32.206 -4.224 8.992
2241 1 32.370 -3.215 4.366
2242 1 28.351 12.216 5.069
2243 1 28.885 11.893 5.406
2244 1 27.155 13.913 5.673
2245 1 34.950 15.777 24.327
2246 1 34.931 13.453 28.217
2247 1 34.206 12.897 24.552
2248 1 17.446 -8.693 10.428
2249 1 15.861 -1.844 9.421
2250 1 16.001 -5.388 8.563
2251 1 -15.505 9.479 29.826
2252 1 -17.650 8.370 28.513
2253 1 -16.086 7.732 27.597
2254 1 6.186 -1.029 23.739
2255 1 7.971 -4.144 24.206
2256 1 5.723 -3.354 22.309
2257 1 10.008 26.983 14.250
2258 1 9.564 28.359 13.445
2259 1 11.012 26.871 16.588
2260 1 30.807 36.126 16.077
2261 1 30.701 32.743 14.931
2262 1 27.635 30.691 19.225
2263 1 9.629 23.611 9.747
2264 1 10.328 21.469 8.484
2265 1 12.691 22.913 9.435
2266 1 11.620 7.784 14.736
2267 1 8.533 13.710 15.122
2268 1 8.510 10.010 13.653
2269 1 7.529 24.039 31.456
2270 1 10.204 24.963 32.904
2271 1 9.775 28.699 33.577
2272 1 18.636 16.096 20.253
2273 1 18.778 13.660 17.481
2274 1 15.717 15.139 14.461
2275 1 23.368 -1.234 20.805
2276 1 25.813 -3.555 22.814
2277 1 24.739 -5.264 21.911
2278 1 18.843 26.948 -0.788
2279 1 19.692 26.609 3.977
2280 1 22.419 24.551 2.475
2281 1 24.497 13.037 25.092
2282 1 24.396 16.855 22.550
2283 1 26.534 14.109 20.854
2284 1 30.619 21.016 11.285
2285 1 32.445 19.964 11.092
2286 1 29.326 19.005 10.400
2287 1 25.550 23.623 25.736
2288 1 26.635 27.064 21.791
2289 1 22.082 24.412 21.348
2290 1 4.536 38.463 1.624
2291 1 5.580 38.565 -1.467
2292 1 4.644 39.755 -2.588
2293 1 17.369 14.550 17.679
2294 1 15.158 12.126 17.280
2295 1 15.607 11.777 19.838
2296 1 -1.058 -0.870 26.582
2297 1 -0.876 1.466 23.747
2298 1 0.106 2.222 25.529
2299 1 -7.934 8.810 8.211
2300 1 -9.519 9.802 11.230
2301 1 -9.748 7.624 8.242
2302 1 27.826 13.123 2.534
2303 1 25.906 11.995 -0.299
2304 1 26.997 12.978 1.254
2305 1 11.883 10.562 32.361
2306 1 12.738 14.790 33.763
2307 1 12.034 17.569 31.144
2308 1 33.067 26.618 17.092
2309 1 30.728 27.200 19.295
2310 1 31.283 24.578 18.022
2311 1 15.942 11.436 12.034
2312 1 15.948 11.098 12.532
2313 1 15.914 9.887 10.700
2314 1 18.429 9.873 18.914
2315 1 18.080 9.081 16.613
2316 1 17.933 10.649 20.873
2317 1 16.912 8.600 0.385
2318 1 18.472 10.787 3.411
2319 1 16.867 9.938 -3.062
2320 1 10.275 2.696 16.111
2321 1 11.190 3.583 10.774
2322 1 10.541 1.278 9.581
2323 1 22.291 17.386 20.405
2324 1 20.907 16.251 21.610
2325 1 24.566 17.371 21.219
2326 1 28.156 24.333 25.056
2327 1 31.162 24.366 26.019
2328 1 27.091 23.045 22.685
2329 1 7.603 22.319 5.399
2330 1 8.403 24.675 8.766
2331 1 5.997 21.319 7.033
2332 1 9.817 19.619 27.779
2333 1 9.103 21.661 26.329
2334 1 8.694 19.799 31.226
2335 1 19.964 -5.472 21.225
2336 1 20.229 -7.838 18.222
2337 1 21.388 -4.117 18.605
2338 1 38.247 35.635 12.992
2339 1 39.128 37.837 14.782
2340 1 37.571 35.156 14.142
2341 1 9.299 22.924 9.586
2342 1 9.402 23.694 11.346
2343 1 7.951 19.781 13.927
2344 1 21.099 42.937 26.917
2345 1 25.090 42.052 28.353
2346 1 20.717 40.677 23.307
2347 1 16.112 27.456 -0.020
2348 1 14.027 27.635 0.244
2349 1 14.401 29.089 -2.252
2350 1 24.845 12.813 2.120
2351 1 25.792 13.593 -1.293
2352 1 24.603 16.517 0.112
2353 1 11.074 41.090 19.635
2354 1 13.658 41.115 18.728
2355 1 8.566 42.045 20.659
2356 1 14.351 0.323 24.971
2357 1 11.334 -0.185 26.218
2358 1 13.054 7.273 20.954
2359 1 -2.061 24.010 19.014
2360 1 -0.977 21.353 21.266
2361 1 -2.904 20.454 20.048
2362 1 6.849 19.921 1.358
2363 1 7.794 22.803 4.923
2364 1 6.416 28.095 4.662
2365 1 15.523 4.832 22.115
2366 1 14.439 3.428 21.139
2367 1 16.684 0.304 23.006
2368 1 42.875 21.445 19.675
2369 1 42.842 20.898 17.649
2370 1 43.101 19.170 18.746
2371 1 4.828 29.936 28.106
2372 1 3.472 28.843 29.387
2373 1 5.730 33.354 27.735
2374 1 16.764 19.612 7.702
2375 1 16.040 22.275 8.341
2376 1 19.653 19.711 6.900
2377 1 12.324 27.995 39.850
2378 1 15.278 26.175 45.263
2379 1 13.714 26.537 39.224
2380 1 29.317 35.634 2.946
2381 1 32.262 35.508 3.654
2382 1 29.203 35.140 1.738
2383 1 33.519 21.136 14.884
2384 1 30.547 19.781 15.414
2385 1 33.370 22.436 10.766
2386 1 -4.543 19.153 30.174
2387 1 -6.548 17.047 33.698
2388 1 -5.640 20.138 39.079
2389 1 -8.634 10.844 21.083
2390 1 -6.202 12.393 19.618
2391 1 -4.143 14.086 18.652
2392 1 -7.359 23.629 14.341
2393 1 -8.214 22.614 13.795
2394 1 -9.873 21.386 16.217
2395 1 8.556 21.266 17.054
2396 1 7.193 20.427 17.952
2397 1 7.066 17.802 16.909
2398 1 29.578 17.788 27.885
2399 1 25.724 16.194 20.336
2400 1 26.372 20.166 22.479
2401 1 30.749 28.624 15.497
2402 1 30.806 29.307 15.987
2403 1 32.106 26.828 14.523
2404 1 11.784 26.430 14.070
2405 1 11.407 28.486 12.316
2406 1 10.493 28.781 15.370
2407 1 34.929 48.179 -0.695
2408 1 38.998 51.354 -1.729
2409 1 36.970 47.912 -1.244
2410 1 29.745 27.356 24.946
2411 1 30.819 29.464 23.624
2412 1 28.343 29.560 26.744
2413 1 31.200 26.690 20.114
2414 1 33.748 30.429 19.747
2415 1 33.368 27.513 19.974
2416 1 2.358 27.531 15.236
2417 1 3.980 25.418 12.364
2418 1 4.600 24.603 14.521
2419 1 4.846 19.352 14.420
2420 1 7.973 16.879 12.305
2421 1 6.672 19.377 16.174
2422 1 24.715 25.470 26.549
2423 1 24.536 26.870 29.058
2424 1 22.247 26.242 29.050
2425 1 22.790 48.033 16.544
2426 1 22.471 47.844 11.871
2427 1 19.935 48.624 16.688
2428 1 9.799 12.043 17.182
2429 1 6.758 14.113 11.835
2430 1 6.437 13.297 15.302
2431 1 12.441 16.145 19.377
2432 1 10.388 16.620 24.602
2433 1 10.771 16.295 24.961
2434 1 14.179 41.140 20.910
2435 1 16.399 40.056 20.119
2436 1 15.523 36.499 16.293
2437 1 15.748 15.645 24.262
2438 1 20.258 17.572 30.910
2439 1 16.994 16.563 25.796
2440 1 24.351 31.343 21.525
2441 1 27.072 27.899 17.653
2442 1 26.107 30.948 18.573
2443 1 28.596 33.895 21.187
2444 1 28.117 32.051 16.767
2445 1 30.026 31.241 24.671
2446 1 23.609 27.273 16.642
2447 1 21.660 26.911 13.225
2448 1 19.988 27.299 12.113
2449 1 8.081 15.888 -1.940
2450 1 6.922 16.716 -0.249
2451 1 7.949 14.958 -1.930
2452 1 30.474 31.830 21.788
2453 1 29.333 29.461 23.588
2454 1 30.455 31.339 24.338
2455 1 38.144 29.066 22.923
2456 1 37.453 31.546 24.916
2457 1 38.346 30.555 23.122
2458 1 33.544 14.405 25.310
2459 1 35.145 13.716 24.790
2460 1 35.706 10.947 25.177
2461 1 44.187 21.506 30.068
2462 1 46.658 21.990 29.039
2463 1 47.652 21.301 32.083
2464 1 -6.576 27.816 19.689
2465 1 -4.217 31.569 21.681
2466 1 -5.516 27.941 21.440
2467 1 -7.715 25.320 27.787
2468 1 -5.116 27.636 27.254
2469 1 -5.954 25.034 27.215
2470 1 17.075 42.359 1.354
2471 1 17.855 40.751 4.199
2472 1 14.557 39.849 3.418
2473 1 32.325 24.831 22.532
2474 1 32.547 24.661 21.215
2475 1 29.929 25.744 25.920
2476 1 6.534 29.938 12.096
2477 1 9.538 27.528 17.171
2478 1 9.323 27.825 17.943
2479 1 10.478 26.876 14.181
2480 1 10.666 21.135 11.919
2481 1 8.928 25.784 9.061
2482 1 23.477 16.894 1.709
2483 1 22.100 20.506 -1.201
2484 1 26.034 17.498 0.522
2485 1 20.410 39.654 -3.834
2486 1 20.652 40.276 -1.006
2487 1 20.332 42.237 -1.654
2488 1 16.079 32.733 16.553
2489 1 15.052 29.440 17.208
2490 1 16.970 32.385 11.944
2491 1 18.547 29.958 0.141
2492 1 16.876 30.744 1.912
2493 1 15.247 27.606 2.933
2494 1 29.460 39.635 13.272
2495 1 30.445 35.956 8.830
2496 1 29.356 39.504 5.733
2497 1 35.604 16.008 18.558
2498 1 32.576 15.077 18.009
2499 1 32.725 12.245 21.260
2500 1 15.099 23.251 20.939
2501 1 12.441 28.756 21.341
2502 1 11.800 25.460 22.798
2503 1 -0.863 26.521 11.452
2504 1 2.451 31.733 11.221
2505 1 0.919 26.039 14.319
2506 1 21.400 28.440 21.158
2507 1 14.478 27.272 20.329
2508 1 18.017 26.018 22.713
2509 1 2.340 44.443 7.811
2510 1 0.406 41.784 7.584
2511 1 2.729 43.189 10.266
2512 1 -0.184 38.550 13.083
2513 1 0.783 40.619 10.359
2514 1 1.981 39.696 17.086
2515 1 6.871 20.593 17.520
2516 1 11.436 20.428 21.756
2517 1 7.916 21.411 12.922
2518 1 11.385 18.687 15.479
2519 1 9.962 19.250 12.574
2520 1 10.603 15.535 15.230
2521 1 20.096 47.586 23.727
2522 1 16.963 45.632 25.399
2523 1 18.368 45.591 22.575
2524 1 30.565 35.769 17.010
2525 1 27.708 37.697 16.348
2526 1 27.093 40.448 16.707
2527 1 28.078 34.969 19.215
2528 1 24.930 36.123 19.206
2529 1 27.655 34.465 15.313
2530 1 31.578 30.622 19.807
2531 1 34.957 30.681 17.859
2532 1 35.436 32.652 17.924
2533 1 25.151 25.303 9.357
2534 1 25.531 29.298 5.231
2535 1 25.964 26.612 8.316
2536 1 42.464 47.818 7.548
2537 1 40.030 50.461 9.015
2538 1 41.598 49.728 8.092
2539 1 33.223 37.303 20.023
2540 1 35.072 41.297 15.692
2541 1 33.893 42.193 18.021
2542 1 15.377 6.000 7.450
2543 1 12.229 6.306 7.930
2544 1 12.712 6.654 8.315
2545 1 20.358 22.313 5.048
2546 1 17.085 19.523 6.800
2547 1 18.450 20.056 3.689
2548 1 -4.325 8.692 27.861
2549 1 -3.458 5.059 33.252
2550 1 -3.705 6.413 32.281
2551 1 22.930 -8.498 18.093
2552 1 22.655 -5.442 17.375
2553 1 22.059 -2.918 18.759
2554 1 22.491 -4.889 21.951
2555 1 20.744 -1.562 21.940
2556 1 22.085 -2.740 24.420
2557 1 9.606 -0.017 9.411
2558 1 11.627 -0.668 12.928
2559 1 9.370 2.709 16.405
2560 1 35.604 7.423 11.334
2561 1 31.238 10.070 12.361
2562 1 32.450 9.017 17.218
2563 1 37.243 5.618 8.759
2564 1 37.507 4.441 10.107
2565 1 38.084 5.179 9.603
2566 1 31.989 13.640 27.831
2567 1 32.112 12.766 26.171
2568 1 34.259 12.609 26.840
2569 1 33.216 9.673 24.761
2570 1 33.806 10.531 22.865
2571 1 33.775 10.622 21.859
2572 1 41.972 16.736 12.255
2573 1 40.433 13.612 8.551
2574 1 44.524 13.448 13.279
2575 1 32.099 26.167 22.050
2576 1 33.569 26.669 22.034
2577 1 32.922 26.940 23.828
2578 1 29.703 8.018 18.112
2579 1 30.656 7.255 18.125
2580 1 30.171 3.908 22.485
2581 1 22.507 19.193 32.615
2582 1 23.546 19.624 33.012
2583 1 22.790 18.208 38.060
2584 1 20.560 -0.467 19.131
2585 1 19.232 -3.573 14.983
2586 1 16.688 -3.368 14.089
2587 1 6.151 14.074 27.898
2588 1 4.468 10.248 32.476
2589 1 4.346 12.035 28.618
2590 1 10.986 17.640 8.864
2591 1 12.088 17.015 7.931
2592 1 10.628 17.752 9.652
2593 1 -5.431 8.443 1.804
2594 1 -1.377 8.084 2.663
2595 1 -2.217 11.537 6.402
2596 1 24.624 5.073 25.401
2597 1 24.433 1.638 26.067
2598 1 24.761 2.741 26.485
2599 1 31.926 12.375 17.445
2600 1 30.292 7.191 17.457
2601 1 32.871 10.097 18.639
2602 1 15.762 14.256 2.745
2603 1 15.996 10.040 2.217
2604 1 14.974 10.009 1.466
2605 1 23.007 7.994 20.760
2606 1 23.278 5.394 22.833
2607 1 21.159 5.243 19.721
2608 1 15.090 11.840 18.957
2609 1 15.869 17.398 27.758
2610 1 12.564 13.424 25.780
2611 1 21.901 4.022 7.150
2612 1 21.874 5.129 16.232
2613 1 22.336 4.088 12.170
2614 1 22.452 10.974 10.003
2615 1 22.095 9.731 8.730
2616 1 24.256 7.517 10.247
2617 1 26.339 11.151 11.821
2618 1 25.889 10.982 9.849
2619 1 25.846 9.860 12.598
2620 1 -1.686 10.244 28.342
2621 1 0.645 8.565 24.199
2622 1 0.093 11.226 23.649
2623 1 -5.283 24.825 24.178
2624 1 -2.758 18.288 25.695
2625 1 -4.948 19.821 26.316
2626 1 8.009 1.977 12.876
2627 1 9.676 3.405 11.310
2628 1 8.366 4.747 13.601
2629 1 26.914 20.546 22.524
2630 1 23.749 17.138 22.725
2631 1 26.064 18.277 26.014
2632 1 37.860 7.351 19.174
2633 1 37.377 10.034 19.897
2634 1 38.160 9.650 22.012
2635 1 23.381 8.760 8.319
2636 1 19.033 14.448 5.665
2637 1 22.286 10.085 4.106
2638 1 12.084 10.807 33.389
2639 1 11.259 9.179 33.451
2640 1 9.527 11.333 33.565
2641 1 16.395 13.852 10.906
2642 1 13.148 13.608 12.036
2643 1 12.967 13.783 15.008
2644 1 40.587 15.071 15.617
2645 1 38.967 14.579 13.918
2646 1 39.307 10.584 14.668
2647 1 16.280 20.833 23.324
2648 1 18.297 16.219 17.354
2649 1 15.705 20.321 16.569
2650 1 8.842 11.911 23.385
2651 1 5.731 10.620 27.155
2652 1 9.115 11.712 26.000
2653 1 26.067 27.370 21.184
2654 1 25.659 26.665 28.324
2655 1 25.652 25.803 23.739
2656 1 37.740 3.566 16.292
2657 1 38.781 8.363 13.525
2658 1 39.270 7.192 15.681
2659 1 -4.575 -3.091 11.289
2660 1 -4.557 -1.053 17.166
2661 1 -4.334 -0.546 15.170
2662 1 15.115 21.568 14.919
2663 1 16.694 23.185 17.463
2664 1 15.998 21.976 17.981
2665 1 12.553 3.724 16.906
2666 1 10.021 5.083 15.319
2667 1 9.508 3.171 17.537
2668 1 30.179 21.630 15.086
2669 1 28.542 24.069 15.263
2670 1 29.641 23.096 12.466
2671 1 12.261 5.581 12.530
2672 1 13.107 8.064 16.353
2673 1 13.461 5.698 12.136
2674 1 34.211 6.363 2.131
2675 1 28.550 10.834 -0.201
2676 1 30.398 4.994 -3.958
2677 1 29.379 15.280 18.707
2678 1 25.680 17.070 20.819
2679 1 27.199 12.130 22.025
2680 1 41.388 27.290 18.070
2681 1 39.296 26.403 21.884
2682 1 37.504 26.646 25.205
2683 1 27.360 15.210 23.948
2684 1 29.638 10.907 22.060
2685 1 29.641 16.876 20.408
2686 1 9.700 -7.305 26.551
2687 1 9.253 -6.532 24.724
2688 1 6.904 -6.715 24.653
2689 1 34.810 3.523 6.878
2690 1 36.564 4.544 5.970
2691 1 33.680 0.449 9.823
2692 1 40.403 8.859 14.856
2693 1 42.479 8.332 13.458
2694 1 40.271 12.814 14.516
2695 1 1.324 18.955 20.167
2696 1 -0.660 19.189 19.185
2697 1 1.451 21.231 18.713
2698 1 42.301 23.316 32.560
2699 1 43.473 22.459 33.160
2700 1 42.606 27.792 29.022
2701 1 11.815 31.636 30.913
2702 1 12.177 29.707 29.037
2703 1 12.034 31.055 31.254
2704 1 19.106 12.099 24.028
2705 1 16.206 14.810 29.621
2706 1 18.400 17.467 26.575
2707 1 -0.676 26.495 25.904
2708 1 -2.882 29.697 26.835
2709 1 0.062 26.085 28.950
2710 1 34.471 7.661 34.251
2711 1 32.189 7.719 34.897
2712 1 31.978 8.108 37.206
2713 1 -5.973 6.290 14.210
2714 1 -6.158 5.917 11.373
2715 1 -7.243 1.702 15.402
2716 1 4.604 15.875 27.962
2717 1 4.703 13.133 32.087
2718 1 5.318 15.516 29.023
2719 1 25.219 23.318 19.441
2720 1 29.493 23.878 17.137
2721 1 25.900 23.487 19.502
2722 1 -0.968 32.558 -2.613
2723 1 -2.583 30.247 -5.890
2724 1 -2.253 30.139 -5.636
2725 1 6.258 28.452 24.983
2726 1 10.735 37.482 24.322
2727 1 10.762 36.558 18.694
2728 1 3.751 19.933 25.580
2729 1 7.427 20.675 25.002
2730 1 4.760 22.359 25.104
2731 1 20.994 42.963 6.561
2732 1 21.386 43.171 6.797
2733 1 21.818 45.241 2.244
2734 1 13.233 25.697 6.164
2735 1 11.810 26.637 6.399
2736 1 10.851 27.132 7.283
2737 1 19.995 23.792 17.613
2738 1 18.495 22.487 13.736
2739 1 20.509 24.706 13.821
2740 1 0.719 20.089 19.347
2741 1 -2.443 16.793 16.075
2742 1 -0.319 18.560 14.784
2743 1 27.884 19.783 26.599
2744 1 24.496 20.305 25.946
2745 1 24.117 19.364 24.265
2746 1 35.061 30.345 21.735
2747 1 33.382 34.313 21.954
2748 1 33.257 34.192 22.295
2749 1 6.707 27.593 14.643
2750 1 5.635 27.319 8.919
2751 1 4.569 28.531 14.430
2752 1 6.209 35.971 16.271
2753 1 1.592 33.766 15.730
2754 1 3.003 37.237 13.856
2755 1 30.484 33.735 30.885
2756 1 31.015 28.124 29.298
2757 1 29.364 30.467 29.218
2758 1 12.772 23.009 15.516
2759 1 13.994 21.807 16.522
2760 1 10.895 19.253 15.845
2761 1 13.160 21.539 32.276
2762 1 14.077 17.737 29.636
2763 1 14.981 20.288 30.492
2764 1 15.931 33.063 16.251
2765 1 16.111 31.577 19.464
2766 1 16.650 34.123 19.706
2767 1 17.928 38.416 -3.910
2768 1 16.768 36.849 -0.416
2769 1 17.822 37.461 1.300
2770 1 30.104 21.243 11.383
2771 1 26.118 14.916 16.840
2772 1 30.047 17.606 17.532
2773 1 14.544 21.936 16.559
2774 1 16.741 17.999 15.897
2775 1 17.462 19.826 19.331
2776 1 6.858 20.769 9.167
2777 1 9.009 22.126 12.161
2778 1 11.067 25.904 12.587
2779 1 24.469 26.052 20.384
2780 1 25.249 24.486 23.616
2781 1 22.766 26.845 18.060
2782 1 10.136 36.225 28.243
2783 1 7.913 35.304 33.456
2784 1 12.517 34.463 27.727
2785 1 49.928 4.723 33.593
2786 1 50.226 6.026 28.832
2787 1 53.185 6.074 31.677
2788 1 11.554 23.955 9.454
2789 1 12.740 23.044 11.252
2790 1 10.524 22.232 16.372
2791 1 -5.764 28.589 17.593
2792 1 -4.108 28.662 16.834
2793 1 -5.891 29.035 14.649
2794 1 9.408 24.213 25.590
2795 1 7.852 20.722 23.182
2796 1 10.710 21.090 21.393
2797 1 21.083 26.297 19.070
2798 1 19.183 28.581 15.989
2799 1 18.236 27.287 19.586
2800 1 12.391 32.397 5.495
2801 1 10.753 32.891 5.136
2802 1 12.753 31.704 7.489
2803 1 14.960 31.030 18.896
2804 1 14.923 31.781 19.069
2805 1 13.317 33.648 19.597
2806 1 26.023 29.308 25.293
2807 1 25.976 28.324 22.055
2808 1 24.838 25.821 22.303
2809 1 38.628 23.641 0.191
2810 1 37.396 23.354 1.055
2811 1 37.988 25.049 0.283
2812 1 23.598 23.687 21.259
2813 1 19.830 22.171 22.265
2814 1 21.724 23.487 23.437
2815 1 25.188 32.578 25.813
2816 1 27.547 29.568 27.370
2817 1 27.077 31.732 30.387
2818 1 22.462 24.471 21.969
2819 1 21.150 26.077 23.429
2820 1 21.891 23.720 21.954
2821 1 35.226 31.696 33.402
2822 1 33.029 30.956 32.322
2823 1 33.471 29.872 34.455
2824 1 33.058 26.180 6.526
2825 1 34.994 25.239 5.276
2826 1 36.168 26.755 9.231
2827 1 22.669 29.375 15.463
2828 1 22.258 27.900 12.441
2829 1 21.679 26.139 13.600
2830 1 27.022 28.791 32.261
2831 1 25.198 27.870 38.542
2832 1 25.335 29.111 34.645
2833 1 19.914 34.676 13.548
2834 1 19.644 34.181 14.761
2835 1 18.492 32.689 10.751
2836 1 13.263 18.485 35.728
2837 1 13.424 16.761 33.172
2838 1 13.148 20.212 33.452
2839 1 20.750 28.640 18.179
2840 1 21.304 26.302 19.970
2841 1 19.077 28.453 20.623
2842 1 1.096 36.313 12.170
2843 1 2.358 29.849 10.448
2844 1 4.119 32.203 10.115
2845 1 28.736 32.213 1.248
2846 1 29.838 31.992 3.381
2847 1 30.170 35.367 3.952
2848 1 25.912 32.252 4.045
2849 1 24.383 32.569 3.042
2850 1 23.276 32.180 0.641
2851 1 24.780 25.196 16.712
2852 1 25.696 26.846 16.683
2853 1 25.985 25.370 13.644
2854 1 31.560 19.046 10.535
2855 1 28.317 18.893 7.341
2856 1 28.188 21.884 4.269
2857 1 15.799 39.791 19.641
2858 1 16.733 41.607 18.968
2859 1 18.336 39.786 10.987
2860 1 31.255 18.923 14.317
2861 1 31.084 17.136 12.142
2862 1 31.781 16.227 16.315
2863 1 39.766 27.667 26.846
2864 1 40.996 29.566 27.794
2865 1 40.980 29.177 27.948
2866 1 8.892 -8.980 4.348
2867 1 10.391 -4.788 4.925
2868 1 12.658 -8.092 2.793
2869 1 12.576 33.232 14.592
2870 1 13.274 34.087 17.368
2871 1 12.521 32.249 12.831
2872 1 21.431 6.507 2.658
2873 1 24.764 4.948 2.852
2874 1 23.267 8.556 2.050
2875 1 18.251 13.069 24.000
2876 1 16.400 10.838 25.800
2877 1 20.373 16.683 22.718
2878 1 13.856 19.168 12.792
2879 1 13.855 19.395 7.412
2880 1 14.289 19.245 11.380
2881 1 42.243 15.330 -2.629
2882 1 40.432 13.504 -2.242
2883 1 40.114 16.776 -1.545
2884 1 8.599 -8.757 8.440
2885 1 8.837 -9.076 8.292
2886 1 8.174 -8.872 12.718
2887 1 23.685 2.836 22.384
2888 1 27.502 0.179 21.708
2889 1 25.219 0.390 24.228
2890 1 31.742 -10.986 3.165
2891 1 34.751 -9.335 3.803
2892 1 32.033 -9.242 3.388
2893 1 33.713 11.532 17.990
2894 1 32.038 8.659 19.512
2895 1 31.393 11.800 19.518
2896 1 39.240 13.635 6.187
2897 1 38.020 11.596 5.841
2898 1 39.879 11.310 9.643
2899 1 35.991 2.550 24.112
2900 1 37.606 -0.467 20.859
2901 1 37.097 -1.323 21.749
2902 1 28.716 -1.590 23.223
2903 1 29.971 -1.096 23.684
2904 1 27.864 -2.979 23.542
2905 1 7.834 7.785 38.553
2906 1 7.179 3.649 38.442
2907 1 5.666 2.239 34.916
2908 1 13.214 7.944 35.716
2909 1 11.449 4.248 30.747
2910 1 13.780 10.419 31.816
2911 1 27.343 9.755 15.021
2912 1 27.137 11.388 18.424
2913 1 26.913 13.793 13.868
2914 1 13.200 1.637 15.223
2915 1 14.086 5.490 12.497
2916 1 12.457 1.185 13.595
2917 1 8.961 19.083 13.476
2918 1 8.628 13.438 11.989
2919 1 9.622 17.769 9.304
2920 1 22.081 7.712 1.448
2921 1 24.457 10.608 6.448
2922 1 28.807 7.745 6.611
2923 1 19.085 5.241 10.390
2924 1 21.349 1.974 13.119
2925 1 21.694 3.581 12.756
2926 1 25.460 16.574 14.771
2927 1 27.221 16.882 22.164
2928 1 25.296 16.992 18.116
2929 1 13.579 10.466 34.632
2930 1 8.955 11.728 38.575
2931 1 10.188 10.830 35.344
2932 1 25.871 3.884 16.816
2933 1 25.738 3.229 19.255
2934 1 26.219 6.596 15.517
2935 1 26.949 18.039 19.426
2936 1 26.980 16.354 21.910
2937 1 27.018 16.191 24.092
2938 1 26.853 13.079 9.067
2939 1 26.087 14.387 12.059
2940 1 25.112 10.720 14.362
2941 1 33.524 -5.790 15.240
2942 1 36.044 -5.962 16.001
2943 1 34.049 -7.413 15.804
2944 1 19.926 3.112 -0.438
2945 1 19.660 4.847 0.048
2946 1 18.644 2.483 -0.098
2947 1 7.608 22.790 8.316
2948 1 6.015 24.502 9.290
2949 1 6.158 24.339 9.912
2950 1 21.689 26.447 19.742
2951 1 22.990 26.689 13.972
2952 1 23.159 28.482 18.483
2953 1 2.590 18.300 18.378
2954 1 5.968 19.060 21.947
2955 1 3.509 20.842 18.755
2956 1 15.725 7.392 21.400
2957 1 21.301 4.101 18.414
2958 1 20.505 1.601 19.593
2959 1 28.314 22.025 19.039
2960 1 29.613 23.659 20.669
2961 1 30.058 22.653 17.288
2962 1 39.217 26.579 18.095
2963 1 39.013 26.119 14.408
2964 1 34.367 29.050 17.613
2965 1 21.354 30.151 35.233
2966 1 19.606 31.257 27.002
2967 1 17.393 27.296 30.396
2968 1 3.565 3.795 27.456
2969 1 5.512 3.939 30.263
2970 1 3.742 3.734 27.271
2971 1 24.363 14.120 19.983
2972 1 23.912 11.774 20.387
2973 1 23.494 19.132 19.973
2974 1 21.726 18.407 17.293
2975 1 20.602 19.685 20.974
2976 1 19.574 18.020 24.378
2977 1 31.204 6.699 -0.844
2978 1 31.965 2.136 -1.041
2979 1 31.484 8.523 0.444
2980 1 34.213 17.165 10.055
2981 1 34.593 14.221 11.754
2982 1 34.202 15.793 10.851
2983 1 17.986 4.772 12.331
2984 1 17.509 4.755 13.626
2985 1 18.814 4.554 16.665
2986 1 5.062 8.766 20.463
2987 1 5.231 8.825 17.211
2988 1 7.352 4.879 20.596
2989 1 28.751 26.750 23.386
2990 1 26.104 25.475 26.460
2991 1 26.177 23.198 21.421
2992 1 18.906 10.980 11.211
2993 1 16.998 15.979 12.426
2994 1 16.608 11.789 11.989
2995 1 20.925 21.494 7.697
2996 1 18.134 22.216 8.748
2997 1 20.460 21.910 7.767
2998 1 32.692 21.171 27.751
2999 1 33.895 20.725 24.016
3000 1 35.345 18.129 30.743
3001 1 17.966 24.579 34.100
3002 1 19.188 20.044 29.739
3003 1 18.810 24.701 31.273
3004 1 2.697 14.975 28.948
3005 1 1.176 15.509 27.793
3006 1 3.225 17.253 26.824
3007 1 33.025 11.934 26.171
3008 1 29.550 9.744 21.825
3009 1 31.090 8.555 22.359
3010 1 7.337 13.316 7.137
3011 1 6.413 10.444 8.710
3012 1 5.008 12.495 9.949
3013 1 23.764 7.593 22.631
3014 1 22.886 4.828 26.203
3015 1 22.471 8.817 28.719
3016 1 0.067 23.244 9.124
3017 1 2.780 27.590 8.265
3018 1 4.388 25.750 7.422
3019 1 40.268 20.117 20.690
3020 1 37.484 18.785 18.148
3021 1 39.312 16.017 19.849
3022 1 -5.586 22.968 25.874
3023 1 -6.589 21.565 23.317
3024 1 -6.367 22.226 25.710
3025 1 15.291 33.428 24.516
3026 1 15.461 28.199 24.285
3027 1 16.489 33.576 23.924
3028 1 0.365 16.401 21.114
3029 1 -2.120 16.683 24.969
3030 1 -4.369 15.979 22.440
3031 1 28.429 26.350 22.902
3032 1 29.032 23.686 27.441
3033 1 28.789 26.410 26.145
3034 1 2.381 18.646 6.318
3035 1 4.879 16.382 8.690
3036 1 3.280 16.312 9.515
3037 1 -0.883 13.057 40.360
3038 1 0.616 10.619 39.552
3039 1 -1.358 11.506 36.640
3040 1 30.162 43.345 27.036
3041 1 29.555 45.804 25.954
3042 1 29.520 42.146 26.478
3043 1 16.960 23.208 38.243
3044 1 18.585 18.051 35.749
3045 1 16.591 23.631 35.309
3046 1 35.719 34.540 6.563
3047 1 35.379 29.817 8.053
3048 1 34.026 33.261 9.170
3049 1 21.744 7.242 18.464
3050 1 20.976 6.810 19.306
3051 1 19.372 3.260 21.287
3052 1 -8.110 35.993 16.651
3053 1 -7.030 34.358 12.519
3054 1 -13.038 39.471 14.201
3055 1 3.912 18.397 27.547
3056 1 4.166 20.909 27.851
3057 1 3.067 22.400 25.333
3058 1 19.381 25.483 26.935
3059 1 18.281 25.128 27.076
3060 1 18.995 26.164 29.446
3061 1 17.832 38.606 23.948
3062 1 16.609 40.964 26.303
3063 1 18.974 41.264 29.399
3064 1 22.197 25.393 15.721
3065 1 24.186 26.884 18.348
3066 1 22.679 26.450 18.638
3067 1 24.274 18.174 31.004
3068 1 23.234 18.655 34.509
3069 1 24.395 16.618 30.542
3070 1 17.479 34.630 2.153
3071 1 21.727 33.232 4.884
3072 1 18.412 36.165 4.161
3073 1 5.433 27.758 6.285
3074 1 3.845 28.707 6.599
3075 1 1.123 31.510 3.817
3076 1 39.128 27.219 25.916
3077 1 39.097 26.211 30.832
3078 1 40.715 21.723 28.458
3079 1 22.020 34.603 35.297
3080 1 22.540 39.489 34.931
3081 1 18.146 38.076 35.870
3082 1 24.083 37.580 12.671
3083 1 25.049 35.595 15.460
3084 1 25.733 30.586 17.489
3085 1 36.772 13.989 19.444
3086 1 34.723 11.488 19.145
3087 1 37.264 13.502 20.328
3088 1 14.458 36.027 23.614
3089 1 14.285 37.501 26.714
3090 1 14.073 33.869 25.587
3091 1 -4.772 31.113 7.937
3092 1 -7.206 30.639 8.027
3093 1 -5.861 28.833 12.724
3094 1 15.628 36.818 31.686
3095 1 16.501 38.234 28.124
3096 1 15.890 34.614 26.590
3097 1 10.012 17.909 29.147
3098 1 12.019 20.208 33.440
3099 1 9.005 16.991 30.738
3100 1 20.399 34.422 9.247
3101 1 20.388 32.927 2.428
3102 1 19.001 32.891 7.105
3103 1 18.277 27.411 23.032
3104 1 16.758 26.066 29.729
3105 1 19.395 25.423 26.377
3106 1 30.099 6.358 17.616
3107 1 27.139 8.517 21.337
3108 1 29.099 5.774 19.531
3109 1 26.425 27.162 -0.552
3110 1 22.407 21.457 2.735
3111 1 25.736 23.040 1.049
3112 1 26.807 28.699 19.061
3113 1 24.726 26.603 17.256
3114 1 25.893 30.508 21.352
3115 1 10.287 25.572 29.987
3116 1 13.586 27.381 28.420
3117 1 12.270 29.785 33.338
3118 1 21.415 20.707 20.339
3119 1 24.053 17.475 16.282
3120 1 22.441 18.685 22.804
3121 1 31.368 30.146 21.607
3122 1 34.488 32.114 20.834
3123 1 32.575 28.879 19.016
3124 1 30.240 40.380 3.866
3125 1 30.877 45.670 4.839
3126 1 31.128 44.400 6.291
3127 1 44.690 33.326 21.217
3128 1 42.038 35.714 21.321
3129 1 42.170 37.794 22.182
3130 1 2.462 22.838 -5.248
3131 1 2.793 21.915 -1.454
3132 1 6.075 21.076 -1.508
3133 1 17.186 53.375 44.199
3134 1 17.431 53.072 46.531
3135 1 17.025 51.069 45.313
3136 1 21.775 28.751 28.791
3137 1 20.050 31.036 21.883
3138 1 18.592 32.819 27.055
3139 1 9.955 19.960 35.367
3140 1 8.674 16.061 30.231
3141 1 13.801 19.812 33.552
3142 1 27.381 37.692 16.903
3143 1 28.799 39.307 12.333
3144 1 25.371 35.098 14.472
3145 1 32.988 28.194 7.171
3146 1 35.336 27.135 5.376
3147 1 33.457 27.769 9.400
3148 1 28.790 35.812 27.877
3149 1 29.763 34.648 32.880
3150 1 28.516 32.994 28.008
3151 1 22.188 43.155 1.639
3152 1 21.402 45.879 3.488
3153 1 20.004 41.096 -1.339
3154 1 7.394 20.655 14.031
3155 1 4.375 18.361 13.582
3156 1 4.456 23.299 12.260
3157 1 27.786 18.113 29.505
3158 1 27.940 19.275 31.914
3159 1 28.494 18.256 24.464
3160 1 25.388 38.538 10.726
3161 1 25.748 41.209 11.351
3162 1 23.802 44.530 7.968
3163 1 22.650 41.221 15.433
3164 1 20.402 41.923 21.193
3165 1 25.929 40.430 15.874
3166 1 14.634 38.422 18.013
3167 1 15.565 38.637 19.026
3168 1 15.975 36.100 15.224
3169 1 15.656 10.805 12.032
3170 1 15.697 8.722 12.687
3171 1 15.394 9.808 10.768
3172 1 -7.102 3.202 25.199
3173 1 -7.949 2.807 21.931
3174 1 -9.553 1.337 21.870
3175 1 14.416 14.893 37.729
3176 1 12.758 21.367 37.695
3177 1 15.210 17.362 34.210
3178 1 19.393 11.305 25.072
3179 1 17.372 9.188 24.875
3180 1 17.364 9.512 21.534
3181 1 22.666 -2.124 17.145
3182 1 20.048 -2.227 17.714
3183 1 20.274 0.041 18.685
3184 1 23.298 20.680 22.343
3185 1 20.735 16.784 21.300
3186 1 23.138 16.443 19.817
3187 1 15.262 10.531 7.750
3188 1 16.105 6.155 10.645
3189 1 15.173 9.777 10.726
3190 1 8.152 5.747 16.585
3191 1 8.210 3.806 14.333
3192 1 8.193 2.279 13.831
3193 1 12.010 12.598 22.201
3194 1 9.097 14.391 25.083
3195 1 9.346 11.509 23.037
3196 1 40.943 14.989 31.441
3197 1 47.017 17.197 29.597
3198 1 42.596 16.158 33.960
3199 1 37.907 18.683 29.560
3200 1 41.294 18.255 31.433
3201 1 40.229 17.766 30.544
3202 1 17.879 -0.451 36.807
3203 1 17.544 -0.286 36.692
3204 1 18.235 -0.718 33.200
3205 1 24.094 16.683 32.611
3206 1 22.154 14.831 30.652
3207 1 24.916 16.398 29.031
3208 1 8.574 -5.374 10.243
3209 1 5.149 -5.134 19.247
3210 1 5.569 -1.829 15.747
3211 1 9.343 17.732 9.521
3212 1 6.184 17.059 10.104
3213 1 10.674 14.694 9.955
3214 1 15.542 13.416 28.431
3215 1 18.385 9.190 27.510
3216 1 14.341 10.026 26.945
3217 1 6.485 11.640 25.762
3218 1 2.932 10.047 25.829
3219 1 2.829 9.944 26.135
3220 1 15.445 24.640 21.459
3221 1 13.767 26.459 27.025
3222 1 14.917 23.835 19.972
3223 1 5.574 9.414 -0.065
3224 1 6.937 10.030 3.986
3225 1 8.328 8.270 -1.269
3226 1 29.491 22.319 1.770
3227 1 27.809 21.084 -0.056
3228 1 31.740 23.142 0.522
3229 1 22.393 4.511 15.729
3230 1 21.052 6.315 19.278
3231 1 23.687 6.349 20.918
3232 1 30.137 3.932 19.388
3233 1 30.256 3.393 20.776
3234 1 29.909 0.507 20.716
3235 1 19.946 -2.884 19.060
3236 1 21.817 -5.308 26.471
3237 1 18.702 -4.389 22.715
3238 1 26.487 9.788 12.031
3239 1 27.676 12.859 12.010
3240 1 29.709 12.324 12.573
3241 1 32.633 18.059 -0.866
3242 1 36.717 20.348 0.337
3243 1 29.755 20.509 4.012
3244 1 33.600 -0.229 28.079
3245 1 33.798 3.315 26.184
3246 1 32.528 1.337 27.288
3247 1 8.931 10.223 5.289
3248 1 9.321 8.421 12.371
3249 1 11.704 9.585 6.829
3250 1 15.402 6.475 6.285
3251 1 11.667 5.078 6.621
3252 1 15.752 5.246 8.882
3253 1 19.928 9.109 22.958
3254 1 22.149 7.457 25.892
3255 1 21.627 9.315 23.011
3256 1 21.904 7.495 21.742
3257 1 24.884 10.356 17.840
3258 1 24.814 5.279 16.958
3259 1 27.715 6.026 29.397
3260 1 26.063 6.192 25.323
3261 1 24.822 7.457 23.421
3262 1 17.072 12.835 15.033
3263 1 14.993 16.627 18.910
3264 1 18.252 10.469 17.208
3265 1 33.461 7.494 20.881
3266 1 34.448 11.609 23.831
3267 1 34.145 8.820 20.467
3268 1 24.600 4.806 21.267
3269 1 21.931 0.784 15.283
3270 1 21.092 0.967 18.661
3271 1 24.128 16.796 21.890
3272 1 28.282 17.539 25.384
3273 1 24.571 15.477 21.763
3274 1 31.097 -9.760 24.535
3275 1 31.294 -9.089 25.679
3276 1 30.326 -5.452 22.809
3277 1 31.475 4.853 28.858
3278 1 26.833 6.335 29.630
3279 1 27.877 2.525 29.411
3280 1 30.927 5.102 26.121
3281 1 33.266 4.042 21.997
3282 1 34.946 4.394 23.161
3283 1 33.330 16.828 22.127
3284 1 32.120 14.097 20.763
3285 1 32.023 15.192 20.167
3286 1 10.966 17.570 24.453
3287 1 7.029 18.027 25.878
3288 1 11.428 17.557 22.599
3289 1 -1.039 13.256 14.612
3290 1 -0.749 13.743 7.515
3291 1 0.593 15.369 10.789
3292 1 16.039 7.469 22.318
3293 1 16.026 6.052 24.383
3294 1 16.530 5.459 24.711
3295 1 14.526 14.666 26.130
3296 1 15.998 14.322 27.018
3297 1 13.963 12.840 20.783
3298 1 22.769 -1.422 22.712
3299 1 23.757 0.829 19.058
3300 1 25.225 -2.281 22.220
3301 1 6.755 26.458 5.166
3302 1 8.926 27.464 2.944
3303 1 7.144 26.090 8.874
3304 1 6.681 16.064 29.201
3305 1 8.854 16.989 26.561
3306 1 8.347 15.025 26.745
3307 1 32.933 21.111 12.639
3308 1 31.814 16.572 11.603
3309 1 30.006 16.849 11.922
3310 1 32.407 27.913 19.619
3311 1 28.960 26.827 15.410
3312 1 28.916 26.846 15.405
3313 1 4.085 11.358 19.813
3314 1 4.120 14.338 20.300
3315 1 8.927 8.685 21.096
3316 1 30.060 30.623 16.231
3317 1 29.949 28.290 18.248
3318 1 30.875 26.184 21.652
3319 1 18.453 19.970 20.687
3320 1 20.343 19.402 17.071
3321 1 20.747 22.633 23.501
3322 1 43.054 23.830 16.001
3323 1 42.405 22.196 15.070
3324 1 39.444 20.699 15.913
3325 1 7.534 28.458 5.879
3326 1 10.645 30.467 10.248
3327 1 10.534 31.470 5.828
3328 1 34.451 20.698 21.559
3329 1 38.369 21.711 18.658
3330 1 34.643 21.750 18.833
3331 1 2.800 26.671 20.060
3332 1 4.515 30.460 15.634
3333 1 5.633 25.694 16.603
3334 1 30.682 18.547 22.072
3335 1 31.175 20.447 25.846
3336 1 28.128 20.001 21.201
3337 1 11.697 28.868 7.299
3338 1 14.136 23.611 10.601
3339 1 12.466 28.005 6.252
3340 1 7.777 17.700 16.150
3341 1 9.922 15.378 13.198
3342 1 8.678 16.470 14.395
3343 1 25.401 18.403 38.513
3344 1 25.717 17.560 35.057
3345 1 25.253 17.458 39.390
3346 1 12.459 22.763 5.537
3347 1 16.264 25.160 9.021
3348 1 10.916 22.850 6.137
3349 1 23.809 16.700 29.005
3350 1 23.308 17.027 25.661
3351 1 23.375 15.640 25.754
3352 1 25.555 35.632 25.735
3353 1 24.330 38.097 27.036
3354 1 25.150 33.861 25.610
3355 1 13.845 25.733 31.240
3356 1 11.540 26.404 34.661
3357 1 14.512 25.909 33.804
3358 1 -5.433 18.806 5.531
3359 1 -6.673 19.215 10.114
3360 1 -5.930 19.742 4.130
3361 1 15.410 21.539 16.326
3362 1 16.237 23.118 20.993
3363 1 16.326 20.775 16.013
3364 1 18.086 27.421 23.009
3365 1 20.606 27.667 22.067
3366 1 18.821 27.925 21.943
3367 1 24.782 21.831 21.633
3368 1 26.275 20.744 27.605
3369 1 26.260 20.207 25.967
3370 1 19.823 31.850 13.447
3371 1 20.570 30.602 17.921
3372 1 19.821 33.579 18.781
3373 1 9.331 32.675 12.984
3374 1 8.157 32.487 21.606
3375 1 8.515 35.279 16.243
3376 1 9.833 35.004 32.805
3377 1 7.806 34.763 32.452
3378 1 7.772 35.216 29.403
3379 1 -0.231 23.102 11.082
3380 1 -0.072 23.202 11.451
3381 1 1.281 24.818 12.367
3382 1 7.766 36.994 11.019
3383 1 7.630 35.261 11.273
3384 1 7.765 35.313 7.033
3385 1 22.286 24.720 20.836
3386 1 19.681 25.547 23.284
3387 1 20.039 23.613 24.153
3388 1 29.975 36.715 27.060
3389 1 30.635 34.905 22.681
3390 1 29.288 35.702 27.616
3391 1 19.539 29.615 12.937
3392 1 18.496 29.193 12.437
3393 1 17.447 29.640 13.928
3394 1 8.465 34.815 9.217
3395 1 11.431 33.399 15.739
3396 1 9.771 33.607 14.292
3397 1 14.076 40.085 30.457
3398 1 16.097 39.503 34.097
3399 1 15.539 39.455 32.157
3400 1 29.257 36.543 20.016
3401 1 31.250 36.886 20.928
3402 1 28.952 38.895 15.844
3403 1 21.873 42.871 29.715
3404 1 19.711 39.886 28.394
3405 1 21.914 43.162 28.476
3406 1 34.388 26.262 31.598
3407 1 36.840 24.516 32.945
3408 1 35.258 25.456 34.537
3409 1 42.770 36.008 24.980
3410 1 40.219 32.347 27.159
3411 1 41.870 36.983 25.446
3412 1 0.011 28.728 20.502
3413 1 -3.206 24.217 21.931
3414 1 -1.607 27.719 20.145
3415 1 34.293 5.025 24.580
3416 1 35.253 4.702 23.022
3417 1 33.793 3.104 24.785
3418 1 11.417 31.334 26.922
3419 1 11.298 31.799 29.846
3420 1 10.332 28.418 32.784
3421 1 19.095 30.591 22.548
3422 1 22.094 34.712 23.645
3423 1 20.519 30.529 23.505
3424 1 5.988 29.384 11.158
3425 1 4.356 29.699 10.533
3426 1 6.445 27.299 7.009
3427 1 -1.565 41.807 9.488
3428 1 -2.257 42.845 9.690
3429 1 1.022 43.981 10.872
3430 1 34.523 35.962 40.060
3431 1 36.585 33.221 38.765
3432 1 31.666 33.246 36.216
3433 1 40.405 29.073 33.130
3434 1 39.748 29.739 31.760
3435 1 41.221 23.856 26.869
3436 1 19.706 27.421 30.670
3437 1 21.379 25.054 31.453
3438 1 17.390 25.604 27.028
3439 1 27.757 42.523 19.157
3440 1 29.591 40.658 18.251
3441 1 30.337 44.119 22.250
3442 1 23.781 11.035 21.070
3443 1 23.684 13.119 23.229
3444 1 21.644 16.551 17.801
3445 1 27.234 21.890 16.065
3446 1 26.124 22.262 15.997
3447 1 29.582 21.419 11.172
3448 1 48.528 19.788 32.789
3449 1 48.778 25.591 27.019
3450 1 48.043 24.329 28.729
3451 1 6.518 17.772 30.325
3452 1 5.535 14.434 28.662
3453 1 4.186 15.086 35.188
3454 1 17.111 31.868 23.060
3455 1 18.423 32.273 22.444
3456 1 17.659 36.042 22.260
3457 1 -1.286 25.781 14.848
3458 1 -0.068 20.280 14.817
3459 1 -1.984 21.393 16.247
3460 1 7.436 28.750 7.590
3461 1 10.230 24.407 2.088
3462 1 11.372 26.717 1.014
3463 1 2.768 6.351 32.782
3464 1 0.107 3.606 36.797
3465 1 -2.092 4.296 36.266
3466 1 33.742 30.349 6.971
3467 1 32.748 27.529 6.206
3468 1 32.033 30.344 6.865
3469 1 23.574 41.951 36.079
3470 1 25.162 39.307 31.920
3471 1 21.961 41.546 31.064
3472 1 16.114 14.962 24.667
3473 1 14.403 13.407 25.969
3474 1 16.133 14.994 23.695
3475 1 15.889 30.412 22.775
3476 1 18.782 31.258 22.700
3477 1 16.705 35.221 22.438
3478 1 15.011 39.409 16.382
3479 1 15.343 40.903 19.301
3480 1 11.937 38.071 19.127
3481 1 41.809 40.055 21.123
3482 1 42.777 37.833 17.284
3483 1 41.322 37.210 14.606
3484 1 23.033 48.774 13.128
3485 1 21.407 47.910 16.319
3486 1 20.386 52.803 15.332
3487 1 41.414 37.182 9.875
3488 1 39.497 39.155 13.214
3489 1 39.932 38.353 11.013
3490 1 27.013 7.218 29.940
3491 1 22.517 11.008 33.470
3492 1 24.739 7.966 31.621
3493 1 22.332 -2.443 27.711
3494 1 24.905 -0.830 23.542
3495 1 24.029 -3.778 26.121
3496 1 5.576 10.879 13.560
3497 1 7.132 14.014 12.081
3498 1 5.110 14.276 6.395
3499 1 13.590 -1.043 19.201
3500 1 12.037 2.645 16.060
3501 1 12.089 0.403 23.165
3502 1 17.507 8.739 25.294
3503 1 15.712 4.351 28.425
3504 1 16.252 2.815 23.628
3505 1 24.014 4.326 21.465
3506 1 22.428 3.401 14.214
3507 1 20.759 3.887 18.115
3508 1 17.913 16.506 19.725
3509 1 18.638 17.915 20.532
3510 1 18.120 18.304 18.817
3511 1 22.381 2.623 5.403
3512 1 21.324 1.832 7.217
3513 1 21.325 3.222 5.032
3514 1 28.616 16.983 27.250
3515 1 28.213 18.149 32.193
3516 1 31.249 19.870 29.110
3517 1 33.411 2.143 16.284
3518 1 31.981 2.434 16.068
3519 1 32.613 4.960 16.410
3520 1 29.822 15.255 26.136
3521 1 33.770 18.556 25.379
3522 1 29.128 15.820 29.232
3523 1 28.324 -2.976 36.979
3524 1 27.529 -3.929 35.344
3525 1 27.209 -7.150 35.201
3526 1 47.239 7.450 15.333
3527 1 49.285 12.908 9.831
3528 1 46.439 7.614 9.864
3529 1 21.526 7.987 20.034
3530 1 24.533 9.206 17.751
3531 1 23.541 13.943 18.426
3532 1 -0.755 -4.298 40.082
3533 1 2.390 -4.014 38.257
3534 1 -3.993 -6.383 37.079
3535 1 3.954 17.915 29.704
3536 1 4.212 7.834 29.500
3537 1 4.106 10.936 32.873
3538 1 10.670 10.937 11.645
3539 1 12.778 8.458 15.113
3540 1 13.470 9.863 11.193
3541 1 30.587 21.256 26.647
3542 1 26.531 16.188 28.887
3543 1 26.130 17.995 28.211
3544 1 1.618 9.833 36.003
3545 1 3.146 13.991 32.254
3546 1 1.368 9.466 37.641
3547 1 29.524 9.772 33.305
3548 1 30.118 12.947 32.050
3549 1 31.385 10.522 33.559
3550 1 21.747 0.217 30.198
3551 1 21.054 2.646 29.043
3552 1 21.455 3.037 32.303
3553 1 27.506 9.666 31.026
3554 1 28.485 11.160 28.409
3555 1 26.234 12.737 31.418
3556 1 23.342 15.710 1.274
3557 1 21.991 16.602 -0.776
3558 1 23.220 20.130 0.152
3559 1 24.643 10.242 17.328
3560 1 28.375 12.075 24.711
3561 1 23.988 12.325 22.397
3562 1 19.771 -2.335 21.751
3563 1 21.719 -2.883 18.478
3564 1 18.878 -4.477 19.960
3565 1 38.554 -4.536 22.686
3566 1 36.897 -2.684 21.898
3567 1 38.138 -3.454 23.203
3568 1 -1.338 9.018 26.528
3569 1 0.829 12.830 28.862
3570 1 -1.658 14.463 31.386
3571 1 21.428 12.729 31.765
3572 1 21.322 13.169 35.358
3573 1 21.143 10.964 31.510
3574 1 15.496 8.577 18.493
3575 1 15.522 7.753 16.582
3576 1 18.246 6.890 19.661
3577 1 11.797 -3.135 29.683
3578 1 11.636 0.634 26.627
3579 1 12.447 -1.364 27.360
3580 1 20.053 22.241 20.327
3581 1 19.701 20.070 18.279
3582 1 23.198 18.573 17.747
3583 1 31.318 14.938 25.341
3584 1 33.354 16.360 23.536
3585 1 33.664 16.579 19.186
3586 1 17.331 21.944 2.375
3587 1 18.768 24.441 9.056
3588 1 19.215 19.686 9.273
3589 1 23.044 15.471 16.086
3590 1 22.637 17.922 10.286
3591 1 21.001 18.943 9.548
3592 1 22.978 10.964 11.865
3593 1 24.098 11.262 11.687
3594 1 23.549 10.853 10.149
3595 1 25.905 7.970 26.893
3596 1 22.774 11.524 25.640
3597 1 26.080 8.027 31.396
3598 1 32.887 19.858 28.132
3599 1 33.426 15.558 26.910
3600 1 35.038 17.122 27.263
3601 1 21.211 16.407 32.358
3602 1 22.445 14.776 32.204
3603 1 21.189 13.084 33.919
3604 1 53.290 0.674 41.976
3605 1 53.421 -0.143 41.093
3606 1 53.814 0.721 40.339
3607 1 -5.581 9.242 16.972
3608 1 -6.256 10.914 14.824
3609 1 -5.763 9.034 16.892
3610 1 17.415 22.561 11.833
3611 1 15.474 24.503 9.867
3612 1 20.673 23.929 10.614
3613 1 8.191 13.114 35.042
3614 1 5.285 14.316 35.175
3615 1 6.842 16.239 32.917
3616 1 17.282 10.116 9.204
3617 1 13.137 8.089 14.888
3618 1 18.209 8.725 11.663
3619 1 18.197 14.143 25.300
3620 1 18.197 15.210 18.935
3621 1 21.495 14.104 23.250
3622 1 13.841 14.189 20.154
3623 1 11.214 15.487 18.278
3624 1 9.055 11.316 15.290
3625 1 22.428 11.619 11.379
3626 1 23.796 9.286 10.790
3627 1 20.802 12.391 11.089
3628 1 22.569 30.491 14.416
3629 1 22.866 26.434 19.059
3630 1 22.593 28.448 16.602
3631 1 10.781 21.785 30.870
3632 1 12.736 23.281 31.848
3633 1 11.432 22.244 32.516
3634 1 28.279 21.119 20.074
3635 1 31.323 23.020 23.793
3636 1 31.360 24.941 21.713
3637 1 17.653 21.774 4.089
3638 1 16.132 25.468 8.441
3639 1 14.557 19.797 11.492
3640 1 44.956 5.147 35.534
3641 1 46.453 7.559 35.000
3642 1 46.036 7.978 33.693
3643 1 18.723 19.418 30.641
3644 1 19.434 22.536 31.171
3645 1 18.345 20.684 31.879
3646 1 9.382 15.952 27.908
3647 1 11.022 21.899 22.440
3648 1 11.903 21.396 22.243
3649 1 34.834 30.852 14.435
3650 1 37.060 31.353 11.121
3651 1 34.016 34.254 14.740
3652 1 32.136 16.483 31.000
3653 1 30.512 16.445 32.090
3654 1 33.282 13.145 29.637
3655 1 4.495 10.058 30.158
3656 1 3.213 13.821 25.625
3657 1 3.123 10.595 26.583
3658 1 10.219 24.262 29.326
3659 1 10.200 20.442 24.523
3660 1 12.111 20.439 26.154
3661 1 28.894 12.247 27.823
3662 1 26.797 10.474 25.659
3663 1 27.222 15.878 25.031
3664 1 -7.185 15.273 18.616
3665 1 -8.578 14.523 23.368
3666 1 -10.922 18.576 17.998
3667 1 45.721 26.433 13.518
3668 1 45.923 28.835 17.858
3669 1 43.024 28.220 19.892
3670 1 11.669 29.695 11.367
3671 1 10.563 28.206 10.471
3672 1 10.519 27.538 11.198
3673 1 26.601 8.389 31.333
3674 1 26.105 5.427 31.202
3675 1 27.361 3.798 26.264
3676 1 8.127 12.168 28.649
3677 1 10.272 14.018 28.291
3678 1 9.325 11.032 25.801
3679 1 -4.993 38.578 32.489
3680 1 -3.008 36.574 32.420
3681 1 -3.049 35.360 30.625
3682 1 35.586 -2.704 28.779
3683 1 35.315 -3.343 29.152
3684 1 34.251 -3.950 31.315
3685 1 19.849 22.209 7.277
3686 1 20.563 23.758 8.822
3687 1 21.702 17.839 13.126
3688 1 7.953 14.242 13.068
3689 1 7.964 17.612 19.490
3690 1 7.393 12.885 14.444
3691 1 -0.208 35.181 12.844
3692 1 0.295 36.607 11.933
3693 1 -0.353 37.725 13.679
3694 1 4.065 22.253 4.253
3695 1 1.297 22.378 8.625
3696 1 3.584 22.077 2.878
3697 1 18.549 3.470 19.601
3698 1 16.026 3.020 16.917
3699 1 17.035 4.847 20.427
3700 1 23.845 27.691 27.019
3701 1 22.249 25.972 23.695
3702 1 23.100 28.651 21.478
3703 1 18.915 27.582 17.493
3704 1 18.951 28.627 15.502
3705 1 16.922 26.565 19.582
3706 1 23.592 13.750 15.154
3707 1 24.251 13.517 18.569
3708 1 22.876 11.319 15.982
3709 1 23.497 16.975 -0.457
3710 1 22.127 16.808 0.038
3711 1 24.206 17.611 0.077
3712 1 42.934 21.805 28.829
3713 1 42.954 22.786 27.873
3714 1 43.344 23.595 29.090
3715 1 14.612 24.413 19.738
3716 1 11.162 22.642 21.005
3717 1 11.182 22.573 25.602
3718 1 21.781 20.338 29.572
3719 1 23.860 20.398 27.744
3720 1 21.551 21.003 27.822
3721 1 32.026 21.859 21.314
3722 1 32.995 25.462 23.731
3723 1 29.741 19.814 25.371
3724 1 6.520 29.477 18.017
3725 1 8.898 30.216 20.039
3726 1 8.780 26.492 17.759
3727 1 15.883 36.880 20.561
3728 1 16.861 33.415 20.084
3729 1 16.785 36.450 18.864
3730 1 -3.685 33.177 29.259
3731 1 -5.553 31.134 26.547
3732 1 -4.521 32.098 32.202
3733 1 0.693 10.655 28.130
3734 1 -0.882 11.996 29.548
3735 1 1.559 12.092 27.365
3736 1 2.415 29.939 38.432
3737 1 4.752 30.218 38.100
3738 1 4.140 30.722 37.674
3739 1 20.886 30.604 24.459
3740 1 23.654 29.074 21.164
3741 1 25.184 32.343 23.539
3742 1 3.806 13.069 11.300
3743 1 2.314 15.448 13.260
3744 1 2.860 16.222 14.303
3745 1 18.416 42.782 24.427
3746 1 18.548 38.538 21.543
3747 1 18.303 41.089 22.981
3748 1 22.671 33.951 21.151
3749 1 21.968 37.028 19.902
3750 1 19.404 34.467 18.420
3751 1 34.618 26.215 9.689
3752 1 33.445 28.053 8.520
3753 1 33.088 29.088 6.303
3754 1 19.842 35.433 3.394
3755 1 19.489 31.552 3.093
3756 1 20.076 29.244 3.589
3757 1 17.061 19.337 40.376
3758 1 18.912 21.076 38.967
3759 1 19.112 19.256 40.161
3760 1 19.789 16.554 24.422
3761 1 18.690 13.546 23.845
3762 1 19.274 14.149 23.706
3763 1 17.867 36.079 52.962
3764 1 13.798 37.437 51.650
3765 1 16.706 35.988 52.893
3766 1 -0.394 29.319 28.533
3767 1 2.451 28.631 27.390
3768 1 4.907 26.895 28.581
3769 1 10.212 37.199 4.010
3770 1 9.041 39.029 3.905
3771 1 7.669 38.739 1.640
3772 1 6.139 37.050 32.194
3773 1 8.774 34.322 28.752
3774 1 5.934 38.811 29.390
3775 1 25.083 35.890 20.789
3776 1 20.921 35.397 20.410
3777 1 22.929 37.120 21.555
3778 1 20.887 51.637 28.168
3779 1 23.782 51.563 27.926
3780 1 22.874 53.619 31.658
3781 1 27.537 47.521 32.932
3782 1 27.116 44.537 29.124
3783 1 25.174 44.706 31.951
3784 1 7.507 20.669 14.492
3785 1 6.942 20.284 13.858
3786 1 5.293 20.135 14.387
3787 1 19.468 21.040 20.956
3788 1 20.913 21.492 20.952
3789 1 23.561 21.621 25.948
3790 1 19.165 23.243 34.493
3791 1 21.736 24.649 31.149
3792 1 20.143 24.387 36.236
3793 1 13.924 29.559 17.508
3794 1 11.072 29.039 13.343
3795 1 14.767 30.663 17.429
3796 1 32.497 18.021 24.622
3797 1 29.393 18.554 17.225
3798 1 31.619 12.795 21.188
3799 1 31.443 32.139 37.585
3800 1 29.843 32.350 33.349
3801 1 31.708 29.779 33.695
3802 1 3.017 21.461 19.400
3803 1 1.455 21.730 17.444
3804 1 -0.916 20.145 19.520
3805 1 13.516 34.397 20.871
3806 1 10.831 32.434 22.805
3807 1 12.541 35.233 23.766
3808 1 15.311 11.567 17.334
3809 1 13.733 12.044 18.921
3810 1 14.323 14.277 17.685
3811 1 3.528 19.362 12.724
3812 1 0.108 16.610 9.844
3813 1 1.671 15.425 13.179
3814 1 23.517 33.560 19.426
3815 1 23.456 30.333 18.847
3816 1 23.508 29.668 18.940
3817 1 17.785 15.872 24.448
3818 1 17.657 18.326 19.865
3819 1 17.589 17.182 21.149
3820 1 23.470 14.803 30.388
3821 1 22.952 15.200 25.733
3822 1 25.124 13.851 30.101
3823 1 14.826 14.088 21.668
3824 1 14.951 14.318 20.773
3825 1 11.367 15.643 20.410
3826 1 34.882 40.478 14.789
3827 1 33.186 43.970 14.591
3828 1 34.373 38.784 18.658
3829 1 33.206 13.973 21.882
3830 1 31.776 14.803 21.221
3831 1 28.994 15.685 22.325
3832 1 27.112 29.048 34.474
3833 1 25.151 28.514 28.592
3834 1 26.609 31.861 32.670
3835 1 31.570 36.077 24.660
3836 1 30.192 33.775 27.276
3837 1 31.099 36.006 25.802
3838 1 38.936 22.399 14.423
3839 1 37.788 24.666 21.669
3840 1 37.721 21.710 15.010
3841 1 14.285 19.424 42.512
3842 1 15.661 17.146 44.037
3843 1 16.825 15.985 44.668
3844 1 19.716 -1.178 38.621
3845 1 20.521 -2.306 38.514
3846 1 20.648 1.322 39.366
3847 1 18.311 13.157 30.174
3848 1 20.658 11.628 33.970
3849 1 18.407 13.378 32.743
3850 1 3.898 17.746 30.164
3851 1 4.278 17.738 30.428
3852 1 0.818 15.911 28.803
3853 1 11.209 8.684 20.200
3854 1 8.566 6.224 18.410
3855 1 8.984 4.790 19.119
3856 1 20.336 3.396 18.678
3857 1 20.422 1.349 20.009
3858 1 20.375 -1.074 23.684
3859 1 17.081 22.291 34.592
3860 1 17.878 19.625 34.695
3861 1 16.030 16.251 35.821
3862 1 24.900 20.808 43.275
3863 1 22.139 26.510 42.322
3864 1 22.814 21.003 42.245
3865 1 32.948 9.181 31.122
3866 1 37.027 9.940 35.378
3867 1 35.727 10.171 31.017
3868 1 16.299 5.460 26.581
3869 1 16.423 3.712 26.824
3870 1 18.925 6.943 27.277
3871 1 31.421 6.784 31.768
3872 1 32.687 6.403 35.954
3873 1 28.993 7.453 31.673
3874 1 23.869 11.689 36.945
3875 1 23.943 13.895 37.126
3876 1 25.202 10.291 39.866
3877 1 40.908 7.956 33.733
3878 1 40.808 10.321 37.812
3879 1 39.399 8.263 33.824
3880 1 5.383 8.368 27.991
3881 1 4.605 9.450 34.664
3882 1 6.935 4.301 32.120
3883 1 13.480 14.186 18.003
3884 1 10.578 17.088 14.446
3885 1 11.708 18.497 17.821
3886 1 5.917 21.221 16.575
3887 1 3.570 21.596 15.072
3888 1 4.392 20.785 21.007
3889 1 -3.794 7.260 39.445
3890 1 -5.750 3.630 36.927
3891 1 -4.339 7.833 33.628
3892 1 6.706 25.787 19.521
3893 1 3.374 26.778 19.712
3894 1 6.719 24.641 13.546
3895 1 2.041 4.030 12.596
3896 1 2.051 6.719 19.486
3897 1 2.300 4.656 22.181
3898 1 24.174 -2.056 24.730
3899 1 21.759 -3.271 25.741
3900 1 24.748 -2.571 28.587
3901 1 35.110 23.209 13.820
3902 1 33.664 21.000 19.236
3903 1 34.941 19.960 14.238
3904 1 13.079 -2.079 13.306
3905 1 12.516 -3.281 12.202
3906 1 13.902 -2.946 11.394
3907 1 23.959 10.979 14.677
3908 1 20.128 14.407 12.231
3909 1 24.643 12.042 11.358
3910 1 27.620 12.938 22.839
3911 1 27.753 17.214 28.324
3912 1 29.390 19.454 23.601
3913 1 26.282 -0.038 13.017
3914 1 25.108 -3.540 15.491
3915 1 26.183 -1.188 16.580
3916 1 46.696 7.816 19.180
3917 1 46.473 6.935 12.930
3918 1 47.916 4.839 17.719
3919 1 8.212 -4.526 22.351
3920 1 7.903 -5.052 22.051
3921 1 6.944 -8.025 22.105
3922 1 2.666 12.145 14.518
3923 1 0.027 10.301 18.568
3924 1 3.214 12.126 15.225
3925 1 17.185 31.419 7.972
3926 1 18.056 30.341 11.347
3927 1 18.644 29.691 8.888
3928 1 10.595 2.903 23.044
3929 1 8.721 3.820 19.697
3930 1 9.603 0.895 21.399
3931 1 19.862 20.843 34.925
3932 1 18.297 19.796 38.328
3933 1 20.279 23.242 32.561
3934 1 28.724 17.331 24.791
3935 1 26.879 13.699 24.494
3936 1 26.585 10.572 27.319
3937 1 0.674 10.541 16.436
3938 1 2.181 7.159 19.530
3939 1 1.252 12.046 16.932
3940 1 35.729 19.905 46.095
3941 1 35.564 20.191 43.717
3942 1 34.088 16.816 40.999
3943 1 39.251 6.267 20.044
3944 1 38.630 4.374 22.184
3945 1 39.044 6.336 15.174
3946 1 33.811 12.237 31.931
3947 1 34.650 12.158 28.537
3948 1 33.839 10.401 29.349
3949 1 37.399 15.716 34.544
3950 1 36.777 14.823 33.167
3951 1 35.806 15.636 33.791
3952 1 26.530 -16.808 16.555
3953 1 27.680 -17.546 12.833
3954 1 26.843 -17.438 19.040
3955 1 34.478 23.402 29.686
3956 1 38.393 20.557 32.803
3957 1 35.054 17.950 35.170
3958 1 28.672 27.708 -4.296
3959 1 29.340 28.976 -3.373
3960 1 30.407 29.241 -6.865
3961 1 -9.636 14.170 27.463
3962 1 -6.226 10.977 34.162
3963 1 -5.054 14.013 26.289
3964 1 3.346 28.175 19.997
3965 1 3.173 30.125 26.484
3966 1 4.831 30.531 25.109
3967 1 14.451 7.498 32.251
3968 1 14.303 1.668 30.478
3969 1 15.565 0.723 32.944
3970 1 17.002 27.043 25.859
3971 1 20.081 27.484 24.943
3972 1 18.467 26.705 23.871
3973 1 30.565 3.673 12.610
3974 1 30.862 1.572 12.335
3975 1 29.554 3.130 14.045
3976 1 18.892 13.735 44.886
3977 1 19.317 13.889 46.547
3978 1 18.441 11.669 45.796
3979 1 41.875 11.494 30.448
3980 1 40.464 12.226 28.324
3981 1 41.578 11.104 29.293
3982 1 21.886 9.790 26.060
3983 1 20.797 9.081 24.128
3984 1 20.427 11.685 23.329
3985 1 35.134 23.950 21.797
3986 1 33.813 25.144 20.822
3987 1 31.007 24.756 19.145
3988 1 22.935 32.238 25.248
3989 1 21.225 29.776 25.110
3990 1 23.177 33.840 26.009
3991 1 16.606 7.435 16.856
3992 1 16.171 7.670 19.625
3993 1 15.883 8.872 17.135
3994 1 27.555 10.025 29.881
3995 1 23.002 11.336 30.145
3996 1 24.636 10.443 28.644
3997 1 18.768 38.868 15.301
3998 1 18.391 38.420 18.773
3999 1 21.291 36.510 14.471
4000 1 19.866 25.706 33.662
4001 1 17.143 27.827 30.475
4002 1 18.036 27.210 33.775
4003 1 21.084 17.787 24.251
4004 1 23.972 21.717 25.586
4005 1 18.146 19.868 22.896
4006 1 40.026 12.964 36.932
4007 1 42.693 9.377 39.643
4008 1 40.579 13.131 35.827
4009 1 24.666 26.764 15.938
4010 1 23.076 25.212 18.515
4011 1 23.713 25.080 22.213
4012 1 9.263 14.833 39.221
4013 1 8.935 13.745 36.500
4014 1 12.329 14.488 42.945
4015 1 17.545 29.131 30.910
4016 1 18.025 31.670 32.160
4017 1 18.363 28.116 33.389
4018 1 17.983 24.296 28.562
4019 1 17.684 29.409 26.393
4020 1 17.820 26.384 28.924
4021 1 27.830 10.474 31.927
4022 1 29.337 12.196 34.158
4023 1 28.671 10.509 33.041
4024 1 26.751 14.700 33.046
4025 1 27.028 16.829 28.854
4026 1 24.712 14.548 28.614
4027 1 36.729 5.874 20.447
4028 1 37.153 7.539 19.522
4029 1 37.926 6.817 19.826
4030 1 3.677 36.953 9.963
4031 1 6.759 33.318 2.973
4032 1 7.118 39.252 2.694
4033 1 14.191 24.404 19.479
4034 1 12.293 20.292 17.258
4035 1 12.654 22.190 14.920
4036 1 14.814 17.030 16.799
4037 1 16.212 14.006 19.442
4038 1 15.916 16.805 16.141
4039 1 34.854 0.855 22.564
4040 1 36.399 3.046 21.277
4041 1 36.051 -1.405 24.533
4042 1 22.770 28.607 37.841
4043 1 26.644 28.113 35.933
4044 1 22.956 29.850 40.634
4045 1 -7.051 17.648 29.868
4046 1 -8.580 22.036 25.756
4047 1 -7.173 22.581 31.650
4048 1 13.912 32.152 34.588
4049 1 17.106 34.050 35.506
4050 1 15.949 32.500 38.289
4051 1 5.796 20.865 16.184
4052 1 7.437 18.337 16.300
4053 1 4.736 19.137 17.044
4054 1 10.432 27.567 32.749
4055 1 12.098 28.735 34.659
4056 1 12.290 26.520 32.928
4057 1 15.651 10.647 30.732
4058 1 20.265 8.993 30.457
4059 1 20.948 11.614 27.809
4060 1 36.380 9.081 23.587
4061 1 34.964 8.572 25.039
4062 1 34.475 7.511 24.715
4063 1 13.573 27.702 30.124
4064 1 10.126 24.922 28.523
4065 1 10.538 26.033 31.629
4066 1 33.333 15.708 20.124
4067 1 35.256 13.160 21.469
4068 1 34.176 14.826 22.640
4069 1 21.051 29.765 29.739
4070 1 18.731 27.831 23.309
4071 1 19.189 23.900 24.972
4072 1 7.075 17.108 8.762
4073 1 6.180 13.941 4.481
4074 1 8.201 14.590 6.580
4075 1 33.191 23.881 16.605
4076 1 34.044 24.646 15.856
4077 1 32.435 19.632 15.592
4078 1 17.827 28.980 27.453
4079 1 18.284 29.770 26.113
4080 1 18.021 25.634 23.798
4081 1 29.989 19.108 32.025
4082 1 28.609 18.286 28.494
4083 1 25.425 19.528 26.226
4084 1 25.679 28.875 34.229
4085 1 23.824 30.736 35.148
4086 1 23.358 28.108 31.899
4087 1 -2.155 22.813 17.858
4088 1 -2.756 15.227 17.499
4089 1 -2.783 19.566 15.260
4090 1 -0.256 30.119 31.229
4091 1 -2.312 35.400 30.452
4092 1 -3.153 33.718 29.849
4093 1 20.694 31.534 9.002
4094 1 19.203 31.601 12.622
4095 1 24.175 31.244 10.799
4096 1 21.426 20.718 18.714
4097 1 24.491 22.015 16.734
4098 1 18.325 21.471 14.841
4099 1 11.675 31.814 25.803
4100 1 14.640 35.654 21.644
4101 1 12.860 35.713 23.455
4102 1 28.840 27.947 8.595
4103 1 26.621 25.976 8.341
4104 1 27.903 29.789 5.748
4105 1 17.270 11.003 21.110
4106 1 17.831 7.916 18.624
4107 1 13.957 9.955 19.470
4108 1 23.905 32.979 38.746
4109 1 28.673 36.875 38.123
4110 1 27.752 30.972 34.256
4111 1 33.391 6.331 20.196
4112 1 36.865 5.613 20.164
4113 1 34.585 8.352 18.921
4114 1 35.738 23.125 31.739
4115 1 35.374 24.323 34.147
4116 1 33.584 25.624 28.900
4117 1 -2.623 22.173 35.841
4118 1 -6.458 22.697 34.116
4119 1 -4.745 22.808 37.320
4120 1 6.103 41.141 25.133
4121 1 5.053 40.802 26.761
4122 1 7.681 39.190 25.999
4123 1 18.329 36.678 12.895
4124 1 17.666 40.012 13.710
4125 1 16.828 38.037 14.154
4126 1 24.010 19.339 26.661
4127 1 24.159 20.473 28.446
4128 1 23.504 15.739 28.291
4129 1 11.360 22.689 29.724
4130 1 9.963 24.090 27.772
4131 1 8.993 24.788 30.629
4132 1 7.687 33.551 24.525
4133 1 10.196 35.555 21.727
4134 1 11.095 36.395 26.060
4135 1 23.595 27.944 43.836
4136 1 26.630 26.602 44.505
4137 1 26.215 26.857 43.869
4138 1 8.872 28.994 19.832
4139 1 8.351 29.726 19.894
4140 1 8.163 29.232 21.931
4141 1 34.493 24.077 18.397
4142 1 35.201 25.660 19.682
4143 1 37.398 27.143 21.535
4144 1 10.825 38.008 24.379
4145 1 11.484 33.929 19.573
4146 1 8.149 34.385 19.551
4147 1 31.619 27.712 31.279
4148 1 27.194 26.859 34.534
4149 1 28.214 26.117 33.467
4150 1 19.222 34.799 14.319
4151 1 17.822 31.734 16.828
4152 1 17.583 32.905 13.788
4153 1 11.809 32.050 35.518
4154 1 9.993 31.609 32.264
4155 1 8.260 31.468 34.043
4156 1 -4.466 32.815 25.192
4157 1 -3.737 30.535 25.978
4158 1 -6.005 28.559 28.604
4159 1 7.871 12.119 24.729
4160 1 8.524 13.401 19.440
4161 1 5.646 9.726 21.873
4162 1 9.018 24.090 23.178
4163 1 9.426 25.608 19.871
4164 1 8.443 26.831 21.333
4165 1 17.571 24.891 21.359
4166 1 17.308 26.004 20.857
4167 1 17.333 27.488 15.155
4168 1 16.856 47.045 15.565
4169 1 15.480 45.046 14.443
4170 1 14.054 42.617 15.459
4171 1 20.458 21.017 39.468
4172 1 17.893 24.160 32.035
4173 1 20.261 22.078 33.249
4174 1 14.430 21.488 22.611
4175 1 13.180 23.795 23.472
4176 1 13.585 20.215 22.161
4177 1 15.750 30.681 12.383
4178 1 18.634 31.051 15.091
4179 1 16.745 30.645 13.695
4180 1 31.780 30.215 34.008
4181 1 31.279 26.903 33.916
4182 1 29.381 29.181 33.250
4183 1 19.824 24.627 38.315
4184 1 19.839 25.261 39.833
4185 1 16.113 25.662 38.964
4186 1 23.873 13.180 5.697
4187 1 24.185 14.242 0.866
4188 1 22.846 16.848 6.679
4189 1 15.150 29.646 41.828
4190 1 13.846 29.930 41.687
4191 1 16.949 29.164 40.171
4192 1 40.297 26.395 23.231
4193 1 39.770 29.330 19.668
4194 1 41.455 26.618 21.812
4195 1 9.667 36.324 20.022
4196 1 10.815 35.963 23.418
4197 1 10.202 38.657 23.027
4198 1 0.589 11.233 23.611
4199 1 -0.236 13.943 23.652
4200 1 -1.797 16.817 23.119
4201 1 12.999 29.562 9.223
4202 1 11.159 28.632 8.102
4203 1 13.848 27.275 8.597
4204 1 8.483 -0.557 38.070
4205 1 6.103 -1.900 40.950
4206 1 4.047 -0.193 40.386
4207 1 26.727 33.390 33.756
4208 1 25.109 34.155 29.540
4209 1 27.471 30.252 30.965
4210 1 20.536 39.170 37.009
4211 1 18.688 37.143 42.883
4212 1 17.105 41.056 36.212
4213 1 32.900 29.213 23.491
4214 1 32.986 27.723 23.621
4215 1 30.882 28.396 26.562
4216 1 30.071 15.880 17.263
4217 1 29.716 16.788 18.544
4218 1 28.877 18.388 19.346
4219 1 22.843 26.739 16.657
4220 1 24.881 28.855 14.061
4221 1 24.354 26.535 12.304
4222 1 17.681 37.418 29.133
4223 1 18.287 40.906 26.148
4224 1 19.523 35.992 29.098
4225 1 6.709 40.051 14.859
4226 1 6.174 40.396 18.634
4227 1 8.692 41.466 22.477
4228 1 49.578 19.164 24.348
4229 1 51.521 22.848 26.061
4230 1 51.870 19.613 25.773
4231 1 33.332 16.467 10.949
4232 1 30.370 14.762 12.001
4233 1 32.118 21.094 10.370
4234 1 -10.886 1.514 37.078
4235 1 -7.437 0.671 37.260
4236 1 -9.698 0.171 33.348
4237 1 21.687 -6.687 45.692
4238 1 20.321 -7.671 45.410
4239 1 21.436 -4.776 43.393
4240 1 12.670 4.460 26.929
4241 1 16.203 4.461 26.091
4242 1 14.733 4.246 25.975
4243 1 21.869 23.821 22.934
4244 1 19.595 23.818 21.639
4245 1 20.073 19.822 21.751
4246 1 0.844 3.546 15.850
4247 1 5.228 5.887 18.039
4248 1 3.003 4.204 21.451
4249 1 21.749 7.391 43.239
4250 1 18.731 7.570 46.860
4251 1 18.708 9.650 45.092
4252 1 33.114 1.959 15.059
4253 1 34.164 -0.557 15.392
4254 1 31.558 -0.430 16.898
4255 1 12.578 6.154 13.576
4256 1 14.708 7.139 9.238
4257 1 12.960 4.629 7.377
4258 1 36.909 -5.969 35.846
4259 1 39.525 -3.313 32.900
4260 1 36.437 -4.947 36.491
4261 1 18.924 10.993 37.096
4262 1 16.086 11.718 42.649
4263 1 16.754 8.968 42.407
4264 1 14.668 5.615 28.597
4265 1 14.514 6.775 27.347
4266 1 14.149 6.247 23.914
4267 1 21.219 18.711 26.774
4268 1 19.771 16.464 31.371
4269 1 21.024 18.225 30.133
4270 1 21.915 3.443 35.331
4271 1 20.988 0.940 34.263
4272 1 20.758 7.045 29.917
4273 1 13.433 10.897 27.512
4274 1 13.942 12.497 27.913
4275 1 14.364 10.704 27.227
4276 1 12.385 26.341 25.530
4277 1 11.298 27.692 19.420
4278 1 10.642 29.724 26.756
4279 1 1.265 -2.111 25.745
4280 1 -2.299 -4.387 22.914
4281 1 -0.531 -2.366 21.144
4282 1 6.879 21.034 22.887
4283 1 4.676 21.970 24.354
4284 1 6.428 18.295 27.889
4285 1 11.380 18.576 23.226
4286 1 11.138 18.497 22.497
4287 1 12.709 22.127 19.409
4288 1 3.711 12.382 35.139
4289 1 4.565 14.592 34.541
4290 1 3.614 11.536 37.150
4291 1 29.381 12.565 31.175
4292 1 26.300 11.799 28.135
4293 1 26.857 11.846 23.862
4294 1 20.717 10.747 40.122
4295 1 20.301 13.603 44.964
4296 1 19.894 11.074 44.016
4297 1 22.733 -4.133 43.130
4298 1 22.094 -2.593 39.534
4299 1 23.381 -3.435 43.095
4300 1 22.498 16.110 27.465
4301 1 24.258 13.317 26.437
4302 1 24.594 13.412 31.270
4303 1 46.547 3.517 35.530
4304 1 43.858 8.839 32.173
4305 1 47.089 8.477 31.047
4306 1 37.875 29.315 22.943
4307 1 35.212 29.693 28.273
4308 1 35.680 26.948 25.932
4309 1 43.293 -0.991 18.108
4310 1 42.882 2.781 17.449
4311 1 41.099 -1.294 20.665
4312 1 12.699 25.624 27.739
4313 1 10.389 26.755 26.310
4314 1 11.249 27.497 26.001
4315 1 19.266 10.281 29.145
4316 1 16.224 8.061 32.441
4317 1 17.715 11.756 32.263
4318 1 -0.135 -3.119 37.040
4319 1 0.812 -0.791 36.483
4320 1 -1.591 -1.038 35.742
4321 1 4.048 6.008 21.158
4322 1 3.113 7.074 17.654
4323 1 4.867 6.546 19.766
4324 1 18.790 21.188 27.379
4325 1 19.767 19.779 27.507
4326 1 21.133 23.077 28.892
4327 1 18.503 6.414 27.194
4328 1 14.672 7.165 22.222
4329 1 16.617 8.064 22.229
4330 1 24.507 -3.743 29.439
4331 1 23.229 -5.292 33.679
4332 1 23.157 -4.049 28.204
4333 1 29.502 12.451 25.327
4334 1 29.072 13.100 28.440
4335 1 29.374 10.105 27.338
4336 1 24.482 24.802 16.964
4337 1 26.831 22.466 17.877
4338 1 24.593 26.133 17.166
4339 1 24.287 0.135 33.076
4340 1 19.489 3.036 31.779
4341 1 21.333 0.812 29.372
4342 1 37.788 21.309 24.921
4343 1 36.654 20.265 21.711
4344 1 37.841 20.282 23.466
4345 1 18.316 7.283 46.444
4346 1 16.553 11.575 49.332
4347 1 18.907 4.720 47.684
4348 1 17.746 22.090 8.564
4349 1 19.073 18.478 12.859
4350 1 15.423 15.300 11.738
4351 1 4.944 13.773 24.803
4352 1 -0.082 14.665 26.547
4353 1 1.148 13.643 28.107
4354 1 12.595 -5.364 37.553
4355 1 12.101 -1.776 34.224
4356 1 13.654 -2.044 31.336
4357 1 -1.793 37.696 27.369
4358 1 -3.275 36.665 34.952
4359 1 -2.429 35.847 31.011
4360 1 23.398 -5.662 33.422
4361 1 24.369 -6.852 33.933
4362 1 23.249 -7.350 31.707
4363 1 -2.388 13.752 34.489
4364 1 -0.893 9.236 33.037
4365 1 -1.176 16.226 32.125
4366 1 2.779 14.517 10.728
4367 1 4.417 18.176 7.482
4368 1 1.103 15.386 6.481
4369 1 11.134 30.339 20.644
4370 1 10.754 27.980 17.658
4371 1 11.805 29.677 17.352
4372 1 38.180 2.418 24.995
4373 1 36.249 1.486 25.104
4374 1 38.332 4.743 23.428
4375 1 13.127 9.408 37.651
4376 1 14.589 12.430 38.567
4377 1 15.818 10.537 41.049
4378 1 24.959 5.976 34.463
4379 1 27.146 8.301 31.489
4380 1 22.488 7.007 36.787
4381 1 27.779 11.507 49.505
4382 1 27.935 16.856 50.881
4383 1 29.126 11.777 48.311
4384 1 17.544 16.971 26.988
4385 1 15.956 16.717 28.273
4386 1 17.423 16.835 23.233
4387 1 -1.936 17.223 25.555
4388 1 0.985 20.512 26.977
4389 1 -0.728 17.738 24.376
4390 1 20.383 33.942 12.714
4391 1 18.479 35.138 17.272
4392 1 18.881 30.329 9.794
4393 1 8.261 14.806 30.715
4394 1 10.221 19.494 28.738
4395 1 10.545 18.679 30.286
4396 1 29.314 29.134 21.193
4397 1 30.779 24.543 19.392
4398 1 29.435 27.211 24.181
4399 1 35.095 15.991 25.249
4400 1 33.313 15.596 25.416
4401 1 33.565 15.247 23.699
4402 1 35.892 0.928 27.985
4403 1 35.085 4.111 24.310
4404 1 31.162 0.839 24.242
4405 1 43.418 6.466 29.286
4406 1 46.357 -0.127 26.135
4407 1 43.709 2.719 25.461
4408 1 -4.909 29.844 37.862
4409 1 -8.908 32.794 37.545
4410 1 -7.488 32.198 39.212
4411 1 -18.567 15.030 28.423
4412 1 -18.867 13.296 31.973
4413 1 -19.960 18.391 30.232
4414 1 9.473 52.906 36.475
4415 1 7.550 55.935 36.632
4416 1 4.633 56.860 37.653
4417 1 12.219 20.697 23.968
4418 1 12.065 19.964 25.154
4419 1 12.370 22.289 25.519
4420 1 36.278 19.124 31.169
4421 1 37.177 21.183 30.331
4422 1 37.293 22.085 25.361
4423 1 40.479 14.239 30.724
4424 1 39.265 13.918 35.632
4425 1 39.124 11.711 31.185
4426 1 2.458 18.724 38.430
4427 1 1.846 20.247 41.447
4428 1 3.677 19.622 40.804
4429 1 -5.723 15.953 19.613
4430 1 -4.456 18.134 25.535
4431 1 -5.129 21.151 20.432
4432 1 22.754 23.827 20.392
4433 1 18.061 19.501 21.971
4434 1 19.888 19.497 20.208
4435 1 20.665 4.098 24.086
4436 1 23.186 5.730 24.603
4437 1 23.739 4.342 23.863
4438 1 30.276 11.133 34.486
4439 1 32.208 6.829 42.403
4440 1 30.847 8.528 35.897
4441 1 38.178 -4.207 31.561
4442 1 37.677 0.313 29.404
4443 1 37.557 0.804 27.748
4444 1 23.368 27.861 36.486
4445 1 26.291 30.383 33.116
4446 1 23.775 28.587 34.179
4447 1 33.107 13.865 10.024
4448 1 28.987 14.675 8.659
4449 1 28.978 14.150 9.750
4450 1 1.011 25.778 20.904
4451 1 3.858 25.504 20.422
4452 1 1.850 24.221 18.563
4453 1 30.321 24.886 34.249
4454 1 29.994 25.179 31.191
4455 1 33.266 23.027 34.169
4456 1 30.793 9.884 19.371
4457 1 29.263 10.576 18.865
4458 1 33.596 11.457 18.293
4459 1 16.932 20.863 32.310
4460 1 18.469 22.342 31.134
4461 1 16.518 21.633 29.820
4462 1 14.384 7.845 18.668
4463 1 18.181 9.550 22.212
4464 1 13.847 8.574 19.781
4465 1 23.169 30.442 18.694
4466 1 23.322 28.353 23.173
4467 1 23.759 30.166 18.965
4468 1 23.984 52.974 17.046
4469 1 25.110 50.523 16.267
4470 1 23.839 51.247 14.834
4471 1 3.016 -1.455 36.389
4472 1 3.614 -3.785 37.010
4473 1 2.340 0.944 33.124
4474 1 27.874 19.731 17.951
4475 1 27.459 20.839 17.605
4476 1 28.231 20.909 23.444
4477 1 4.851 23.782 28.021
4478 1 4.543 23.557 30.228
4479 1 4.731 22.231 29.374
4480 1 27.738 5.940 31.997
4481 1 28.765 10.409 28.857
4482 1 29.091 7.190 33.581
4483 1 29.500 27.206 20.448
4484 1 31.347 29.288 21.863
4485 1 30.786 27.375 21.962
4486 1 17.307 14.685 16.018
4487 1 17.643 18.730 15.616
4488 1 21.379 17.018 18.119
4489 1 -4.712 40.809 22.245
4490 1 -4.381 40.021 23.644
4491 1 -6.325 38.727 21.314
4492 1 22.535 -3.193 31.642
4493 1 22.746 -2.722 29.001
4494 1 20.910 -0.069 21.586
4495 1 11.955 26.501 19.454
4496 1 10.900 26.586 20.344
4497 1 9.851 21.627 22.194
4498 1 14.943 13.031 40.121
4499 1 14.091 14.495 37.950
4500 1 16.706 16.355 39.455
4501 1 17.964 10.741 26.144
4502 1 19.789 14.323 28.449
4503 1 18.835 14.308 27.810
4504 1 15.844 19.648 33.175
4505 1 16.587 19.199 35.195
4506 1 17.187 20.638 33.785
4507 1 16.991 27.800 18.151
4508 1 12.774 30.173 17.769
4509 1 16.093 27.261 20.688
4510 1 30.807 32.470 38.312
4511 1 34.243 31.043 36.584
4512 1 28.394 31.350 41.829
4513 1 22.379 20.426 40.175
4514 1 22.216 22.097 41.173
4515 1 20.484 20.829 40.671
4516 1 6.743 30.240 32.935
4517 1 5.054 26.279 34.548
4518 1 5.587 27.459 32.947
4519 1 13.831 16.181 21.685
4520 1 13.510 17.143 24.273
4521 1 13.182 17.300 21.103
4522 1 12.855 27.859 29.724
4523 1 11.874 28.837 32.127
4524 1 13.593 29.206 34.884
4525 1 16.433 33.777 14.118
4526 1 14.107 32.942 19.422
4527 1 13.848 31.930 10.665
4528 1 24.220 5.726 25.608
4529 1 24.301 6.425 25.250
4530 1 21.585 0.748 26.710
4531 1 -1.547 11.381 23.781
4532 1 -0.923 10.720 23.305
4533 1 0.846 9.114 21.276
4534 1 8.602 14.997 30.786
4535 1 8.975 17.632 30.186
4536 1 11.580 16.866 30.123
4537 1 13.761 23.906 49.098
4538 1 12.550 26.404 49.417
4539 1 15.535 26.413 49.118
4540 1 16.862 22.078 7.770
4541 1 18.449 20.769 11.425
4542 1 17.679 21.486 11.086
4543 1 42.495 14.226 42.381
4544 1 37.766 9.693 39.456
4545 1 39.672 10.684 38.756
4546 1 46.225 25.317 27.573
4547 1 47.499 21.174 29.817
4548 1 46.959 27.355 28.578
4549 1 27.661 37.490 47.828
4550 1 26.343 33.259 43.935
4551 1 24.659 30.420 47.697
4552 1 34.190 29.564 40.366
4553 1 32.655 30.291 45.464
4554 1 30.421 29.113 41.244
4555 1 15.724 29.670 29.483
4556 1 14.298 27.236 31.557
4557 1 12.295 26.376 30.527
4558 1 15.707 18.971 19.345
4559 1 15.696 20.884 16.096
4560 1 13.643 20.164 19.483
4561 1 0.554 14.894 26.861
4562 1 -0.783 18.671 30.185
4563 1 0.011 16.110 29.108
4564 1 31.891 37.138 24.908
4565 1 29.462 36.720 24.115
4566 1 29.832 38.522 26.644
4567 1 17.888 27.845 21.588
4568 1 15.939 27.213 22.884
4569 1 17.558 27.257 23.778
4570 1 7.684 27.204 40.030
4571 1 9.906 27.041 40.842
4572 1 7.539 27.502 40.329
4573 1 25.607 20.089 25.409
4574 1 24.498 21.878 24.717
4575 1 22.510 15.823 22.440
4576 1 29.388 18.227 21.116
4577 1 27.058 19.579 23.011
4578 1 28.099 17.589 20.830
4579 1 3.979 28.264 29.506
4580 1 5.801 30.632 29.180
4581 1 6.143 27.637 29.135
4582 1 23.342 24.184 18.791
4583 1 25.398 23.027 19.601
4584 1 25.589 20.237 20.004
4585 1 27.539 13.824 25.439
4586 1 25.941 6.921 22.312
4587 1 29.707 8.156 20.420
4588 1 21.243 25.825 31.527
4589 1 20.355 18.078 37.093
4590 1 17.551 20.636 33.592
4591 1 34.278 34.247 29.753
4592 1 34.388 35.395 28.810
4593 1 33.648 32.328 25.174
4594 1 11.870 36.069 17.043
4595 1 11.643 34.109 17.768
4596 1 9.740 32.333 17.222
4597 1 9.972 32.514 27.635
4598 1 11.858 33.269 28.572
4599 1 15.093 33.101 31.994
4600 1 13.057 29.764 32.243
4601 1 9.637 27.511 35.041
4602 1 9.608 31.695 32.953
4603 1 3.305 26.051 40.475
4604 1 2.744 26.251 42.697
4605 1 1.660 26.911 42.770
4606 1 1.685 25.964 32.944
4607 1 2.346 28.044 32.764
4608 1 1.993 22.003 35.539
4609 1 5.895 48.810 28.780
4610 1 6.568 49.929 33.561
4611 1 4.880 48.801 29.355
4612 1 28.927 28.856 29.124
4613 1 28.819 26.766 30.483
4614 1 27.016 26.103 34.947
4615 1 28.988 39.649 23.434
4616 1 27.965 40.696 25.290
4617 1 28.189 41.482 24.703
4618 1 28.490 46.199 25.766
4619 1 28.773 47.402 25.236
4620 1 28.823 42.635 23.018
4621 1 39.952 16.389 32.052
4622 1 39.123 17.209 27.476
4623 1 36.299 14.707 26.188
4624 1 24.876 32.386 20.527
4625 1 25.720 35.905 24.604
4626 1 23.967 39.656 20.671
4627 1 12.470 33.561 21.755
4628 1 8.808 32.548 21.271
4629 1 8.108 33.794 21.351
4630 1 51.162 10.630 32.014
4631 1 51.769 5.909 31.956
4632 1 52.338 11.725 31.063
4633 1 13.724 4.422 29.660
4634 1 14.199 0.296 37.690
4635 1 13.067 5.050 37.628
4636 1 15.195 -5.677 16.512
4637 1 17.343 -4.894 13.712
4638 1 15.062 -5.644 17.861
4639 1 11.142 29.300 41.236
4640 1 10.048 31.875 41.806
4641 1 12.945 35.597 43.645
4642 1 13.941 8.591 15.302
4643 1 11.312 6.266 21.842
4644 1 10.748 8.535 23.733
4645 1 16.390 21.532 31.166
4646 1 15.121 16.061 28.102
4647 1 15.790 20.618 28.901
4648 1 20.989 13.324 33.046
4649 1 21.124 11.852 36.061
4650 1 22.227 12.187 37.837
4651 1 -4.241 1.570 35.795
4652 1 -3.517 1.216 39.384
4653 1 -2.653 1.222 40.585
4654 1 3.136 1.583 34.415
4655 1 -2.263 0.686 30.749
4656 1 3.210 1.831 32.845
4657 1 14.314 13.722 29.999
4658 1 16.790 11.638 29.601
4659 1 14.906 13.990 28.848
4660 1 17.589 4.190 21.150
4661 1 15.913 2.613 28.944
4662 1 16.133 5.770 24.529
4663 1 17.051 0.495 23.383
4664 1 17.482 1.603 22.082
4665 1 17.026 1.493 22.506
4666 1 33.487 10.533 27.713
4667 1 30.387 12.508 31.914
4668 1 33.824 11.173 29.839
4669 1 35.252 16.662 36.950
4670 1 36.411 11.358 39.593
4671 1 36.909 12.373 36.453
4672 1 -3.552 15.777 16.899
4673 1 -2.119 19.481 14.695
4674 1 -2.814 21.911 16.947
4675 1 1.986 12.897 35.525
4676 1 2.127 12.238 37.338
4677 1 2.019 13.819 36.243
4678 1 28.998 7.824 34.731
4679 1 25.086 10.268 36.123
4680 1 25.970 9.361 33.821
4681 1 22.763 6.243 20.543
4682 1 20.257 9.273 16.493
4683 1 20.889 12.941 16.887
4684 1 -3.365 17.588 43.310
4685 1 -5.135 18.866 43.019
4686 1 -3.774 18.324 42.635
4687 1 -0.310 -0.744 30.049
4688 1 0.464 2.907 31.363
4689 1 -0.268 -0.932 31.979
4690 1 32.224 14.070 23.897
4691 1 29.995 16.395 25.123
4692 1 32.810 13.021 20.342
4693 1 11.110 3.175 4.734
4694 1 13.096 5.219 8.635
4695 1 11.187 1.781 5.896
4696 1 18.622 13.362 15.098
4697 1 19.305 13.686 20.239
4698 1 16.878 13.033 20.804
4699 1 28.132 -7.096 7.948
4700 1 26.533 -7.473 10.525
4701 1 27.942 -2.332 9.685
4702 1 25.205 0.344 19.085
4703 1 25.777 1.204 17.737
4704 1 28.665 1.683 15.877
4705 1 39.861 -3.330 19.302
4706 1 40.178 -0.950 24.345
4707 1 38.025 1.220 19.841
4708 1 36.199 -7.443 28.448
4709 1 37.454 -4.050 27.466
4710 1 37.393 -6.767 27.603
4711 1 4.144 4.211 29.012
4712 1 2.627 1.278 31.337
4713 1 1.940 0.629 29.093
4714 1 14.522 16.437 22.498
4715 1 14.450 14.296 23.378
4716 1 10.992 14.311 21.562
4717 1 -2.350 7.845 54.016
4718 1 -3.611 6.489 54.723
4719 1 -1.683 8.398 53.206
4720 1 14.882 32.287 38.486
4721 1 16.357 31.369 33.918
4722 1 15.473 30.115 38.081
4723 1 21.209 13.722 40.182
4724 1 19.947 15.804 40.081
4725 1 22.037 13.597 40.090
4726 1 25.516 11.842 22.623
4727 1 26.009 13.402 23.184
4728 1 27.896 10.063 25.119
4729 1 10.586 23.727 24.889
4730 1 12.462 24.976 26.303
4731 1 13.395 20.913 27.012
4732 1 21.847 15.662 17.884
4733 1 22.955 11.485 18.715
4734 1 23.691 12.065 19.872
4735 1 29.017 15.226 14.903
4736 1 29.470 12.670 15.476
4737 1 31.155 14.266 15.640
4738 1 16.987 5.008 30.430
4739 1 15.675 5.945 31.712
4740 1 15.348 5.851 34.997
4741 1 25.617 11.588 52.083
4742 1 24.200 11.151 52.506
4743 1 24.108 14.982 49.428
4744 1 32.410 5.530 25.253
4745 1 35.099 2.736 25.200
4746 1 31.345 5.553 24.827
4747 1 37.463 5.381 29.875
4748 1 37.357 7.087 32.387
4749 1 40.069 5.104 34.029
4750 1 -2.838 7.246 39.156
4751 1 -0.471 9.092 35.878
4752 1 2.326 9.946 33.254
4753 1 17.694 30.707 21.179
4754 1 17.695 27.319 21.030
4755 1 16.087 28.719 22.141
4756 1 14.461 28.417 26.551
4757 1 8.886 25.711 24.155
4758 1 9.487 22.743 27.233
4759 1 24.979 22.088 15.913
4760 1 23.434 16.125 11.211
4761 1 23.662 23.426 16.768
4762 1 23.579 3.860 16.366
4763 1 27.123 2.853 16.948
4764 1 27.017 6.425 19.165
4765 1 18.618 2.191 39.304
4766 1 16.527 3.062 45.180
4767 1 18.295 2.530 42.566
4768 1 24.800 23.325 11.790
4769 1 24.412 20.971 13.505
4770 1 26.440 22.263 14.354
4771 1 23.640 8.952 28.524
4772 1 21.708 8.978 24.720
4773 1 22.765 8.937 26.848
4774 1 26.987 8.852 38.676
4775 1 26.087 7.150 34.533
4776 1 27.185 9.632 36.713
4777 1 29.656 10.149 9.741
4778 1 28.773 12.726 10.647
4779 1 29.900 12.537 10.576
4780 1 22.291 28.631 28.120
4781 1 21.855 25.353 30.276
4782 1 20.337 25.955 31.981
4783 1 23.458 4.805 21.661
4784 1 22.793 4.333 18.843
4785 1 24.879 0.584 24.140
4786 1 18.091 15.713 23.702
4787 1 19.090 13.998 21.731
4788 1 17.613 15.511 17.665
4789 1 7.201 28.190 10.980
4790 1 3.047 27.292 14.923
4791 1 8.013 24.676 16.840
4792 1 10.343 15.903 35.888
4793 1 8.858 19.406 33.589
4794 1 11.034 15.592 33.276
4795 1 15.192 13.967 29.277
4796 1 13.574 11.563 29.080
4797 1 15.342 11.974 27.067
4798 1 21.411 21.759 34.187
4799 1 22.674 23.826 32.538
4800 1 22.157 21.992 35.515
4801 1 26.515 10.709 15.128
4802 1 24.682 10.455 13.056
4803 1 24.719 6.866 13.080
4804 1 25.374 14.029 27.642
4805 1 24.235 14.692 24.162
4806 1 25.556 11.921 24.028
4807 1 25.139 25.053 40.935
4808 1 26.664 24.333 37.474
4809 1 29.065 23.012 36.520
4810 1 49.629 20.534 22.493
4811 1 47.582 20.808 27.878
4812 1 48.113 18.032 25.491
4813 1 34.723 28.225 35.027
4814 1 30.053 27.458 38.450
4815 1 33.998 27.678 33.484
4816 1 1.807 9.266 32.443
4817 1 4.305 7.722 32.407
4818 1 4.631 10.573 32.585
4819 1 10.604 30.804 27.206
4820 1 10.261 31.193 27.421
4821 1 11.457 31.326 28.366
4822 1 -1.555 13.137 33.478
4823 1 -2.320 13.088 35.222
4824 1 -0.230 9.535 34.944
4825 1 24.686 19.900 36.266
4826 1 24.067 21.530 38.532
4827 1 21.470 20.010 35.382
4828 1 47.574 31.511 31.393
4829 1 45.100 29.804 33.207
4830 1 48.145 30.163 33.484
4831 1 24.419 15.053 35.035
4832 1 28.395 15.132 36.280
4833 1 28.167 13.922 35.088
4834 1 20.074 5.330 39.647
4835 1 17.087 2.001 36.292
4836 1 16.074 5.427 32.409
4837 1 42.760 9.372 29.786
4838 1 45.376 9.492 31.272
4839 1 45.247 7.296 31.626
4840 1 9.448 27.637 27.368
4841 1 8.909 28.931 29.530
4842 1 7.339 28.256 29.441
4843 1 3.669 5.119 34.723
4844 1 5.927 5.259 35.100
4845 1 8.604 3.627 35.753
4846 1 3.155 33.612 17.406
4847 1 5.932 37.256 15.492
4848 1 3.358 35.534 14.962
4849 1 23.198 23.489 30.478
4850 1 20.067 22.027 28.692
4851 1 24.788 21.909 26.358
4852 1 24.856 20.387 7.795
4853 1 27.181 18.234 6.586
4854 1 26.976 19.692 6.366
4855 1 9.908 28.409 25.762
4856 1 8.300 32.703 25.143
4857 1 8.741 32.298 27.511
4858 1 45.436 16.529 33.959
4859 1 45.964 17.614 35.866
4860 1 43.888 14.507 35.296
4861 1 22.291 18.405 28.943
4862 1 20.310 24.069 26.144
4863 1 22.160 19.844 26.848
4864 1 -1.050 21.644 30.601
4865 1 -2.676 18.846 33.143
4866 1 -0.440 20.827 32.912
4867 1 2.133 27.236 45.217
4868 1 5.672 30.344 47.570
4869 1 2.330 27.652 47.145
4870 1 5.174 14.698 17.389
4871 1 6.252 14.461 16.941
4872 1 9.509 15.135 14.587
4873 1 17.865 34.046 28.232
4874 1 21.444 34.196 23.227
4875 1 20.796 37.325 29.335
4876 1 37.853 25.903 38.730
4877 1 31.995 23.665 38.235
4878 1 35.562 23.162 38.162
4879 1 13.908 17.234 20.573
4880 1 12.056 17.856 20.361
4881 1 12.722 20.489 19.919
4882 1 34.386 26.392 33.265
4883 1 36.983 29.490 34.399
4884 1 37.151 30.795 30.203
4885 1 18.423 18.952 44.632
4886 1 19.165 20.386 42.187
4887 1 21.009 19.792 41.061
4888 1 3.038 15.260 31.111
4889 1 0.906 17.433 31.310
4890 1 0.917 17.035 29.367
4891 1 14.369 27.108 38.240
4892 1 18.221 28.021 37.340
4893 1 15.026 30.086 40.029
4894 1 5.883 28.257 26.941
4895 1 3.930 32.256 24.173
4896 1 5.505 30.625 25.623
4897 1 12.939 19.939 19.269
4898 1 11.653 19.080 21.016
4899 1 12.928 20.732 21.476
4900 1 14.479 30.523 26.018
4901 1 15.402 30.201 28.457
4902 1 16.167 30.325 25.694
4903 1 -5.244 24.499 26.411
4904 1 -4.566 28.368 22.863
4905 1 -5.383 26.462 22.562
4906 1 30.042 36.067 33.803
4907 1 32.142 37.657 36.321
4908 1 31.578 37.217 34.361
4909 1 32.997 8.732 24.865
4910 1 33.667 8.963 22.891
4911 1 29.889 7.837 23.643
4912 1 7.409 38.437 32.024
4913 1 6.810 36.873 33.744
4914 1 3.893 38.173 30.954
4915 1 30.758 16.203 20.873
4916 1 29.968 14.098 22.728
4917 1 33.154 18.711 23.033
4918 1 9.985 16.671 26.493
4919 1 7.180 21.127 23.920
4920 1 6.223 19.614 27.398
4921 1 37.392 12.220 39.042
4922 1 33.992 12.575 40.052
4923 1 35.096 11.642 41.273
4924 1 24.033 19.748 26.931
4925 1 23.723 21.787 26.065
4926 1 22.692 18.955 26.166
4927 1 34.484 37.006 26.917
4928 1 38.590 39.025 27.987
4929 1 39.103 35.470 31.767
4930 1 17.398 21.329 30.796
4931 1 17.401 23.333 29.869
4932 1 16.410 18.778 23.894
4933 1 31.960 31.118 25.625
4934 1 31.547 34.663 20.961
4935 1 31.562 32.607 22.857
4936 1 24.407 18.118 23.244
4937 1 26.565 19.244 19.713
4938 1 28.803 17.135 20.553
4939 1 21.500 42.942 28.479
4940 1 19.222 42.834 29.385
4941 1 20.119 42.742 29.205
4942 1 21.399 19.096 21.892
4943 1 20.731 24.402 21.232
4944 1 22.323 23.490 21.093
4945 1 21.164 25.226 33.153
4946 1 23.128 24.013 28.781
4947 1 24.390 24.416 32.638
4948 1 16.955 15.557 6.100
4949 1 16.931 16.609 4.670
4950 1 16.915 16.907 4.291
4951 1 14.421 31.038 25.418
4952 1 15.183 33.731 24.803
4953 1 12.353 34.303 29.733
4954 1 9.333 44.513 28.316
4955 1 7.705 46.539 22.971
4956 1 10.179 48.882 29.133
4957 1 0.478 25.845 39.880
4958 1 1.138 24.650 40.767
4959 1 1.198 29.057 41.343
4960 1 10.166 32.002 34.999
4961 1 6.621 28.835 33.938
4962 1 5.719 30.699 33.752
4963 1 24.898 45.051 27.450
4964 1 25.064 43.568 25.417
4965 1 23.289 43.303 26.546
4966 1 15.909 23.472 27.200
4967 1 15.857 27.578 25.792
4968 1 13.454 25.577 29.118
4969 1 4.557 27.507 24.419
4970 1 7.668 27.808 28.847
4971 1 6.088 23.729 28.348
4972 1 12.231 23.505 34.834
4973 1 8.076 25.999 31.937
4974 1 10.688 23.509 33.132
4975 1 22.800 22.725 20.073
4976 1 21.501 21.277 20.292
4977 1 24.618 19.959 19.128
4978 1 38.390 26.982 29.654
4979 1 39.266 24.440 27.383
4980 1 38.368 22.028 28.400
4981 1 27.182 23.896 28.447
4982 1 23.099 27.650 33.128
4983 1 26.944 28.655 33.562
4984 1 25.128 15.001 32.284
4985 1 27.122 16.222 24.199
4986 1 25.096 17.960 28.121
4987 1 22.965 26.175 33.040
4988 1 22.288 28.776 32.726
4989 1 23.652 24.733 37.178
4990 1 3.409 29.766 33.720
4991 1 4.788 27.117 30.226
4992 1 5.897 29.980 32.511
4993 1 9.240 29.614 19.428
4994 1 13.768 29.788 15.927
4995 1 9.331 31.184 14.600
4996 1 23.070 43.540 14.975
4997 1 23.276 41.682 9.051
4998 1 22.022 40.880 11.789
4999 1 14.443 33.294 28.433
5000 1 12.893 33.767 29.132
5001 1 13.895 31.768 34.289
5002 1 9.604 28.225 31.005
5003 1 7.245 29.717 31.077
5004 1 6.952 31.237 31.965
5005 1 7.886 22.957 31.578
5006 1 7.435 21.631 30.100
5007 1 11.187 21.269 35.881
5008 1 2.235 28.744 29.272
5009 1 1.357 34.501 31.862
5010 1 3.623 32.335 26.839
5011 1 18.532 26.737 29.854
5012 1 19.775 25.795 30.861
5013 1 18.011 23.400 30.733
5014 1 13.776 28.895 28.862
5015 1 16.687 29.219 27.603
5016 1 13.337 27.386 27.369
5017 1 31.248 24.897 17.146
5018 1 29.360 24.196 19.468
5019 1 31.329 25.579 18.408
5020 1 22.405 23.210 17.606
5021 1 20.878 21.908 16.310
5022 1 22.653 21.895 16.901
5023 1 18.351 34.858 39.447
5024 1 19.060 34.108 39.291
5025 1 15.710 30.340 37.014
5026 1 13.149 22.734 39.803
5027 1 15.300 24.688 40.297
5028 1 15.654 24.400 42.117
5029 1 10.430 25.986 14.476
5030 1 5.189 24.815 17.842
5031 1 6.957 26.549 14.339
5032 1 -0.146 18.105 21.398
5033 1 -0.709 15.622 26.816
5034 1 -3.088 11.949 27.436
5035 1 28.454 23.288 17.708
5036 1 27.230 23.359 20.906
5037 1 28.184 21.892 21.548
5038 1 5.621 35.250 26.636
5039 1 7.583 34.550 26.417
5040 1 9.091 34.845 25.833
5041 1 3.694 36.892 37.182
5042 1 7.244 39.001 31.112
5043 1 8.123 38.154 33.192
5044 1 14.154 25.103 45.992
5045 1 14.510 24.133 40.341
5046 1 11.559 26.218 42.104
5047 1 15.449 19.043 31.453
5048 1 15.735 16.453 31.096
5049 1 17.739 16.778 34.925
5050 1 22.161 24.333 12.962
5051 1 26.541 24.138 11.285
5052 1 23.220 25.485 10.249
5053 1 7.459 33.049 25.218
5054 1 9.922 38.084 27.388
5055 1 7.448 35.855 24.620
5056 1 27.171 13.037 24.734
5057 1 30.462 10.245 26.229
5058 1 27.312 10.455 27.989
5059 1 36.155 28.725 28.212
5060 1 38.597 33.539 21.287
5061 1 38.767 32.152 28.789
5062 1 28.602 29.384 29.744
5063 1 27.676 28.818 33.220
5064 1 27.930 27.864 32.126
5065 1 38.612 50.486 21.254
5066 1 39.997 53.624 24.331
5067 1 36.835 53.842 19.013
5068 1 1.080 14.444 28.680
5069 1 0.891 14.671 28.681
5070 1 -1.498 18.604 28.105
5071 1 6.141 -8.945 34.917
5072 1 6.493 -9.164 36.113
5073 1 4.673 -6.998 33.981
5074 1 11.148 -2.724 34.008
5075 1 10.498 0.285 38.163
5076 1 8.787 2.300 37.750
5077 1 5.138 -4.913 30.828
5078 1 6.889 -3.368 31.268
5079 1 5.591 -2.881 32.398
5080 1 15.124 16.098 29.743
5081 1 12.474 18.554 26.479
5082 1 12.174 17.356 27.223
5083 1 20.044 10.749 47.459
5084 1 20.830 14.386 52.622
5085 1 19.581 9.396 46.976
5086 1 27.808 -4.840 27.594
5087 1 26.113 -8.246 27.698
5088 1 28.941 -5.521 28.999
5089 1 18.387 2.852 29.378
5090 1 20.613 4.992 33.473
5091 1 20.388 6.447 31.841
5092 1 32.202 7.958 33.684
5093 1 29.792 2.456 35.838
5094 1 30.021 10.636 31.488
5095 1 26.397 13.993 19.575
5096 1 28.281 14.762 25.542
5097 1 32.885 11.280 26.403
5098 1 20.664 4.926 39.733
5099 1 20.663 3.842 39.933
5100 1 20.897 2.116 39.762
5101 1 32.450 19.320 31.058
5102 1 31.609 16.107 33.041
5103 1 32.070 18.215 31.099
5104 1 28.242 -8.259 24.534
5105 1 27.431 -10.629 28.302
5106 1 28.652 -11.314 29.178
5107 1 -15.126 21.336 54.295
5108 1 -17.445 20.025 52.692
5109 1 -15.824 21.688 53.486
5110 1 11.103 8.208 26.204
5111 1 11.542 7.236 30.078
5112 1 7.775 6.702 24.685
5113 1 23.415 11.651 29.863
5114 1 24.855 11.460 25.720
5115 1 24.750 9.104 25.818
5116 1 28.742 14.828 22.484
5117 1 30.622 12.144 24.606
5118 1 28.853 14.536 23.810
5119 1 20.266 9.705 16.071
5120 1 19.790 11.209 17.484
5121 1 18.824 12.877 11.338
5122 1 3.092 9.090 14.447
5123 1 2.288 7.747 15.470
5124 1 3.529 7.120 17.495
5125 1 16.164 18.608 13.769
5126 1 17.690 20.813 16.855
5127 1 21.254 20.309 13.572
5128 1 0.996 22.933 26.008
5129 1 1.291 22.108 24.889
5130 1 1.743 18.331 28.246
5131 1 42.957 19.521 19.847
5132 1 45.573 22.302 22.567
5133 1 44.363 19.055 19.092
5134 1 21.931 4.860 31.221
5135 1 25.765 4.360 29.649
5136 1 26.647 3.828 33.237
5137 1 31.709 -18.447 32.200
5138 1 31.623 -14.775 29.432
5139 1 31.365 -12.124 30.145
5140 1 21.461 0.608 37.118
5141 1 20.587 -1.796 35.965
5142 1 22.046 -1.285 35.401
5143 1 24.838 -11.983 26.223
5144 1 23.727 -16.275 26.056
5145 1 23.515 -10.121 29.256
5146 1 11.648 10.518 26.866
5147 1 11.947 9.190 22.861
5148 1 11.047 11.698 24.651
5149 1 9.005 17.885 43.702
5150 1 9.099 24.227 41.480
5151 1 9.072 20.043 41.985
5152 1 14.972 5.725 37.621
5153 1 14.753 6.007 34.963
5154 1 12.329 7.125 34.554
5155 1 25.969 30.316 22.618
5156 1 25.174 32.713 27.328
5157 1 26.024 28.601 24.981
5158 1 -2.539 4.514 33.084
5159 1 -3.965 4.946 29.245
5160 1 -4.378 8.364 34.064
5161 1 10.512 15.588 33.310
5162 1 8.392 18.071 37.492
5163 1 9.242 18.888 35.619
5164 1 1.437 10.169 32.555
5165 1 1.835 12.989 35.375
5166 1 -0.345 12.157 30.235
5167 1 22.626 26.198 24.929
5168 1 20.790 24.070 21.556
5169 1 18.782 25.461 25.234
5170 1 15.832 23.199 20.652
5171 1 15.619 22.656 22.305
5172 1 17.597 20.935 22.309
5173 1 35.831 21.511 35.642
5174 1 33.885 21.303 35.759
5175 1 35.293 23.878 35.674
5176 1 29.364 25.672 32.489
5177 1 32.016 26.640 32.631
5178 1 32.940 26.761 32.835
5179 1 40.113 -1.206 31.284
5180 1 43.941 4.152 31.728
5181 1 43.311 0.179 27.447
5182 1 39.217 -0.351 35.989
5183 1 36.641 -2.048 34.979
5184 1 39.620 -1.272 31.952
5185 1 -2.698 30.790 40.166
5186 1 -0.728 34.486 36.794
5187 1 -1.596 33.740 35.248
5188 1 9.539 34.314 41.051
5189 1 10.508 31.279 43.871
5190 1 8.924 35.089 42.381
5191 1 17.276 12.920 26.231
5192 1 15.119 15.277 23.464
5193 1 15.399 11.433 22.371
5194 1 23.144 38.003 40.481
5195 1 25.647 35.991 44.184
5196 1 25.081 38.943 39.378
5197 1 19.378 16.776 30.432
5198 1 21.779 19.530 28.297
5199 1 20.166 13.178 27.725
5200 1 14.050 21.263 24.343
5201 1 13.156 24.440 21.679
5202 1 15.252 18.882 19.499
5203 1 30.652 9.310 25.048
5204 1 30.266 5.802 23.679
5205 1 32.229 3.923 28.389
5206 1 28.359 24.448 17.467
5207 1 27.935 22.009 18.158
5208 1 26.597 18.786 15.801
5209 1 13.640 27.197 7.256
5210 1 14.666 26.031 9.716
5211 1 14.345 25.718 6.647
5212 1 12.556 15.330 34.804
5213 1 12.721 16.450 30.211
5214 1 13.168 14.629 31.793
5215 1 17.595 15.018 36.783
5216 1 19.300 14.980 39.721
5217 1 16.841 16.704 38.751
5218 1 23.427 4.419 30.656
5219 1 23.723 6.263 23.657
5220 1 23.030 4.158 26.183
5221 1 39.425 -1.431 37.323
5222 1 37.243 -2.241 35.586
5223 1 42.014 3.564 36.250
5224 1 1.945 -0.910 25.299
5225 1 2.567 2.093 26.917
5226 1 1.210 4.853 26.389
5227 1 22.582 16.476 41.168
5228 1 23.005 19.542 34.130
5229 1 21.105 19.872 38.947
5230 1 20.959 21.235 37.543
5231 1 23.595 20.760 36.059
5232 1 19.999 22.565 34.002
5233 1 17.459 10.046 24.292
5234 1 18.152 8.248 26.964
5235 1 18.904 10.069 22.643
5236 1 14.323 19.665 14.196
5237 1 13.174 20.897 13.992
5238 1 12.699 21.548 14.156
5239 1 17.072 23.823 34.425
5240 1 17.012 27.157 36.016
5241 1 16.660 25.822 33.421
5242 1 11.422 32.165 34.895
5243 1 9.416 30.361 31.000
5244 1 13.343 30.214 33.001
5245 1 29.979 12.108 28.936
5246 1 28.606 9.094 29.739
5247 1 30.276 6.363 28.176
5248 1 30.346 13.842 19.410
5249 1 32.180 9.144 21.573
5250 1 28.569 8.850 17.469
5251 1 15.876 10.336 21.882
5252 1 15.711 11.549 19.244
5253 1 15.270 7.939 19.247
5254 1 23.869 7.673 36.479
5255 1 25.302 7.296 38.400
5256 1 22.528 8.144 39.525
5257 1 48.495 39.456 14.092
5258 1 48.919 40.492 14.426
5259 1 48.494 39.692 13.170
5260 1 18.696 27.760 43.131
5261 1 15.027 28.895 41.647
5262 1 20.016 26.361 43.127
5263 1 27.592 16.010 43.032
5264 1 30.440 15.687 43.214
5265 1 29.695 13.699 40.684
5266 1 10.184 15.315 23.224
5267 1 11.895 14.457 21.162
5268 1 11.602 15.467 25.037
5269 1 5.483 7.649 37.622
5270 1 2.239 10.010 38.000
5271 1 2.892 8.648 43.788
5272 1 20.256 15.284 35.777
5273 1 19.775 14.781 37.062
5274 1 19.978 14.756 32.751
5275 1 23.822 26.595 30.196
5276 1 24.203 26.370 28.090
5277 1 24.631 22.867 30.095
5278 1 22.468 16.282 38.434
5279 1 19.620 17.325 41.172
5280 1 23.515 20.897 41.650
5281 1 30.856 7.586 25.787
5282 1 31.331 7.144 23.207
5283 1 29.416 8.280 22.609
5284 1 26.523 16.936 27.823
5285 1 27.857 17.979 26.183
5286 1 24.308 16.130 27.330
5287 1 33.697 26.867 20.339
5288 1 34.627 25.104 22.388
5289 1 34.265 24.594 21.393
5290 1 18.614 -0.431 31.217
5291 1 18.811 -1.302 36.124
5292 1 19.176 2.471 32.771
5293 1 18.415 19.849 25.500
5294 1 15.908 21.168 28.547
5295 1 15.480 19.565 25.843
5296 1 7.827 8.145 30.626
5297 1 5.566 10.067 29.006
5298 1 3.782 11.331 29.978
5299 1 24.691 10.852 37.040
5300 1 22.233 10.499 39.105
5301 1 21.518 9.435 37.709
5302 1 17.039 17.815 17.702
5303 1 14.943 17.752 20.406
5304 1 16.335 18.251 20.590
5305 1 27.991 18.583 10.680
5306 1 25.533 15.355 17.628
5307 1 23.827 19.310 15.693
5308 1 4.362 23.331 33.643
5309 1 8.985 27.491 30.919
5310 1 7.039 21.978 31.499
5311 1 29.553 46.956 16.322
5312 1 27.633 48.932 17.871
5313 1 27.876 48.543 17.849
5314 1 21.284 31.404 39.211
5315 1 21.764 33.540 41.463
5316 1 20.260 32.455 40.678
5317 1 15.760 9.593 21.280
5318 1 14.143 6.005 16.224
5319 1 17.525 7.373 19.962
5320 1 10.213 27.195 27.569
5321 1 10.641 27.951 23.418
5322 1 6.410 26.745 29.097
5323 1 6.739 11.499 21.777
5324 1 0.812 12.336 22.746
5325 1 4.581 12.924 26.354
5326 1 26.491 13.301 27.998
5327 1 28.597 15.606 27.482
5328 1 28.422 12.831 31.428
5329 1 18.239 20.795 16.605
5330 1 15.870 19.051 17.759
5331 1 13.954 20.767 17.239
5332 1 18.995 32.224 47.400
5333 1 22.602 29.831 44.748
5334 1 19.453 31.522 43.736
5335 1 28.304 26.388 31.619
5336 1 27.798 31.474 34.090
5337 1 25.564 25.883 32.884
5338 1 21.150 17.674 36.019
5339 1 18.581 19.305 37.059
5340 1 19.669 20.305 36.048
5341 1 17.596 28.004 23.997
5342 1 20.097 26.513 27.697
5343 1 19.990 27.127 25.457
5344 1 32.284 2.944 27.977
5345 1 29.140 2.628 31.241
5346 1 31.937 3.723 29.757
5347 1 10.363 26.905 41.378
5348 1 12.118 23.930 44.413
5349 1 12.069 25.229 43.449
5350 1 -2.084 14.089 23.908
5351 1 0.513 14.683 22.834
5352 1 -2.489 12.931 24.619
5353 1 10.939 15.920 27.393
5354 1 11.785 14.912 23.626
5355 1 10.208 16.884 30.163
5356 1 7.176 30.119 24.279
5357 1 7.855 34.197 22.676
5358 1 7.729 30.516 23.742
5359 1 18.186 22.010 43.406
5360 1 18.738 27.408 44.700
5361 1 21.607 26.186 45.571
5362 1 6.251 26.357 46.723
5363 1 7.192 25.971 42.857
5364 1 6.990 27.917 43.940
5365 1 16.444 33.306 39.690
5366 1 16.574 35.700 33.776
5367 1 15.119 33.836 43.900
5368 1 16.912 15.879 35.610
5369 1 17.167 18.796 35.877
5370 1 16.499 15.890 32.941
5371 1 12.581 20.651 14.042
5372 1 10.768 20.338 14.744
5373 1 9.717 22.538 17.470
5374 1 15.343 44.553 32.611
5375 1 14.420 41.765 31.941
5376 1 15.708 43.221 27.938
5377 1 16.344 3.671 22.610
5378 1 20.190 5.131 27.239
5379 1 20.992 5.251 27.514
5380 1 22.930 16.116 40.319
5381 1 22.238 17.353 34.352
5382 1 20.241 18.891 34.122
5383 1 22.744 29.275 19.323
5384 1 22.503 31.748 20.632
5385 1 23.159 31.288 22.317
5386 1 11.805 45.257 34.337
5387 1 7.845 45.224 38.132
5388 1 7.805 46.775 37.947
5389 1 26.292 18.622 34.499
5390 1 27.674 18.245 32.671
5391 1 21.888 16.719 29.200
5392 1 1.730 30.304 30.340
5393 1 1.391 27.708 28.607
5394 1 4.339 28.129 28.900
5395 1 23.430 24.003 55.452
5396 1 25.950 23.392 53.764
5397 1 23.739 21.834 54.761
5398 1 19.329 3.559 29.040
5399 1 21.478 4.822 25.383
5400 1 21.347 4.004 27.603
5401 1 36.347 25.785 39.397
5402 1 38.054 26.957 37.313
5403 1 38.351 27.975 37.111
5404 1 15.007 17.177 13.929
5405 1 14.720 20.472 15.424
5406 1 15.369 20.586 16.800
5407 1 16.658 32.832 36.424
5408 1 17.808 35.408 37.701
5409 1 14.609 32.781 33.594
5410 1 21.329 32.772 43.084
5411 1 18.007 31.769 44.810
5412 1 19.663 31.410 37.715
5413 1 18.446 36.587 21.780
5414 1 17.207 32.264 21.965
5415 1 17.794 35.823 26.958
5416 1 21.311 7.506 34.016
5417 1 22.928 8.220 35.338
5418 1 20.615 4.136 32.786
5419 1 34.798 36.115 24.364
5420 1 35.241 35.526 21.066
5421 1 34.287 36.524 25.253
5422 1 24.231 29.841 30.895
5423 1 21.649 28.463 31.891
5424 1 25.681 27.889 33.581
5425 1 6.423 21.018 27.623
5426 1 7.414 19.011 30.639
5427 1 5.371 19.505 29.424
5428 1 11.377 20.333 34.927
5429 1 11.165 23.149 37.023
5430 1 9.716 21.632 39.749
5431 1 5.774 10.086 36.640
5432 1 4.820 12.738 34.413
5433 1 6.327 11.450 33.341
5434 1 17.413 6.088 27.229
5435 1 21.436 1.228 29.846
5436 1 18.591 7.951 26.762
5437 1 15.822 36.701 11.472
5438 1 17.502 37.168 15.202
5439 1 14.174 37.247 12.968
5440 1 9.700 34.275 28.492
5441 1 11.037 34.919 28.245
5442 1 12.285 35.991 29.571
5443 1 2.650 20.217 41.630
5444 1 3.483 21.260 40.932
5445 1 1.293 19.952 43.535
5446 1 26.599 38.136 24.886
5447 1 26.470 35.432 25.389
5448 1 27.849 35.933 29.314
5449 1 -6.768 26.644 18.981
5450 1 -8.363 27.677 20.743
5451 1 -8.244 26.850 20.972
5452 1 23.182 19.788 20.346
5453 1 23.638 19.568 19.373
5454 1 21.487 18.957 17.639
5455 1 15.971 26.604 16.760
5456 1 17.498 26.691 22.904
5457 1 17.822 24.738 19.868
5458 1 15.083 19.860 43.922
5459 1 14.059 17.873 39.905
5460 1 16.188 20.353 39.117
5461 1 35.663 25.764 35.869
5462 1 41.350 28.287 35.561
5463 1 39.684 25.729 33.796
5464 1 10.261 30.119 34.840
5465 1 10.033 29.223 35.445
5466 1 10.145 30.370 34.956
5467 1 13.739 30.498 32.764
5468 1 13.521 33.828 25.151
5469 1 17.469 30.670 31.957
5470 1 5.698 22.896 45.244
5471 1 4.238 23.954 44.134
5472 1 4.018 24.276 46.904
5473 1 6.058 16.438 41.179
5474 1 5.485 17.669 42.796
5475 1 2.393 17.871 39.531
5476 1 9.614 31.378 29.646
5477 1 9.405 37.788 29.531
5478 1 12.324 35.124 29.484
5479 1 27.997 37.210 49.299
5480 1 27.497 32.969 48.166
5481 1 26.611 32.514 51.981
5482 1 19.231 24.738 25.519
5483 1 19.092 26.477 25.138
5484 1 19.594 21.833 24.624
5485 1 18.455 34.015 40.575
5486 1 20.153 36.027 42.791
5487 1 20.985 32.637 44.196
5488 1 28.890 35.683 28.045
5489 1 32.234 34.230 27.212
5490 1 32.700 32.164 29.681
5491 1 34.085 31.182 23.333
5492 1 32.896 30.281 26.103
5493 1 33.368 31.918 23.006
5494 1 21.712 35.961 19.718
5495 1 24.075 37.141 21.073
5496 1 23.372 36.151 19.736
5497 1 19.118 32.899 12.145
5498 1 17.638 32.541 12.489
5499 1 14.617 34.142 16.142
5500 1 21.369 24.738 44.843
5501 1 25.125 26.097 43.081
5502 1 28.492 25.231 40.106
5503 1 0.906 47.732 42.656
5504 1 0.274 47.142 40.113
5505 1 0.910 44.975 37.841
5506 1 32.792 25.438 37.852
5507 1 29.948 24.693 39.577
5508 1 28.316 27.943 37.292
5509 1 14.334 6.168 35.251
5510 1 18.877 5.428 38.717
5511 1 16.030 5.583 36.820
5512 1 4.112 43.521 33.589
5513 1 5.267 43.558 33.426
5514 1 5.454 43.623 32.421
5515 1 7.966 27.347 46.250
5516 1 7.414 27.058 50.981
5517 1 8.488 28.991 45.465
5518 1 6.239 28.388 29.796
5519 1 8.325 28.906 31.376
5520 1 8.365 31.546 30.754
5521 1 3.808 62.695 25.498
5522 1 2.618 64.257 26.547
5523 1 2.119 61.550 26.147
5524 1 22.297 31.682 36.708
5525 1 23.473 30.476 39.273
5526 1 24.458 32.544 38.462
5527 1 26.505 46.678 22.059
5528 1 27.543 44.959 16.840
5529 1 27.970 48.729 20.539
5530 1 25.248 20.685 41.575
5531 1 24.247 22.041 44.674
5532 1 24.011 22.933 45.110
5533 1 27.070 29.229 33.415
5534 1 28.021 27.851 32.847
5535 1 29.575 27.469 32.572
5536 1 32.893 19.210 23.809
5537 1 33.486 18.067 24.418
5538 1 35.698 19.095 20.243
5539 1 43.808 17.207 42.313
5540 1 45.614 19.843 45.764
5541 1 46.550 18.499 44.890
