ITEM: TIMESTEP
0
ITEM: NUMBER OF ATOMS
5541
ITEM: BOX BOUNDS pp pp pp
0.0 38.2
0.0 38.2
0.0 38.2
ITEM: ATOMS id type x y z
1 1 3.230 8.153 10.254
2 1 5.557 4.434 17.726
3 1 2.823 5.258 13.005
4 1 8.920 8.411 15.023
5 1 8.608 4.335 13.138
6 1 7.969 8.406 10.399
7 1 6.012 7.878 10.763
8 1 9.879 8.770 19.684
9 1 11.574 5.811 12.284
10 1 5.963 5.333 9.428
11 1 5.782 6.950 11.586
12 1 5.144 4.603 15.095
13 1 7.349 5.823 13.382
14 1 7.424 6.260 10.282
15 1 7.329 13.310 10.645
16 1 6.333 12.211 16.757
17 1 7.414 4.658 8.793
18 1 9.500 2.591 7.066
19 1 1.853 6.419 9.553
20 1 9.132 -0.034 12.193
21 1 7.404 7.111 12.787
22 1 9.857 3.563 12.109
23 1 9.531 5.378 16.704
24 1 9.208 3.554 11.717
25 1 8.529 4.117 13.255
26 1 6.614 6.660 14.189
27 1 4.219 4.999 8.227
28 1 5.205 3.189 11.653
29 1 8.348 3.338 12.175
30 1 6.624 2.749 3.918
31 1 7.709 5.523 7.713
32 1 6.043 4.220 10.145
33 1 6.033 3.155 14.522
34 1 6.858 5.594 8.909
35 1 8.223 6.296 10.092
36 1 9.050 1.886 10.940
37 1 7.378 3.155 11.869
38 1 10.887 4.840 12.043
39 1 9.688 7.970 11.937
40 1 8.032 6.945 15.808
41 1 7.925 -0.421 10.310
42 1 7.318 4.280 10.161
43 1 8.965 6.586 11.613
44 1 6.607 4.127 12.768
45 1 2.652 7.451 15.120
46 1 11.854 9.884 15.967
47 1 8.443 11.796 9.291
48 1 9.853 8.324 12.503
49 1 10.895 9.982 8.753
50 1 8.311 3.900 8.400
51 1 10.872 7.829 12.443
52 1 7.011 6.717 10.262
53 1 7.899 10.261 15.704
54 1 8.057 8.746 12.284
55 1 7.849 8.818 10.251
56 1 9.316 5.669 12.792
57 1 8.349 3.102 7.874
58 1 8.501 6.517 6.638
59 1 8.282 2.468 5.979
60 1 10.699 3.754 11.084
61 1 35.314 7.197 17.198
62 1 36.808 5.559 13.513
63 1 36.186 8.368 13.549
64 1 37.674 7.140 16.864
65 1 35.563 6.732 13.039
66 1 37.710 10.864 17.721
67 1 37.008 7.459 17.904
68 1 39.346 11.010 14.665
69 1 33.577 4.814 10.870
70 1 35.583 7.925 15.233
71 1 33.154 7.870 17.588
72 1 38.729 11.335 18.808
73 1 32.495 4.570 19.145
74 1 38.377 8.438 15.799
75 1 38.257 11.649 19.666
76 1 39.631 13.460 14.160
77 1 32.401 8.502 12.992
78 1 33.225 10.281 15.123
79 1 35.785 7.138 18.221
80 1 35.722 4.570 21.405
81 1 37.426 4.321 15.306
82 1 38.094 8.583 14.478
83 1 36.710 11.546 16.494
84 1 34.711 3.867 16.017
85 1 33.099 6.034 12.624
86 1 35.659 10.011 11.902
87 1 32.442 9.599 10.328
88 1 36.149 8.714 17.208
89 1 34.125 10.809 20.761
90 1 33.417 9.888 13.122
91 1 34.226 6.307 19.624
92 1 33.553 13.050 13.471
93 1 37.075 8.536 13.389
94 1 35.585 11.859 13.924
95 1 33.381 4.537 18.326
96 1 34.593 9.885 21.632
97 1 34.471 11.937 20.903
98 1 33.640 13.453 16.100
99 1 35.393 10.311 17.295
100 1 32.258 1.448 19.428
101 1 34.257 13.502 14.666
102 1 31.764 9.882 18.480
103 1 34.824 10.577 12.901
104 1 33.778 10.574 17.651
105 1 35.713 5.136 19.950
106 1 34.278 10.671 16.368
107 1 37.174 13.913 14.296
108 1 34.262 6.178 19.387
109 1 38.683 7.258 18.685
110 1 35.743 10.036 18.566
111 1 35.069 8.182 22.661
112 1 38.092 8.653 16.642
113 1 34.808 14.147 19.005
114 1 34.413 9.720 15.583
115 1 33.476 11.007 22.849
116 1 34.656 11.392 18.106
117 1 36.227 10.033 17.792
118 1 34.623 5.477 17.456
119 1 35.988 11.255 14.386
120 1 36.368 14.751 22.733
121 1 10.674 21.290 25.493
122 1 12.196 25.179 23.005
123 1 11.310 16.467 22.166
124 1 12.613 20.850 26.649
125 1 12.382 22.076 20.566
126 1 13.240 17.565 20.305
127 1 12.208 17.783 28.232
128 1 10.126 21.469 26.315
129 1 9.873 18.330 24.829
130 1 12.774 24.301 26.791
131 1 10.036 19.105 23.714
132 1 12.443 21.204 23.414
133 1 11.849 19.511 23.455
134 1 10.467 23.632 17.726
135 1 14.635 18.505 21.760
136 1 13.618 20.112 22.521
137 1 13.004 25.718 24.181
138 1 14.315 19.391 24.524
139 1 9.489 22.997 21.662
140 1 12.799 19.970 22.423
141 1 16.432 19.508 22.998
142 1 15.078 20.786 21.688
143 1 16.541 19.321 25.309
144 1 12.395 20.097 26.185
145 1 10.911 22.434 25.034
146 1 10.246 25.883 22.900
147 1 12.654 20.300 23.393
148 1 13.765 22.995 20.138
149 1 12.842 24.135 20.213
150 1 11.389 19.308 25.488
151 1 10.125 20.185 27.968
152 1 13.679 24.541 26.376
153 1 13.820 17.471 25.693
154 1 9.174 17.857 22.963
155 1 8.760 19.676 25.796
156 1 11.590 22.583 21.969
157 1 11.452 15.158 22.324
158 1 14.041 21.047 27.097
159 1 9.192 14.649 19.736
160 1 12.253 23.476 26.357
161 1 16.099 19.574 23.151
162 1 12.592 19.636 16.178
163 1 14.756 18.917 21.280
164 1 12.410 21.817 25.006
165 1 14.333 16.734 22.656
166 1 13.165 20.526 21.053
167 1 12.437 22.057 23.915
168 1 13.305 21.226 29.262
169 1 13.934 20.879 17.589
170 1 14.617 19.116 23.420
171 1 18.385 15.564 24.840
172 1 10.501 17.890 29.503
173 1 12.682 24.565 28.019
174 1 13.924 21.903 21.222
175 1 10.595 25.475 17.925
176 1 9.613 18.506 21.070
177 1 11.328 17.714 25.797
178 1 11.262 19.579 27.411
179 1 10.257 21.888 26.440
180 1 11.616 18.387 23.622
181 1 9.766 -5.157 -6.429
182 1 11.943 -12.047 -4.369
183 1 10.848 -6.071 -4.673
184 1 -19.624 -7.616 15.252
185 1 -18.334 -11.951 20.203
186 1 -20.506 -7.724 22.607
187 1 1.683 28.350 14.039
188 1 4.885 27.610 14.883
189 1 8.176 27.591 12.803
190 1 19.756 14.498 -10.565
191 1 16.154 13.226 -4.773
192 1 18.605 18.663 -10.931
193 1 7.164 6.591 7.039
194 1 10.022 4.408 3.555
195 1 10.292 2.108 0.343
196 1 -11.527 -3.305 -5.408
197 1 -13.913 2.343 -4.387
198 1 -15.938 -2.334 -6.094
199 1 21.174 -14.115 -0.311
200 1 22.686 -9.151 2.154
201 1 20.288 -11.083 -1.722
202 1 25.695 7.195 23.866
203 1 23.766 7.223 26.294
204 1 27.976 6.949 19.497
205 1 19.421 13.572 29.304
206 1 20.687 14.298 23.551
207 1 17.515 11.340 21.305
208 1 32.222 -8.768 13.508
209 1 30.848 -12.336 10.738
210 1 33.831 -11.101 12.520
211 1 25.573 -9.275 2.113
212 1 24.118 -9.737 1.401
213 1 24.764 -12.216 -2.002
214 1 51.448 14.386 3.075
215 1 52.233 15.063 4.845
216 1 52.343 13.004 9.146
217 1 41.852 21.565 24.303
218 1 44.014 22.671 22.374
219 1 44.921 17.781 21.654
220 1 -10.586 11.104 2.448
221 1 -6.469 1.392 -0.737
222 1 -9.338 6.029 0.319
223 1 4.412 -9.588 6.347
224 1 -2.333 -10.603 -2.301
225 1 4.350 -9.954 1.975
226 1 2.991 9.125 20.057
227 1 4.408 2.152 20.994
228 1 2.396 6.559 15.605
229 1 2.332 4.171 -1.382
230 1 8.944 3.911 -8.346
231 1 3.982 7.814 -5.480
232 1 16.468 20.739 5.164
233 1 15.507 21.501 13.719
234 1 14.007 19.523 -0.670
235 1 5.936 11.890 5.811
236 1 5.920 13.931 9.298
237 1 5.965 9.079 11.268
238 1 13.280 24.799 -4.660
239 1 16.476 16.852 -2.645
240 1 11.772 18.718 -5.073
241 1 20.126 -7.575 -1.853
242 1 16.900 -6.107 -9.569
243 1 18.893 -6.785 -3.412
244 1 14.872 8.997 5.913
245 1 16.259 5.840 -1.672
246 1 16.300 12.523 3.762
247 1 33.113 30.237 -13.319
248 1 31.725 28.272 -10.638
249 1 30.449 33.232 -2.959
250 1 54.548 13.392 -5.476
251 1 54.322 10.688 -1.964
252 1 54.235 11.272 -0.989
253 1 23.605 -2.159 17.740
254 1 21.165 -5.064 12.986
255 1 24.558 -5.905 9.207
256 1 17.745 -2.955 28.356
257 1 17.449 1.169 25.481
258 1 21.644 -2.474 26.796
259 1 -4.660 19.302 -1.336
260 1 0.566 20.372 -1.636
261 1 -3.360 22.820 -0.210
262 1 22.452 11.376 -17.293
263 1 24.411 10.937 -18.095
264 1 23.207 17.470 -12.695
265 1 -2.183 6.599 -0.404
266 1 -2.280 2.899 -5.347
267 1 0.109 7.259 -4.655
268 1 -3.165 32.920 13.070
269 1 -5.793 32.831 15.452
270 1 0.253 33.461 10.382
271 1 1.767 -1.769 15.594
272 1 7.394 -10.266 19.697
273 1 2.915 -1.015 14.718
274 1 17.244 9.273 -12.930
275 1 19.136 5.794 -9.598
276 1 19.200 6.921 -5.458
277 1 24.011 15.417 3.110
278 1 23.844 16.609 1.474
279 1 20.777 15.911 1.945
280 1 2.561 24.473 -18.391
281 1 3.509 23.733 -9.574
282 1 5.252 24.650 -14.062
283 1 27.438 20.965 5.199
284 1 34.012 16.307 1.893
285 1 28.805 13.802 -0.898
286 1 23.283 5.327 15.815
287 1 20.273 3.746 14.930
288 1 21.089 9.438 13.672
289 1 37.612 -6.517 10.796
290 1 39.157 -0.524 8.509
291 1 39.037 -2.535 10.199
292 1 53.954 11.202 11.871
293 1 50.688 7.575 12.878
294 1 51.587 10.091 12.189
295 1 33.833 26.995 5.204
296 1 33.853 25.405 4.142
297 1 32.924 26.488 -1.601
298 1 -8.667 23.433 2.059
299 1 -7.986 22.876 4.523
300 1 -3.627 29.021 1.565
301 1 6.445 -1.722 6.901
302 1 4.698 -1.586 3.942
303 1 2.011 0.376 2.755
304 1 0.590 -13.478 1.645
305 1 3.828 -16.869 1.973
306 1 1.529 -15.060 0.869
307 1 -11.173 6.509 5.661
308 1 -8.049 7.400 6.823
309 1 -11.114 8.229 2.635
310 1 25.230 15.021 -28.643
311 1 24.658 19.555 -27.944
312 1 22.984 17.958 -29.643
313 1 14.250 6.792 -4.569
314 1 3.263 11.633 0.430
315 1 9.019 12.165 -3.047
316 1 19.321 -5.481 11.412
317 1 12.193 -7.380 8.617
318 1 15.586 -10.535 10.658
319 1 22.770 18.784 1.592
320 1 23.586 16.903 -0.036
321 1 24.103 16.689 4.581
322 1 41.731 13.321 12.539
323 1 42.071 12.873 17.801
324 1 42.228 11.764 13.099
325 1 20.423 0.617 -1.684
326 1 17.714 3.000 2.537
327 1 18.207 1.636 3.262
328 1 16.055 -5.892 -5.330
329 1 14.062 -0.780 -12.961
330 1 13.685 3.165 -7.410
331 1 19.145 -6.837 -13.164
332 1 22.361 -5.051 -15.533
333 1 19.625 -9.475 -17.396
334 1 27.994 23.336 0.438
335 1 25.908 24.156 2.606
336 1 24.419 18.728 -4.732
337 1 -6.827 20.234 14.578
338 1 -12.522 24.340 12.898
339 1 -9.761 25.124 11.321
340 1 -1.865 16.097 21.974
341 1 -1.141 15.082 19.357
342 1 1.057 17.226 24.438
343 1 4.945 13.271 -3.281
344 1 4.588 10.570 -7.075
345 1 5.205 9.205 -6.083
346 1 6.374 25.440 22.515
347 1 4.509 21.153 23.580
348 1 4.318 23.506 22.311
349 1 30.694 7.306 -16.270
350 1 31.312 2.436 -16.618
351 1 29.243 2.620 -20.382
352 1 38.542 3.317 -5.224
353 1 35.294 2.715 -7.490
354 1 38.832 5.573 -5.628
355 1 5.765 18.468 10.402
356 1 4.815 24.577 16.601
357 1 5.084 27.392 15.129
358 1 36.481 -17.132 -15.727
359 1 33.395 -18.817 -14.333
360 1 32.644 -12.926 -22.032
361 1 1.270 28.110 28.055
362 1 -2.000 30.213 31.656
363 1 2.027 31.269 33.871
364 1 18.760 14.701 8.343
365 1 15.158 13.399 14.612
366 1 17.921 15.388 5.540
367 1 40.775 24.203 -1.612
368 1 39.530 26.261 -4.741
369 1 40.835 23.764 -1.789
370 1 45.760 25.601 30.598
371 1 51.971 22.629 31.365
372 1 51.436 24.908 27.540
373 1 26.197 24.037 1.394
374 1 33.381 25.187 7.315
375 1 32.732 25.677 4.344
376 1 0.170 38.231 -7.788
377 1 3.575 33.928 -8.243
378 1 0.583 33.737 -7.540
379 1 -1.391 5.518 -6.439
380 1 -2.460 4.575 -3.493
381 1 -0.320 3.654 -6.335
382 1 4.068 13.459 1.656
383 1 4.799 16.805 -2.985
384 1 8.081 10.924 -2.538
385 1 11.730 21.696 16.935
386 1 11.693 24.729 16.575
387 1 7.994 26.956 10.882
388 1 4.044 15.731 -13.564
389 1 2.299 12.068 -14.357
390 1 3.513 10.258 -9.961
391 1 24.875 29.179 7.989
392 1 25.663 26.901 6.228
393 1 22.242 29.905 4.882
394 1 15.575 34.635 10.370
395 1 15.043 34.339 11.647
396 1 15.687 39.665 4.521
397 1 29.587 45.728 1.674
398 1 33.310 51.105 -1.304
399 1 28.641 47.021 -2.994
400 1 8.515 28.477 31.678
401 1 7.617 29.630 27.022
402 1 7.983 29.508 27.452
403 1 3.507 31.133 -1.293
404 1 5.293 29.976 -2.353
405 1 1.305 31.787 -3.830
406 1 36.013 14.426 -5.254
407 1 37.262 12.441 -7.710
408 1 41.140 12.936 -3.554
409 1 22.521 0.281 1.740
410 1 23.251 -4.054 1.136
411 1 25.125 2.021 -3.138
412 1 39.847 -4.837 -9.659
413 1 36.699 -2.652 -9.267
414 1 39.907 -3.306 -10.326
415 1 7.186 -3.747 -0.512
416 1 9.060 -3.815 4.945
417 1 7.734 -0.441 2.111
418 1 9.389 20.543 9.625
419 1 7.912 21.246 10.803
420 1 9.247 17.006 11.441
421 1 14.003 49.278 9.674
422 1 11.986 49.744 11.264
423 1 12.093 48.288 7.046
424 1 21.252 -1.960 4.994
425 1 19.275 -0.351 3.275
426 1 21.748 -7.391 6.513
427 1 -2.008 36.762 6.733
428 1 -6.657 36.249 10.875
429 1 -7.616 32.513 6.234
430 1 31.472 8.274 11.494
431 1 31.227 12.885 11.761
432 1 32.756 15.391 18.938
433 1 31.215 13.754 23.766
434 1 30.911 16.221 19.577
435 1 32.892 15.294 22.232
436 1 5.102 15.366 20.943
437 1 8.274 12.073 23.329
438 1 8.158 13.076 19.615
439 1 -0.951 30.642 -22.957
440 1 -4.037 31.036 -21.187
441 1 -5.669 32.466 -21.668
442 1 16.755 34.556 27.966
443 1 16.700 35.873 29.858
444 1 16.421 33.643 29.641
445 1 27.248 15.479 3.293
446 1 25.804 18.908 -0.589
447 1 29.723 15.260 2.691
448 1 2.614 15.434 -17.150
449 1 3.654 15.347 -15.901
450 1 1.231 12.821 -19.020
451 1 32.902 38.804 13.855
452 1 37.741 34.880 12.008
453 1 30.148 35.919 7.318
454 1 9.114 5.351 11.473
455 1 11.206 9.382 3.260
456 1 11.402 5.526 9.779
457 1 19.704 38.065 14.184
458 1 17.151 37.252 10.889
459 1 19.085 38.111 15.577
460 1 12.270 26.994 4.750
461 1 14.309 23.011 6.123
462 1 13.576 27.503 6.418
463 1 -0.434 22.883 3.657
464 1 0.386 21.858 7.971
465 1 -2.067 22.267 8.325
466 1 3.359 -17.782 -9.223
467 1 4.619 -20.410 -6.157
468 1 4.888 -19.279 -4.982
469 1 17.559 8.964 -6.803
470 1 15.578 5.881 -9.134
471 1 16.757 7.594 -3.004
472 1 2.980 14.836 4.131
473 1 2.354 16.249 -0.795
474 1 0.449 10.297 -0.682
475 1 13.982 11.162 34.807
476 1 12.744 11.429 34.514
477 1 14.059 14.259 33.851
478 1 40.800 20.776 -3.080
479 1 41.712 16.830 -2.342
480 1 42.034 25.787 6.023
481 1 9.733 26.475 9.680
482 1 8.186 26.450 11.784
483 1 6.460 27.297 6.671
484 1 23.768 14.369 5.288
485 1 26.790 16.125 8.393
486 1 22.412 15.707 0.834
487 1 29.325 10.428 7.402
488 1 25.244 9.038 10.057
489 1 25.123 7.489 7.129
490 1 33.060 36.070 -4.945
491 1 31.982 40.466 -4.713
492 1 34.505 41.770 -5.110
493 1 15.146 20.533 -7.333
494 1 17.088 17.600 -4.900
495 1 13.452 26.642 -3.768
496 1 -19.679 6.115 2.928
497 1 -15.718 11.760 4.317
498 1 -17.334 7.121 8.182
499 1 -8.386 27.376 3.395
500 1 -10.216 27.625 8.514
501 1 -12.579 23.498 6.955
502 1 10.572 25.150 0.371
503 1 12.316 26.945 -3.050
504 1 11.749 23.491 -5.542
505 1 8.214 24.321 -17.631
506 1 9.885 21.700 -17.799
507 1 9.056 24.173 -10.869
508 1 20.384 31.293 11.213
509 1 20.350 36.057 3.546
510 1 17.527 32.572 8.712
511 1 1.606 34.897 38.067
512 1 1.568 31.885 39.001
513 1 1.514 34.164 39.344
514 1 18.297 21.816 3.342
515 1 19.829 32.229 12.480
516 1 18.041 31.036 6.168
517 1 14.090 24.547 21.347
518 1 13.385 22.208 24.101
519 1 11.850 29.604 19.393
520 1 40.113 14.851 21.363
521 1 45.064 12.831 23.286
522 1 38.900 12.698 14.080
523 1 13.868 19.120 14.833
524 1 15.025 18.322 11.772
525 1 12.448 15.531 11.830
526 1 11.642 13.208 16.696
527 1 15.389 9.680 16.958
528 1 12.701 2.838 15.808
529 1 26.715 17.733 -2.237
530 1 27.232 11.755 -4.256
531 1 31.769 11.803 -2.076
532 1 19.726 33.522 -12.500
533 1 20.174 26.570 -13.106
534 1 17.312 32.482 -18.572
535 1 33.138 45.193 -9.308
536 1 27.345 41.303 -8.284
537 1 31.107 42.199 -11.891
538 1 10.645 2.203 14.171
539 1 11.103 5.814 14.288
540 1 7.000 1.450 11.402
541 1 32.058 18.332 9.444
542 1 31.874 14.793 7.442
543 1 31.050 15.980 11.529
544 1 1.865 25.776 4.645
545 1 3.284 25.453 9.501
546 1 3.745 25.907 9.316
547 1 4.966 0.692 1.319
548 1 5.180 4.262 -3.508
549 1 2.984 5.237 -3.378
550 1 28.610 34.852 1.719
551 1 29.451 28.864 4.179
552 1 28.514 31.477 2.282
553 1 26.637 16.397 15.588
554 1 19.268 14.020 14.877
555 1 26.887 9.885 17.504
556 1 8.970 35.501 -20.055
557 1 7.089 32.578 -19.020
558 1 6.858 32.392 -19.293
559 1 -1.377 21.712 1.553
560 1 -5.821 18.288 -4.596
561 1 -1.277 20.333 -1.588
562 1 16.191 17.015 15.269
563 1 14.165 15.081 18.628
564 1 15.215 17.380 18.100
565 1 28.287 74.439 14.018
566 1 29.000 72.973 9.514
567 1 31.059 72.479 17.680
568 1 26.234 31.807 -14.630
569 1 21.860 31.685 -7.401
570 1 23.884 34.287 -17.970
571 1 15.212 34.208 -5.379
572 1 13.532 34.645 0.370
573 1 15.572 30.780 -4.612
574 1 9.028 45.493 9.681
575 1 7.323 46.352 14.362
576 1 5.291 43.985 18.895
577 1 3.672 23.547 29.778
578 1 3.056 21.018 29.044
579 1 1.555 19.173 22.932
580 1 29.423 8.135 22.043
581 1 28.956 3.742 17.951
582 1 33.056 2.238 15.828
583 1 -0.370 19.260 19.088
584 1 4.935 15.537 18.128
585 1 1.453 19.819 13.891
586 1 -0.541 31.453 -7.702
587 1 1.704 26.054 -8.045
588 1 0.154 24.540 -4.309
589 1 28.159 34.372 7.275
590 1 34.455 38.490 9.704
591 1 30.387 38.053 10.386
592 1 16.941 2.764 -7.969
593 1 18.562 -1.246 -10.782
594 1 21.967 1.891 -14.232
595 1 31.464 26.362 -5.430
596 1 30.578 26.203 -9.386
597 1 32.894 26.492 -5.384
598 1 29.865 6.908 1.921
599 1 28.128 2.112 1.755
600 1 31.160 6.459 2.366
601 1 32.993 38.467 15.204
602 1 33.488 42.636 19.649
603 1 31.968 43.528 17.703
604 1 42.668 4.637 -10.045
605 1 46.382 4.315 -11.170
606 1 37.344 0.122 -9.978
607 1 37.190 20.572 9.695
608 1 37.748 21.689 6.400
609 1 39.289 26.400 6.142
610 1 -11.988 10.504 -30.430
611 1 -11.909 11.994 -39.613
612 1 -10.794 3.943 -32.937
613 1 14.423 38.712 18.067
614 1 13.336 35.277 17.233
615 1 13.363 40.804 17.037
616 1 28.796 33.427 -9.884
617 1 27.551 32.065 -15.728
618 1 30.201 39.286 -11.199
619 1 28.896 15.963 3.631
620 1 26.501 18.304 -0.104
621 1 29.059 12.704 -0.620
622 1 18.352 46.829 8.458
623 1 17.477 44.343 11.358
624 1 16.610 44.656 7.031
625 1 28.855 10.076 2.403
626 1 27.300 6.248 -3.689
627 1 29.049 10.240 3.754
628 1 18.606 44.371 13.518
629 1 21.892 46.844 19.317
630 1 20.980 45.394 16.342
631 1 7.323 44.733 10.169
632 1 8.144 43.285 8.570
633 1 4.130 48.393 3.854
634 1 33.590 35.266 -5.696
635 1 35.518 37.449 -7.679
636 1 32.686 33.770 -7.502
637 1 33.584 29.443 27.711
638 1 35.001 29.596 30.711
639 1 32.533 27.201 22.312
640 1 33.375 60.093 -2.793
641 1 29.970 61.663 -2.509
642 1 34.934 55.248 -3.310
643 1 51.911 24.026 9.248
644 1 53.830 27.071 7.761
645 1 56.247 28.037 7.465
646 1 20.963 17.382 4.802
647 1 20.702 21.363 4.670
648 1 21.687 18.033 0.836
649 1 25.592 27.517 1.282
650 1 24.449 31.029 2.059
651 1 24.957 30.643 1.287
652 1 8.044 35.009 -17.870
653 1 14.505 34.640 -16.979
654 1 7.369 36.071 -17.682
655 1 0.680 38.672 -0.955
656 1 5.085 40.266 -2.742
657 1 2.771 41.213 -11.469
658 1 25.887 38.566 -0.389
659 1 28.221 41.340 -1.552
660 1 28.691 40.804 -1.914
661 1 7.713 23.976 5.389
662 1 8.254 21.915 4.606
663 1 7.375 23.767 13.479
664 1 2.389 26.944 -23.008
665 1 4.009 25.885 -29.103
666 1 2.105 28.945 -21.715
667 1 37.208 24.517 -5.671
668 1 35.686 23.872 -0.053
669 1 37.289 24.040 -5.368
670 1 9.833 52.566 30.708
671 1 7.049 53.309 25.080
672 1 9.538 53.688 25.209
673 1 33.361 33.484 0.877
674 1 31.186 30.204 -3.592
675 1 32.281 33.894 -3.515
676 1 28.700 7.434 25.222
677 1 30.179 7.961 25.722
678 1 31.977 7.514 24.129
679 1 15.301 24.060 2.191
680 1 14.833 26.356 -4.361
681 1 13.591 24.239 1.923
682 1 28.774 35.183 9.517
683 1 30.076 34.645 13.557
684 1 28.263 38.522 12.064
685 1 0.355 48.689 -4.668
686 1 6.228 46.062 -4.264
687 1 2.973 47.570 -4.346
688 1 3.482 -2.444 10.719
689 1 1.082 0.500 14.108
690 1 4.132 -1.380 12.967
691 1 -16.645 6.175 14.061
692 1 -17.597 4.321 11.267
693 1 -16.208 0.335 14.550
694 1 29.160 9.348 15.390
695 1 28.414 8.723 16.244
696 1 33.244 5.072 14.449
697 1 9.091 34.165 2.024
698 1 13.677 33.942 -0.642
699 1 12.007 31.415 -3.014
700 1 -5.545 10.387 -7.664
701 1 -0.967 10.373 -7.334
702 1 -6.377 14.616 -7.812
703 1 4.300 11.780 13.141
704 1 8.978 9.895 7.437
705 1 2.661 12.108 10.977
706 1 -3.113 1.131 10.236
707 1 -8.183 2.864 9.648
708 1 -6.596 2.800 10.061
709 1 30.853 -7.636 -4.096
710 1 29.365 -9.857 -9.861
711 1 30.764 -7.836 -2.262
712 1 4.972 28.425 -8.147
713 1 8.202 25.917 -7.388
714 1 8.419 28.088 -5.341
715 1 37.577 4.552 -8.049
716 1 36.371 5.004 -12.392
717 1 42.073 7.144 -13.499
718 1 38.971 -26.553 2.565
719 1 46.057 -28.860 0.144
720 1 38.945 -26.835 2.868
721 1 41.915 26.447 3.298
722 1 44.486 24.814 0.906
723 1 43.023 22.797 1.011
724 1 22.491 30.781 -14.510
725 1 25.874 29.049 -13.266
726 1 27.257 31.194 -12.306
727 1 -17.888 -1.319 4.632
728 1 -18.037 -2.716 2.833
729 1 -17.422 0.726 2.238
730 1 27.310 21.444 -1.837
731 1 24.792 18.122 -0.110
732 1 26.734 21.922 -3.188
733 1 22.535 19.926 15.840
734 1 21.988 21.573 19.076
735 1 25.646 20.872 20.505
736 1 1.610 19.526 -5.414
737 1 4.881 22.217 -12.455
738 1 2.171 19.607 -5.600
739 1 8.615 -14.454 36.652
740 1 10.794 -15.413 33.679
741 1 7.923 -13.534 30.758
742 1 24.546 -13.709 17.015
743 1 22.852 -11.876 21.709
744 1 25.767 -8.984 20.353
745 1 38.878 21.801 5.067
746 1 37.025 21.489 6.862
747 1 40.763 22.182 11.398
748 1 -15.598 -0.840 21.750
749 1 -16.511 6.235 23.271
750 1 -17.472 3.099 24.561
751 1 7.293 -6.026 10.479
752 1 11.469 -9.138 8.389
753 1 10.876 -5.674 11.149
754 1 13.606 -9.420 8.523
755 1 15.011 -13.630 2.011
756 1 16.438 -10.150 1.873
757 1 10.949 18.150 5.851
758 1 14.112 19.155 6.853
759 1 15.612 14.834 9.231
760 1 31.209 31.796 14.694
761 1 31.421 34.654 11.289
762 1 32.556 32.394 12.396
763 1 36.344 1.941 -5.694
764 1 33.039 3.932 -3.001
765 1 36.413 1.589 -5.100
766 1 -16.004 -4.136 9.844
767 1 -15.991 -0.284 7.595
768 1 -17.760 -1.117 5.901
769 1 60.911 2.512 -7.848
770 1 61.781 4.644 -4.424
771 1 65.308 2.531 -6.424
772 1 16.010 25.298 -6.731
773 1 19.481 26.113 -14.062
774 1 20.457 19.244 -10.192
775 1 23.536 15.226 8.494
776 1 25.192 16.933 5.882
777 1 20.174 12.815 7.940
778 1 25.367 11.811 3.266
779 1 29.308 12.704 6.987
780 1 27.543 9.127 0.597
781 1 -9.569 -4.159 7.453
782 1 -12.783 -3.295 9.849
783 1 -11.246 -1.810 10.487
784 1 17.425 -3.660 4.916
785 1 16.171 -4.631 5.245
786 1 18.855 0.942 5.190
787 1 -4.246 32.743 11.127
788 1 -3.190 34.868 10.082
789 1 -0.011 34.859 11.469
790 1 17.926 -25.181 1.029
791 1 16.719 -23.895 -0.966
792 1 21.945 -18.705 1.428
793 1 14.262 17.198 10.270
794 1 17.953 16.869 11.150
795 1 16.980 18.694 11.816
796 1 40.029 9.265 36.895
797 1 37.861 9.130 34.317
798 1 38.220 11.230 36.854
799 1 34.437 15.699 -7.290
800 1 34.799 15.592 -6.490
801 1 32.882 19.907 -4.567
802 1 19.180 28.660 2.828
803 1 17.127 29.223 -2.987
804 1 16.756 33.811 2.092
805 1 3.612 -19.197 5.953
806 1 5.025 -17.030 13.168
807 1 6.551 -22.551 7.401
808 1 6.754 34.043 -4.206
809 1 3.772 28.160 -4.090
810 1 3.706 35.685 -4.646
811 1 4.800 10.748 -1.935
812 1 6.883 19.366 1.429
813 1 6.036 15.380 -6.053
814 1 16.237 13.788 0.738
815 1 19.064 16.567 2.780
816 1 17.602 15.282 0.870
817 1 -3.865 -1.140 14.763
818 1 -4.142 -2.475 26.918
819 1 -8.489 -3.377 22.623
820 1 13.551 26.993 30.471
821 1 11.230 23.094 29.316
822 1 14.823 24.344 27.943
823 1 33.989 15.345 1.138
824 1 31.302 10.571 -7.168
825 1 29.658 11.204 -1.044
826 1 22.186 28.966 18.969
827 1 26.760 32.660 14.767
828 1 23.934 29.606 15.547
829 1 54.363 16.565 31.901
830 1 53.169 16.026 38.298
831 1 50.586 15.656 34.356
832 1 1.605 8.179 0.713
833 1 2.567 8.175 -4.381
834 1 2.752 8.238 -0.824
835 1 10.195 14.165 -1.889
836 1 14.801 11.814 3.758
837 1 12.971 14.838 8.841
838 1 26.140 3.665 4.928
839 1 26.441 2.974 -0.105
840 1 24.263 -0.364 -0.459
841 1 15.542 -10.172 21.285
842 1 17.904 -10.812 16.661
843 1 17.722 -7.810 11.093
844 1 1.144 5.931 14.694
845 1 -4.601 11.006 6.250
846 1 -4.502 5.881 3.040
847 1 25.859 12.590 31.622
848 1 26.936 17.126 28.866
849 1 31.094 14.340 32.652
850 1 -10.834 27.839 15.300
851 1 -9.438 25.319 14.901
852 1 -5.007 27.266 12.894
853 1 16.119 20.181 -4.044
854 1 19.206 26.242 -8.119
855 1 11.345 22.162 -5.422
856 1 19.452 16.815 1.156
857 1 19.670 18.487 2.666
858 1 21.230 17.423 -3.163
859 1 13.890 -8.432 -11.748
860 1 13.995 -6.812 -18.254
861 1 14.830 -11.792 -11.162
862 1 44.925 11.554 -8.202
863 1 45.497 7.540 -11.833
864 1 44.483 10.035 -7.287
865 1 32.825 7.772 14.642
866 1 29.996 8.192 14.324
867 1 34.450 11.437 10.436
868 1 40.071 0.220 -5.947
869 1 36.764 4.248 0.700
870 1 42.182 4.756 -1.774
871 1 35.476 -1.145 -1.845
872 1 38.457 -3.184 2.229
873 1 35.602 0.211 4.656
874 1 27.685 19.325 -3.890
875 1 22.947 21.480 -4.097
876 1 27.736 22.860 -6.636
877 1 38.198 26.368 16.049
878 1 36.733 28.328 16.345
879 1 39.270 30.632 24.533
880 1 21.759 25.559 1.661
881 1 24.604 28.843 2.173
882 1 26.469 22.626 0.301
883 1 -17.755 7.134 16.018
884 1 -15.128 4.273 16.514
885 1 -19.913 6.525 15.998
886 1 -16.621 2.630 12.293
887 1 -15.231 3.771 17.198
888 1 -13.684 2.265 11.270
889 1 16.016 22.843 -1.580
890 1 17.096 21.394 -5.396
891 1 16.653 21.296 -4.336
892 1 -12.860 3.311 -7.633
893 1 -11.446 0.970 -7.444
894 1 -11.487 3.680 -7.914
895 1 27.682 22.470 1.928
896 1 25.881 31.224 3.269
897 1 24.356 27.840 4.748
898 1 31.142 49.000 19.680
899 1 33.215 48.878 24.736
900 1 33.879 46.456 22.155
901 1 16.738 35.933 -5.487
902 1 14.442 36.726 -4.043
903 1 14.206 31.865 -6.794
904 1 22.639 12.428 -0.237
905 1 22.672 16.056 1.796
906 1 20.521 16.581 0.440
907 1 36.525 13.957 -1.370
908 1 36.031 13.110 -1.503
909 1 33.903 18.425 -1.344
910 1 31.122 0.395 25.899
911 1 28.142 0.347 31.529
912 1 31.455 -0.783 26.162
913 1 39.339 45.988 12.206
914 1 41.365 40.403 16.982
915 1 38.074 45.432 19.754
916 1 34.251 28.234 -12.197
917 1 32.616 26.526 -7.495
918 1 34.162 25.844 -9.165
919 1 30.777 17.615 1.300
920 1 30.378 20.542 8.656
921 1 33.715 19.334 4.516
922 1 30.655 -2.716 13.349
923 1 33.772 0.023 10.960
924 1 31.800 -5.930 11.781
925 1 -19.118 19.307 16.456
926 1 -19.085 17.006 20.019
927 1 -22.817 15.444 11.235
928 1 32.732 6.341 -9.227
929 1 30.517 3.524 -8.249
930 1 30.422 9.329 -3.664
931 1 0.190 -5.449 23.217
932 1 2.824 -0.955 22.601
933 1 2.676 -1.730 21.198
934 1 3.431 8.771 -23.353
935 1 3.392 8.327 -25.486
936 1 4.672 11.434 -25.040
937 1 29.469 36.967 25.968
938 1 28.869 32.595 24.309
939 1 29.713 38.683 24.236
940 1 2.411 2.715 26.011
941 1 4.787 3.458 22.247
942 1 6.026 8.731 26.421
943 1 -4.932 24.006 11.134
944 1 -0.999 25.790 7.996
945 1 -2.851 19.581 15.681
946 1 44.246 28.192 24.087
947 1 40.683 25.346 24.284
948 1 42.742 28.941 29.249
949 1 4.867 3.135 13.598
950 1 5.190 4.711 9.491
951 1 4.671 2.384 13.973
952 1 23.784 24.592 18.468
953 1 22.479 22.975 14.607
954 1 22.968 22.415 17.779
955 1 17.185 31.245 15.557
956 1 17.606 28.588 13.450
957 1 14.972 26.793 17.377
958 1 46.033 7.459 13.588
959 1 46.304 12.004 10.376
960 1 46.484 8.945 17.603
961 1 11.942 15.348 22.418
962 1 11.186 14.292 15.611
963 1 15.699 12.436 18.271
964 1 -6.106 14.728 37.094
965 1 -4.478 14.355 37.684
966 1 -3.745 22.186 39.324
967 1 26.265 29.303 2.225
968 1 23.895 34.871 -4.981
969 1 26.075 32.281 -0.915
970 1 5.285 42.350 2.801
971 1 9.476 44.073 1.866
972 1 6.200 44.407 1.122
973 1 25.601 42.905 1.471
974 1 26.216 46.968 -1.405
975 1 29.672 44.689 0.792
976 1 4.123 11.343 -7.509
977 1 5.565 16.578 -3.636
978 1 6.064 10.987 -3.689
979 1 28.789 41.799 14.554
980 1 30.568 45.469 16.681
981 1 26.066 43.562 11.249
982 1 26.255 25.972 6.835
983 1 25.328 26.751 9.761
984 1 26.158 29.229 7.879
985 1 11.767 12.035 10.096
986 1 13.423 15.440 7.917
987 1 9.262 17.212 11.682
988 1 10.725 15.801 -0.705
989 1 9.699 15.835 0.499
990 1 10.645 17.291 -4.624
991 1 37.254 16.531 29.060
992 1 40.494 14.555 27.525
993 1 41.541 15.564 31.426
994 1 21.075 10.280 9.481
995 1 20.452 10.773 7.570
996 1 17.821 14.099 11.103
997 1 15.560 24.904 18.333
998 1 15.753 22.740 11.957
999 1 17.270 24.403 14.913
1000 1 19.541 15.478 17.502
1001 1 18.334 16.984 12.082
1002 1 13.936 16.259 13.567
1003 1 -2.058 30.012 17.860
1004 1 1.485 33.428 19.734
1005 1 -4.283 29.623 11.011
1006 1 9.366 5.338 10.506
1007 1 8.584 1.317 14.754
1008 1 5.342 6.361 7.536
1009 1 26.581 18.125 -16.657
1010 1 21.790 14.903 -8.229
1011 1 24.893 12.691 -11.575
1012 1 -9.156 22.313 21.032
1013 1 -9.085 24.058 14.677
1014 1 -7.817 25.701 15.682
1015 1 1.005 44.893 3.821
1016 1 2.254 40.500 1.104
1017 1 1.553 40.071 2.557
1018 1 39.725 6.857 -6.774
1019 1 39.829 12.612 -12.188
1020 1 36.294 11.209 -9.853
1021 1 22.369 19.063 17.341
1022 1 22.782 12.993 24.396
1023 1 19.561 11.522 21.220
1024 1 -0.818 23.688 0.805
1025 1 1.591 26.965 -1.093
1026 1 -3.233 21.593 -4.259
1027 1 34.406 10.985 -7.401
1028 1 30.620 12.623 -6.527
1029 1 33.254 12.830 -11.186
1030 1 35.211 14.910 18.243
1031 1 35.025 18.391 13.248
1032 1 35.902 16.000 9.361
1033 1 34.081 41.384 4.712
1034 1 33.164 43.407 8.180
1035 1 36.077 43.712 3.711
1036 1 52.328 8.041 27.808
1037 1 52.244 8.714 26.999
1038 1 52.238 6.929 28.994
1039 1 -13.131 32.458 5.913
1040 1 -14.062 33.324 3.981
1041 1 -14.674 35.130 2.168
1042 1 15.913 40.942 3.380
1043 1 12.285 42.129 4.890
1044 1 16.069 46.439 4.272
1045 1 26.258 39.427 -1.709
1046 1 29.751 37.125 -2.054
1047 1 26.882 38.537 -2.438
1048 1 -5.779 22.833 7.242
1049 1 -7.442 28.131 11.337
1050 1 -5.366 24.475 14.219
1051 1 11.758 26.116 3.871
1052 1 11.965 25.787 9.690
1053 1 16.468 24.923 15.171
1054 1 32.025 11.619 1.107
1055 1 32.316 11.966 -2.998
1056 1 29.296 15.468 -2.415
1057 1 14.633 26.921 12.058
1058 1 12.154 19.493 11.050
1059 1 14.608 24.188 11.755
1060 1 18.721 -13.447 16.303
1061 1 18.684 -10.324 18.607
1062 1 19.679 -14.556 19.003
1063 1 22.364 15.757 -4.784
1064 1 23.969 12.591 -3.164
1065 1 24.107 16.518 -4.306
1066 1 25.816 33.314 19.436
1067 1 25.511 36.279 23.151
1068 1 21.216 30.795 18.897
1069 1 48.971 18.782 12.542
1070 1 47.956 21.007 19.109
1071 1 49.243 21.884 14.707
1072 1 29.972 17.857 6.731
1073 1 29.481 21.181 1.391
1074 1 33.154 22.401 3.464
1075 1 55.619 16.021 28.116
1076 1 58.117 16.826 24.873
1077 1 60.719 19.054 27.158
1078 1 13.003 28.498 12.125
1079 1 14.392 31.539 6.915
1080 1 12.242 33.518 3.880
1081 1 -5.704 8.928 -8.450
1082 1 -4.651 10.575 -12.567
1083 1 -4.411 11.102 -3.544
1084 1 9.286 24.878 16.389
1085 1 9.540 27.684 12.285
1086 1 5.569 24.553 15.490
1087 1 10.862 31.530 18.418
1088 1 12.070 31.776 21.826
1089 1 11.136 27.184 21.518
1090 1 25.836 48.402 3.081
1091 1 34.988 49.615 -3.589
1092 1 26.725 46.103 -1.924
1093 1 20.014 23.380 4.022
1094 1 19.661 20.421 -2.306
1095 1 21.242 19.897 5.555
1096 1 27.369 22.877 -4.057
1097 1 29.529 22.423 -5.980
1098 1 24.421 26.403 -3.022
1099 1 23.190 34.681 0.755
1100 1 15.238 35.005 4.694
1101 1 19.230 33.225 8.156
1102 1 43.478 13.463 10.010
1103 1 50.927 11.279 5.718
1104 1 47.009 12.805 7.643
1105 1 10.891 12.266 4.773
1106 1 12.435 16.295 7.669
1107 1 11.811 10.619 5.605
1108 1 19.212 16.873 1.824
1109 1 18.770 14.098 -2.365
1110 1 21.136 15.486 4.174
1111 1 40.847 25.650 6.792
1112 1 40.557 22.659 9.435
1113 1 43.044 27.541 14.641
1114 1 45.194 20.170 17.013
1115 1 45.445 23.064 15.144
1116 1 45.788 19.897 20.619
1117 1 1.540 35.278 15.270
1118 1 1.639 34.423 16.256
1119 1 3.133 33.886 15.054
1120 1 8.765 40.150 -10.053
1121 1 9.363 42.736 -5.160
1122 1 6.429 37.913 -6.138
1123 1 -5.587 31.949 2.542
1124 1 -3.525 34.209 6.334
1125 1 -0.723 31.194 -2.197
1126 1 0.457 54.468 8.474
1127 1 2.709 55.408 9.846
1128 1 1.813 52.270 7.985
1129 1 27.808 29.579 34.114
1130 1 28.253 27.422 31.264
1131 1 31.789 34.272 25.621
1132 1 17.194 22.467 12.190
1133 1 20.445 30.788 8.518
1134 1 18.488 23.734 6.337
1135 1 15.066 -6.003 -5.233
1136 1 16.256 -6.388 -2.763
1137 1 15.066 -3.822 -2.846
1138 1 24.877 28.100 2.321
1139 1 22.287 30.876 -4.407
1140 1 20.037 31.152 9.126
1141 1 14.168 46.927 -11.201
1142 1 13.732 44.071 -8.277
1143 1 13.846 44.853 -5.766
1144 1 18.238 35.518 19.036
1145 1 18.302 33.084 6.620
1146 1 16.498 29.256 17.462
1147 1 8.475 49.894 6.786
1148 1 5.442 44.059 10.456
1149 1 7.573 47.646 6.897
1150 1 20.389 54.513 9.596
1151 1 18.414 52.467 9.457
1152 1 22.221 56.813 9.312
1153 1 57.882 26.837 -7.016
1154 1 56.821 26.289 -15.360
1155 1 53.950 29.572 -13.087
1156 1 23.077 18.553 -9.795
1157 1 24.116 21.107 -11.587
1158 1 22.473 19.515 -16.826
1159 1 24.481 55.592 34.501
1160 1 21.302 51.949 36.454
1161 1 26.298 55.951 34.330
1162 1 25.190 32.557 28.385
1163 1 26.497 38.818 26.102
1164 1 27.195 36.880 24.820
1165 1 14.315 33.761 34.089
1166 1 13.433 33.435 29.276
1167 1 15.710 34.640 26.117
1168 1 10.926 35.094 13.608
1169 1 15.247 35.988 16.194
1170 1 14.928 35.578 8.138
1171 1 27.374 20.109 -7.184
1172 1 23.455 23.000 -9.352
1173 1 22.780 18.243 -10.811
1174 1 19.281 19.617 14.869
1175 1 25.113 16.435 13.278
1176 1 21.371 20.564 18.164
1177 1 -5.908 52.435 13.789
1178 1 -3.083 50.022 8.321
1179 1 -5.386 59.409 3.697
1180 1 34.899 20.752 0.531
1181 1 35.644 25.744 -4.559
1182 1 37.105 23.636 -4.062
1183 1 24.653 17.611 -3.933
1184 1 25.797 19.857 -5.633
1185 1 26.081 16.810 -2.346
1186 1 9.939 34.578 -10.938
1187 1 6.935 34.184 -1.773
1188 1 5.137 35.723 -4.821
1189 1 57.316 68.895 20.469
1190 1 58.128 68.375 22.465
1191 1 57.774 68.834 25.329
1192 1 19.787 50.569 14.515
1193 1 21.205 51.435 18.523
1194 1 19.923 49.505 22.043
1195 1 -2.446 1.409 1.093
1196 1 -0.549 -2.387 -1.764
1197 1 -2.076 -3.056 1.659
1198 1 16.198 22.527 -10.038
1199 1 18.300 23.605 -13.667
1200 1 22.374 26.997 -7.888
1201 1 -8.036 3.314 14.601
1202 1 -9.956 3.326 16.747
1203 1 -9.796 3.170 14.872
1204 1 25.016 16.941 33.154
1205 1 20.046 15.714 38.551
1206 1 24.591 18.649 30.341
1207 1 37.122 -10.852 10.950
1208 1 37.470 -11.364 11.302
1209 1 40.013 -7.249 6.283
1210 1 9.419 38.175 18.620
1211 1 12.294 34.290 19.719
1212 1 10.147 34.608 23.398
1213 1 15.590 13.529 -9.511
1214 1 14.769 5.671 -8.141
1215 1 12.224 12.800 -7.757
1216 1 38.214 6.122 -2.602
1217 1 34.354 8.337 -4.526
1218 1 34.755 10.416 -6.124
1219 1 28.053 14.867 6.639
1220 1 27.519 13.170 6.734
1221 1 30.490 16.602 10.541
1222 1 32.061 28.781 16.214
1223 1 34.336 32.836 22.111
1224 1 36.984 27.232 19.940
1225 1 23.422 1.834 37.944
1226 1 27.322 9.097 34.581
1227 1 30.340 3.021 38.802
1228 1 47.733 12.612 8.063
1229 1 49.355 15.822 13.098
1230 1 50.128 13.947 9.888
1231 1 19.511 4.104 18.722
1232 1 19.514 9.356 22.002
1233 1 19.296 6.166 21.179
1234 1 11.563 20.287 12.420
1235 1 8.507 18.560 16.488
1236 1 6.321 22.414 11.321
1237 1 38.215 11.374 3.642
1238 1 37.711 11.144 7.144
1239 1 36.956 13.623 11.399
1240 1 24.206 3.820 2.138
1241 1 20.178 6.709 7.417
1242 1 24.507 3.508 5.398
1243 1 10.596 -0.765 5.542
1244 1 9.994 -7.570 4.885
1245 1 10.033 -5.787 2.532
1246 1 23.149 13.402 12.129
1247 1 20.515 13.544 8.298
1248 1 22.027 15.901 14.837
1249 1 8.899 20.905 -0.958
1250 1 3.998 21.136 -5.512
1251 1 7.869 21.276 -5.395
1252 1 17.346 32.885 3.664
1253 1 15.286 30.497 6.290
1254 1 13.879 34.845 6.460
1255 1 18.284 9.653 24.810
1256 1 17.463 7.816 20.006
1257 1 18.548 10.331 21.170
1258 1 21.510 20.466 18.645
1259 1 21.171 16.356 14.422
1260 1 24.843 22.505 11.991
1261 1 26.007 11.410 -4.384
1262 1 25.600 9.639 5.545
1263 1 25.191 5.009 2.341
1264 1 21.128 3.731 20.703
1265 1 17.746 1.077 21.247
1266 1 16.355 2.781 18.066
1267 1 39.668 6.485 9.349
1268 1 40.069 5.162 12.904
1269 1 43.455 7.184 13.917
1270 1 43.139 7.451 -17.682
1271 1 47.399 6.796 -9.896
1272 1 45.679 8.934 -10.381
1273 1 -1.015 7.794 34.352
1274 1 -5.062 7.207 29.572
1275 1 -4.678 7.574 36.586
1276 1 27.082 29.574 12.098
1277 1 28.755 32.053 13.524
1278 1 28.666 30.965 16.552
1279 1 -7.351 0.407 15.276
1280 1 -12.430 -4.814 14.029
1281 1 -8.173 1.418 18.373
1282 1 30.836 -9.578 3.667
1283 1 32.517 -6.067 4.825
1284 1 28.531 -6.587 2.704
1285 1 14.900 16.589 7.129
1286 1 12.908 15.983 7.340
1287 1 13.320 18.656 3.991
1288 1 25.961 34.333 3.883
1289 1 24.708 29.099 -2.793
1290 1 22.881 33.563 -4.515
1291 1 16.151 4.780 -8.403
1292 1 17.418 4.143 -8.684
1293 1 16.943 6.232 -10.420
1294 1 25.733 15.478 -22.622
1295 1 25.976 15.794 -18.884
1296 1 26.613 17.605 -24.325
1297 1 18.340 4.129 -3.830
1298 1 21.022 6.494 -5.644
1299 1 18.724 5.414 -3.638
1300 1 28.227 11.876 25.668
1301 1 25.952 11.885 28.697
1302 1 26.417 12.952 28.654
1303 1 20.944 -5.589 -9.181
1304 1 22.665 -10.400 -12.978
1305 1 22.756 -7.540 -3.277
1306 1 49.395 14.407 -7.261
1307 1 46.095 9.604 -11.912
1308 1 45.976 10.591 -15.006
1309 1 56.065 -10.335 10.379
1310 1 51.066 -5.684 5.341
1311 1 53.100 -8.970 -0.210
1312 1 -11.231 21.210 12.328
1313 1 -10.545 19.936 11.614
1314 1 -11.281 23.631 10.208
1315 1 17.394 9.633 33.380
1316 1 23.416 8.864 34.965
1317 1 18.910 5.649 30.728
1318 1 7.677 43.155 7.572
1319 1 6.281 45.475 2.950
1320 1 2.954 39.178 6.574
1321 1 12.086 18.053 1.473
1322 1 13.516 17.981 5.043
1323 1 13.813 19.986 5.018
1324 1 43.658 -9.269 5.218
1325 1 48.166 -9.622 4.219
1326 1 42.526 -8.689 4.749
1327 1 24.392 23.231 10.805
1328 1 24.111 19.869 9.118
1329 1 24.326 26.848 14.522
1330 1 38.502 2.983 28.261
1331 1 34.068 1.152 29.105
1332 1 35.059 5.050 27.349
1333 1 15.919 18.824 10.045
1334 1 15.660 21.811 8.312
1335 1 11.922 17.923 9.335
1336 1 28.660 34.547 9.347
1337 1 30.070 37.475 5.837
1338 1 28.414 39.207 8.924
1339 1 10.610 38.784 12.437
1340 1 9.232 31.994 13.195
1341 1 12.433 39.492 14.103
1342 1 25.821 20.570 2.764
1343 1 27.607 23.756 0.288
1344 1 26.967 20.695 -1.227
1345 1 51.014 0.471 -18.848
1346 1 47.281 3.072 -20.308
1347 1 48.117 -1.414 -19.092
1348 1 50.989 -0.117 18.371
1349 1 55.356 -2.229 19.859
1350 1 50.652 -3.558 19.641
1351 1 26.826 8.626 1.505
1352 1 26.846 9.352 4.116
1353 1 28.799 3.934 1.802
1354 1 9.500 7.236 -0.512
1355 1 7.172 5.685 4.855
1356 1 7.006 3.752 4.125
1357 1 11.683 3.051 13.574
1358 1 11.250 2.040 16.146
1359 1 11.941 0.032 18.014
1360 1 13.439 26.584 17.495
1361 1 14.277 19.652 23.744
1362 1 14.144 24.974 21.200
1363 1 32.484 26.600 3.825
1364 1 36.470 24.765 2.246
1365 1 34.299 30.922 0.917
1366 1 7.294 28.406 35.956
1367 1 8.845 27.782 31.290
1368 1 8.848 33.709 36.837
1369 1 26.474 5.016 12.692
1370 1 25.813 2.747 4.186
1371 1 25.371 4.194 5.197
1372 1 38.424 10.761 -11.223
1373 1 33.730 8.177 -12.125
1374 1 33.805 6.079 -9.462
1375 1 17.497 13.114 5.498
1376 1 19.371 14.446 1.500
1377 1 18.602 18.110 7.589
1378 1 57.211 5.730 17.701
1379 1 56.130 6.002 18.684
1380 1 51.531 5.524 21.047
1381 1 3.501 18.750 1.873
1382 1 3.810 14.093 8.547
1383 1 4.979 17.500 2.002
1384 1 32.236 10.237 -2.941
1385 1 31.284 9.675 -10.131
1386 1 31.607 9.734 -7.591
1387 1 23.496 14.289 -2.579
1388 1 22.253 17.270 -2.050
1389 1 22.137 12.817 -1.403
1390 1 -2.853 -0.981 1.769
1391 1 0.156 0.997 3.476
1392 1 -2.697 5.078 -0.231
1393 1 -0.519 21.302 19.238
1394 1 2.569 24.988 21.597
1395 1 -2.309 23.619 18.373
1396 1 2.744 -2.265 37.050
1397 1 0.604 1.821 36.269
1398 1 2.793 4.704 37.284
1399 1 17.195 7.019 16.188
1400 1 18.723 7.257 12.255
1401 1 15.528 6.315 10.949
1402 1 0.544 14.669 -2.925
1403 1 4.823 19.813 2.697
1404 1 2.848 17.826 -0.517
1405 1 30.894 43.518 10.391
1406 1 31.779 41.363 16.686
1407 1 33.145 43.669 13.416
1408 1 18.674 8.187 -8.525
1409 1 16.356 4.448 -13.279
1410 1 18.132 10.210 -11.014
1411 1 53.425 36.567 12.535
1412 1 45.653 30.341 16.301
1413 1 48.993 31.375 17.566
1414 1 7.456 42.583 6.928
1415 1 9.883 39.083 14.599
1416 1 11.392 40.452 9.276
1417 1 28.788 33.426 2.385
1418 1 28.490 31.192 -3.321
1419 1 28.782 30.777 -4.002
1420 1 31.164 15.720 36.051
1421 1 36.191 20.676 35.794
1422 1 26.808 18.963 32.992
1423 1 55.681 18.256 20.709
1424 1 57.605 19.068 19.649
1425 1 56.560 17.980 22.325
1426 1 15.172 26.184 10.248
1427 1 16.630 23.745 4.549
1428 1 16.502 24.206 10.657
1429 1 -11.280 -0.477 -21.429
1430 1 -16.771 0.588 -15.262
1431 1 -10.835 2.477 -9.723
1432 1 -15.206 -7.604 -20.794
1433 1 -13.008 -2.445 -24.388
1434 1 -16.633 -7.713 -24.230
1435 1 9.628 38.366 -1.666
1436 1 12.691 38.418 1.655
1437 1 8.735 35.651 2.490
1438 1 6.095 10.680 5.582
1439 1 6.678 14.333 7.362
1440 1 6.475 12.976 4.483
1441 1 10.376 16.885 5.826
1442 1 11.877 20.096 8.997
1443 1 8.282 12.984 2.860
1444 1 -4.310 21.418 -5.825
1445 1 -0.277 22.750 -6.591
1446 1 -4.393 21.414 -6.198
1447 1 29.576 26.540 25.103
1448 1 26.673 30.345 24.355
1449 1 29.972 25.722 26.006
1450 1 18.896 23.862 11.342
1451 1 19.559 23.567 10.057
1452 1 19.521 24.367 11.416
1453 1 30.988 31.822 -2.127
1454 1 28.547 28.142 4.359
1455 1 27.960 32.601 -1.148
1456 1 34.652 14.283 24.214
1457 1 36.732 14.005 24.800
1458 1 35.965 14.492 26.066
1459 1 55.766 24.418 37.342
1460 1 55.888 26.492 40.517
1461 1 52.571 29.229 35.832
1462 1 16.825 21.946 32.217
1463 1 17.272 22.621 25.489
1464 1 16.086 22.246 29.283
1465 1 40.605 43.053 21.968
1466 1 40.110 47.223 19.152
1467 1 42.344 45.283 20.976
1468 1 -20.998 42.715 21.026
1469 1 -21.206 41.171 23.136
1470 1 -16.971 43.766 17.533
1471 1 -0.359 9.197 -0.955
1472 1 -3.392 6.471 -5.951
1473 1 2.156 9.390 -6.555
1474 1 -16.068 24.301 8.282
1475 1 -20.437 24.075 10.158
1476 1 -22.727 22.100 11.347
1477 1 -7.451 19.632 -11.822
1478 1 -6.397 21.736 -10.530
1479 1 -4.486 22.584 -6.724
1480 1 1.292 19.039 -15.400
1481 1 -0.994 23.566 -19.023
1482 1 -2.702 26.044 -20.789
1483 1 7.493 33.743 14.252
1484 1 8.967 29.950 12.100
1485 1 7.394 33.035 15.294
1486 1 4.532 13.868 4.197
1487 1 6.174 12.114 0.926
1488 1 6.160 12.471 4.437
1489 1 14.291 20.318 1.950
1490 1 16.956 12.632 -1.591
1491 1 14.921 13.667 -1.209
1492 1 24.627 9.432 -5.969
1493 1 27.443 13.038 -7.301
1494 1 23.827 10.752 -5.984
1495 1 9.387 31.236 40.112
1496 1 11.994 35.907 40.657
1497 1 12.611 30.404 45.800
1498 1 19.835 12.265 -12.905
1499 1 17.903 8.798 -16.827
1500 1 17.739 11.558 -8.399
1501 1 32.098 41.137 -21.751
1502 1 30.517 38.705 -18.781
1503 1 34.513 40.522 -23.733
1504 1 44.245 40.579 8.207
1505 1 43.770 43.132 16.044
1506 1 45.685 42.606 15.437
1507 1 21.068 19.801 29.412
1508 1 17.415 22.727 32.113
1509 1 18.486 18.978 28.414
1510 1 -16.429 43.477 -7.226
1511 1 -19.449 42.596 -7.257
1512 1 -16.962 45.196 -6.309
1513 1 37.294 17.920 31.625
1514 1 38.719 21.489 30.953
1515 1 34.746 20.678 36.943
1516 1 5.126 34.357 11.473
1517 1 3.836 34.023 7.581
1518 1 6.012 32.923 10.290
1519 1 -0.193 19.073 13.184
1520 1 -3.247 22.447 8.405
1521 1 1.211 24.686 8.598
1522 1 35.715 40.494 16.355
1523 1 33.918 35.803 16.628
1524 1 35.421 38.301 12.351
1525 1 22.764 30.060 -16.673
1526 1 19.527 25.661 -17.241
1527 1 22.251 29.603 -18.914
1528 1 41.276 16.561 17.898
1529 1 46.127 18.549 17.293
1530 1 44.490 14.555 21.213
1531 1 29.416 27.114 14.169
1532 1 30.841 23.575 15.287
1533 1 28.363 18.103 10.232
1534 1 41.313 15.118 11.085
1535 1 41.307 14.711 12.520
1536 1 40.695 14.170 10.820
1537 1 45.215 40.168 24.784
1538 1 44.198 34.106 26.101
1539 1 43.414 37.080 20.451
1540 1 53.214 20.204 13.403
1541 1 49.137 20.093 4.778
1542 1 50.728 16.114 5.670
1543 1 42.000 30.797 4.760
1544 1 43.761 29.453 10.652
1545 1 40.480 31.934 6.458
1546 1 -4.668 -2.798 15.130
1547 1 -5.985 -1.636 17.387
1548 1 -4.079 -5.494 13.778
1549 1 15.831 30.044 -4.600
1550 1 15.918 34.705 -11.481
1551 1 17.344 34.500 -9.032
1552 1 16.687 15.168 11.858
1553 1 13.675 10.079 11.168
1554 1 14.453 13.087 14.589
1555 1 13.649 34.869 16.513
1556 1 14.129 31.647 19.419
1557 1 18.380 40.102 17.350
1558 1 -10.257 20.372 3.467
1559 1 -8.803 19.652 -1.066
1560 1 -11.323 20.238 1.091
1561 1 25.014 20.059 -5.864
1562 1 27.943 22.507 -9.397
1563 1 23.934 24.458 -5.586
1564 1 19.433 16.573 14.385
1565 1 21.617 23.807 17.333
1566 1 21.910 18.789 17.299
1567 1 21.069 -1.202 7.052
1568 1 24.640 -0.421 9.757
1569 1 16.703 -2.316 0.592
1570 1 42.905 44.760 27.067
1571 1 40.540 40.563 25.250
1572 1 40.722 40.930 32.784
1573 1 57.781 46.036 8.253
1574 1 54.820 45.713 7.322
1575 1 59.280 48.719 9.898
1576 1 19.476 7.024 -10.688
1577 1 21.978 9.196 -5.772
1578 1 23.833 2.891 0.908
1579 1 21.805 30.217 15.699
1580 1 19.250 29.172 15.302
1581 1 23.802 29.377 12.528
1582 1 31.796 16.781 -8.661
1583 1 33.919 16.582 -4.172
1584 1 31.532 14.444 -4.837
1585 1 24.403 24.676 4.600
1586 1 23.388 24.253 6.933
1587 1 21.421 28.885 6.326
1588 1 -0.811 22.088 6.547
1589 1 -1.148 25.149 4.052
1590 1 -4.614 20.574 1.505
1591 1 -5.719 42.509 0.341
1592 1 -4.305 45.413 -2.310
1593 1 -6.539 50.010 -0.452
1594 1 8.733 37.703 17.147
1595 1 13.725 42.321 16.820
1596 1 9.509 37.676 11.902
1597 1 12.607 7.422 5.767
1598 1 11.557 3.452 11.154
1599 1 13.367 6.430 10.227
1600 1 9.099 19.383 10.841
1601 1 10.327 24.013 14.996
1602 1 9.555 22.057 16.219
1603 1 17.618 50.803 22.049
1604 1 18.355 46.822 22.775
1605 1 15.954 50.778 20.903
1606 1 14.180 10.938 17.210
1607 1 14.876 10.106 19.597
1608 1 11.121 13.079 16.203
1609 1 32.026 38.315 17.743
1610 1 33.845 42.850 17.729
1611 1 31.794 38.842 18.727
1612 1 25.800 27.695 6.046
1613 1 25.899 24.920 7.970
1614 1 26.564 26.518 5.062
1615 1 23.111 23.202 -7.865
1616 1 22.133 28.727 -3.497
1617 1 23.245 26.551 -6.632
1618 1 43.202 18.624 11.713
1619 1 42.178 15.324 9.966
1620 1 47.310 11.407 7.697
1621 1 40.456 5.962 18.326
1622 1 39.313 4.270 14.946
1623 1 39.916 4.375 19.906
1624 1 1.589 11.223 -11.550
1625 1 -3.743 11.199 -12.853
1626 1 1.747 9.452 -13.739
1627 1 2.183 45.432 0.853
1628 1 2.589 42.576 -0.023
1629 1 0.891 43.133 6.717
1630 1 16.601 34.053 20.961
1631 1 10.483 35.105 19.075
1632 1 14.386 31.763 21.353
1633 1 4.857 35.533 42.065
1634 1 6.280 34.518 37.601
1635 1 3.896 33.271 34.755
1636 1 7.702 39.710 15.914
1637 1 10.215 42.035 13.899
1638 1 8.215 42.253 11.142
1639 1 35.958 31.346 15.785
1640 1 38.286 31.287 15.667
1641 1 39.781 34.656 15.494
1642 1 31.187 34.002 4.637
1643 1 29.120 39.472 -1.336
1644 1 29.651 36.470 2.840
1645 1 26.856 33.487 26.441
1646 1 30.173 34.422 21.594
1647 1 27.917 27.129 30.112
1648 1 16.027 54.487 -5.201
1649 1 13.327 53.809 -6.240
1650 1 15.582 53.501 -5.535
1651 1 8.977 55.883 4.373
1652 1 7.328 62.533 9.650
1653 1 6.457 63.107 8.490
1654 1 18.136 13.195 24.521
1655 1 17.237 9.434 29.073
1656 1 16.391 12.235 29.569
1657 1 29.924 2.353 -8.015
1658 1 28.813 3.340 -6.026
1659 1 35.071 0.044 -5.282
1660 1 63.689 14.026 13.204
1661 1 62.083 15.980 8.580
1662 1 62.437 20.521 15.289
1663 1 4.357 23.043 4.436
1664 1 1.104 20.826 6.763
1665 1 4.491 23.161 6.007
1666 1 4.468 33.411 19.582
1667 1 5.738 37.295 21.248
1668 1 1.292 36.362 19.004
1669 1 16.907 58.936 14.551
1670 1 20.020 55.767 11.793
1671 1 21.268 56.873 12.370
1672 1 8.070 38.496 -2.260
1673 1 7.556 35.786 -2.887
1674 1 5.351 41.443 2.443
1675 1 9.830 54.147 8.279
1676 1 9.658 51.989 14.194
1677 1 6.535 49.572 4.270
1678 1 19.905 11.645 3.141
1679 1 22.971 12.592 11.465
1680 1 23.931 13.495 5.289
1681 1 -1.098 40.683 17.462
1682 1 -0.270 37.817 20.679
1683 1 0.481 39.713 15.939
1684 1 22.554 44.073 33.285
1685 1 21.746 43.032 35.694
1686 1 23.415 46.864 34.578
1687 1 31.367 58.289 0.964
1688 1 34.285 59.460 -2.587
1689 1 35.423 53.930 3.252
1690 1 4.120 6.790 -7.357
1691 1 4.498 14.318 -7.292
1692 1 5.673 10.594 -4.125
1693 1 18.345 -8.263 23.926
1694 1 17.788 -3.027 25.371
1695 1 19.596 -3.231 20.284
1696 1 30.233 32.820 -1.458
1697 1 28.893 34.597 -2.494
1698 1 25.222 33.857 -3.311
1699 1 28.883 19.090 19.934
1700 1 29.823 25.421 17.461
1701 1 27.899 20.782 19.775
1702 1 6.942 12.039 24.976
1703 1 8.238 10.543 15.577
1704 1 8.854 12.991 16.248
1705 1 -17.672 18.302 9.480
1706 1 -17.606 18.851 7.399
1707 1 -17.383 18.592 14.543
1708 1 0.512 2.114 21.067
1709 1 1.487 1.893 23.678
1710 1 -1.169 -0.683 20.522
1711 1 25.996 16.472 1.736
1712 1 29.177 15.081 0.015
1713 1 27.680 19.728 1.689
1714 1 17.596 12.760 14.053
1715 1 17.600 12.966 18.457
1716 1 17.602 12.136 17.333
1717 1 16.443 28.606 18.836
1718 1 12.160 25.285 19.809
1719 1 11.647 24.178 26.552
1720 1 0.981 14.538 21.289
1721 1 1.570 15.928 28.394
1722 1 6.404 8.179 19.499
1723 1 35.337 3.510 23.970
1724 1 33.988 1.971 24.193
1725 1 37.362 2.317 21.482
1726 1 30.075 -7.494 1.326
1727 1 31.513 -14.155 -3.396
1728 1 34.841 -12.716 -0.621
1729 1 33.535 17.273 15.009
1730 1 31.595 19.508 10.681
1731 1 34.343 16.886 15.699
1732 1 36.122 2.285 15.264
1733 1 36.231 1.114 6.119
1734 1 39.186 3.468 10.035
1735 1 28.087 -14.452 10.599
1736 1 24.421 -11.677 9.690
1737 1 24.261 -12.658 14.444
1738 1 37.421 13.658 16.908
1739 1 41.075 14.224 14.884
1740 1 36.866 11.482 13.378
1741 1 16.549 11.176 2.353
1742 1 19.507 13.472 2.627
1743 1 17.484 12.293 1.734
1744 1 21.877 14.762 3.319
1745 1 19.953 6.419 6.825
1746 1 23.678 10.176 3.493
1747 1 10.859 3.734 9.449
1748 1 12.437 4.390 8.866
1749 1 12.273 6.068 4.780
1750 1 23.082 16.620 26.813
1751 1 22.420 9.014 25.471
1752 1 25.722 15.710 23.142
1753 1 -0.423 4.312 -14.790
1754 1 -3.412 5.560 -15.031
1755 1 -0.654 6.857 -11.490
1756 1 -6.300 -3.918 12.911
1757 1 -2.635 2.900 14.109
1758 1 -0.992 0.395 14.685
1759 1 20.549 2.700 5.225
1760 1 20.519 0.543 14.267
1761 1 17.322 -1.372 5.798
1762 1 34.048 8.554 12.392
1763 1 33.556 9.057 17.092
1764 1 33.054 7.155 16.422
1765 1 15.663 -2.442 35.020
1766 1 15.555 -8.091 35.017
1767 1 16.038 -1.408 35.709
1768 1 32.210 17.708 8.915
1769 1 34.208 16.425 11.639
1770 1 31.465 19.160 13.325
1771 1 20.193 -2.739 24.171
1772 1 20.507 -9.228 28.859
1773 1 16.159 -3.854 23.408
1774 1 41.351 21.666 2.471
1775 1 39.068 23.313 0.212
1776 1 38.706 24.445 -1.434
1777 1 36.144 2.937 4.021
1778 1 37.524 0.612 9.864
1779 1 38.114 9.630 5.629
1780 1 -3.781 8.441 2.517
1781 1 1.479 12.731 -0.585
1782 1 0.213 14.536 1.329
1783 1 -13.512 24.959 3.466
1784 1 -12.388 24.749 0.398
1785 1 -14.207 24.794 2.588
1786 1 12.119 20.428 10.961
1787 1 17.854 23.978 14.707
1788 1 18.781 21.824 13.264
1789 1 15.280 24.131 6.470
1790 1 8.223 19.425 6.614
1791 1 6.522 21.219 0.682
1792 1 30.008 4.340 7.487
1793 1 25.896 7.264 9.274
1794 1 27.475 1.210 8.464
1795 1 15.835 12.564 -0.800
1796 1 9.761 13.729 -1.410
1797 1 12.164 13.790 0.533
1798 1 18.285 -3.071 19.575
1799 1 15.618 -4.740 22.562
1800 1 17.514 -3.863 24.655
1801 1 31.703 27.693 23.210
1802 1 32.750 28.181 22.818
1803 1 29.715 28.594 20.284
1804 1 43.155 5.513 11.469
1805 1 43.390 1.332 13.023
1806 1 45.044 0.037 15.836
1807 1 29.791 -4.540 15.054
1808 1 30.348 -2.046 14.730
1809 1 31.453 -4.109 12.564
1810 1 50.612 13.688 7.576
1811 1 48.209 8.898 12.615
1812 1 47.914 12.703 13.400
1813 1 14.606 3.744 35.153
1814 1 15.248 3.763 28.369
1815 1 17.153 4.283 30.432
1816 1 27.332 6.131 18.594
1817 1 27.966 5.300 20.772
1818 1 30.373 5.923 15.196
1819 1 3.710 12.441 13.921
1820 1 6.924 14.525 15.895
1821 1 6.151 16.177 14.883
1822 1 -1.736 2.495 39.849
1823 1 -1.502 -1.312 40.931
1824 1 0.965 1.644 36.552
1825 1 -11.097 -10.451 1.175
1826 1 -8.886 -8.759 9.972
1827 1 -7.593 -8.902 7.254
1828 1 25.027 -2.623 6.453
1829 1 28.484 -7.135 12.045
1830 1 26.216 -4.599 9.167
1831 1 1.528 11.833 7.408
1832 1 1.180 11.328 10.085
1833 1 4.478 17.817 8.216
1834 1 37.629 14.420 17.647
1835 1 34.758 17.790 12.977
1836 1 37.208 16.229 13.743
1837 1 33.398 30.810 -2.376
1838 1 33.254 32.961 -5.512
1839 1 32.818 31.985 0.197
1840 1 20.365 10.385 30.066
1841 1 20.791 13.631 37.134
1842 1 22.005 8.198 33.698
1843 1 19.566 25.618 -0.023
1844 1 22.013 22.988 -7.253
1845 1 23.049 26.280 -3.213
1846 1 53.171 5.408 11.689
1847 1 51.737 4.691 8.588
1848 1 49.905 5.956 10.730
1849 1 18.701 6.582 25.170
1850 1 19.154 5.179 25.106
1851 1 15.818 10.425 24.914
1852 1 46.519 15.649 16.922
1853 1 49.149 11.964 14.695
1854 1 48.253 16.849 14.866
1855 1 16.460 -12.910 17.251
1856 1 15.083 -10.266 14.405
1857 1 17.813 -13.214 16.944
1858 1 2.417 52.531 9.875
1859 1 3.581 54.210 7.728
1860 1 3.677 59.721 12.148
1861 1 -16.569 26.696 42.113
1862 1 -13.853 28.063 41.711
1863 1 -10.750 26.063 42.122
1864 1 12.410 -9.037 6.895
1865 1 9.813 -2.379 4.751
1866 1 13.505 -4.919 5.816
1867 1 7.573 -6.882 0.804
1868 1 9.556 1.710 3.107
1869 1 12.050 -5.853 -3.948
1870 1 -2.082 57.212 17.190
1871 1 -1.916 55.639 13.337
1872 1 -1.292 54.309 16.552
1873 1 20.164 9.993 -12.803
1874 1 23.513 13.975 -10.745
1875 1 23.259 15.474 -8.408
1876 1 2.602 17.972 29.268
1877 1 2.114 13.623 27.498
1878 1 2.724 11.912 31.885
1879 1 9.867 25.669 26.112
1880 1 14.246 24.252 28.165
1881 1 14.316 22.688 27.502
1882 1 2.478 9.522 31.855
1883 1 4.700 8.633 35.649
1884 1 0.207 9.783 34.481
1885 1 1.346 21.552 24.914
1886 1 7.131 21.011 23.398
1887 1 5.686 25.524 19.479
1888 1 28.146 20.112 -4.576
1889 1 32.206 23.407 -4.770
1890 1 28.956 21.606 -3.875
1891 1 30.214 -3.870 14.644
1892 1 29.749 -2.530 16.219
1893 1 30.351 0.329 13.314
1894 1 54.779 21.546 -10.225
1895 1 49.474 22.000 -12.808
1896 1 49.419 19.369 -9.730
1897 1 -19.686 21.763 22.158
1898 1 -18.878 21.354 22.611
1899 1 -18.030 21.274 25.845
1900 1 -8.132 25.113 6.046
1901 1 -9.892 24.668 5.529
1902 1 -8.544 22.223 4.459
1903 1 2.393 5.666 6.399
1904 1 0.413 8.442 2.077
1905 1 0.235 8.010 4.783
1906 1 34.113 1.744 7.237
1907 1 33.494 4.767 14.195
1908 1 35.790 0.705 16.418
1909 1 17.194 -5.955 1.192
1910 1 18.651 -4.482 -3.038
1911 1 20.401 -7.155 -2.591
1912 1 22.507 35.847 1.731
1913 1 21.922 34.836 0.179
1914 1 26.226 37.594 7.349
1915 1 35.706 11.363 2.500
1916 1 34.135 14.821 10.990
1917 1 33.087 14.615 -0.142
1918 1 21.082 1.333 4.587
1919 1 15.528 1.423 1.586
1920 1 19.776 5.092 10.457
1921 1 21.738 30.518 15.447
1922 1 25.859 29.719 11.548
1923 1 24.883 30.715 10.210
1924 1 2.098 13.221 33.502
1925 1 4.520 11.476 31.780
1926 1 3.424 11.728 31.568
1927 1 4.134 9.598 -1.102
1928 1 3.766 15.527 3.643
1929 1 4.163 12.100 1.855
1930 1 9.940 5.502 -1.281
1931 1 4.867 8.140 0.918
1932 1 5.763 3.878 -0.677
1933 1 8.379 15.836 2.478
1934 1 7.029 13.068 -2.925
1935 1 7.066 13.296 -3.357
1936 1 22.746 19.999 -1.814
1937 1 19.959 18.560 -4.296
1938 1 21.287 23.270 0.669
1939 1 41.124 19.658 21.480
1940 1 39.848 14.919 23.124
1941 1 35.657 15.665 17.334
1942 1 47.491 22.098 -4.948
1943 1 46.498 19.654 -15.215
1944 1 47.588 18.967 -7.229
1945 1 31.894 22.694 20.741
1946 1 31.009 21.511 22.408
1947 1 29.535 22.736 20.833
1948 1 29.180 13.692 23.684
1949 1 27.537 16.039 23.065
1950 1 28.653 15.232 22.580
1951 1 17.597 41.701 11.794
1952 1 18.225 39.937 14.636
1953 1 16.854 44.417 11.806
1954 1 13.463 22.766 18.816
1955 1 12.222 19.231 16.574
1956 1 10.640 26.165 15.227
1957 1 10.164 21.801 19.263
1958 1 13.728 23.982 17.397
1959 1 13.065 23.926 25.294
1960 1 12.701 21.707 -12.011
1961 1 10.011 21.318 -10.066
1962 1 15.557 20.918 -15.778
1963 1 32.297 44.069 3.138
1964 1 29.855 46.972 4.190
1965 1 29.965 45.296 2.731
1966 1 23.568 -6.096 -0.749
1967 1 23.464 -4.413 5.394
1968 1 20.941 -3.094 3.683
1969 1 -22.909 -4.757 32.713
1970 1 -20.584 -3.668 33.655
1971 1 -20.704 -7.308 30.764
1972 1 28.187 14.644 1.811
1973 1 29.674 17.585 0.500
1974 1 26.595 19.977 0.503
1975 1 40.790 25.399 28.873
1976 1 37.429 23.484 33.217
1977 1 43.265 21.712 28.265
1978 1 5.151 -8.691 9.848
1979 1 4.691 -6.853 -0.873
1980 1 6.072 -10.632 4.060
1981 1 0.967 21.070 27.304
1982 1 0.686 21.402 23.214
1983 1 0.251 20.532 27.055
1984 1 5.707 34.707 15.750
1985 1 1.780 39.557 17.572
1986 1 3.581 41.138 12.742
1987 1 17.033 17.140 19.704
1988 1 16.560 14.275 22.863
1989 1 19.009 19.417 26.684
1990 1 26.341 28.720 7.858
1991 1 29.155 31.715 7.154
1992 1 27.120 25.272 8.469
1993 1 6.648 11.472 14.462
1994 1 6.986 11.936 15.652
1995 1 7.663 13.132 7.775
1996 1 20.644 22.356 13.913
1997 1 20.065 20.017 9.897
1998 1 20.617 20.999 14.600
1999 1 26.530 -1.632 14.279
2000 1 21.801 -0.611 14.003
2001 1 24.676 -5.442 11.043
2002 1 11.700 17.949 24.762
2003 1 10.054 17.910 25.333
2004 1 7.244 14.554 26.298
2005 1 31.382 19.278 26.225
2006 1 32.906 20.419 33.310
2007 1 32.820 20.447 31.340
2008 1 27.991 12.922 0.384
2009 1 25.987 14.136 0.531
2010 1 28.031 14.704 -0.980
2011 1 39.262 20.705 19.206
2012 1 35.328 21.498 13.342
2013 1 39.014 20.985 16.696
2014 1 7.963 14.602 2.174
2015 1 4.684 14.729 3.740
2016 1 6.594 12.215 2.736
2017 1 20.918 4.102 7.443
2018 1 19.207 3.592 1.063
2019 1 16.007 0.924 7.365
2020 1 -10.911 0.674 1.422
2021 1 -14.516 9.902 -6.854
2022 1 -16.659 3.230 -0.686
2023 1 25.977 16.870 41.455
2024 1 26.727 15.936 40.732
2025 1 25.282 16.698 44.634
2026 1 -6.778 32.850 27.145
2027 1 -3.925 29.961 24.915
2028 1 -5.719 33.538 24.409
2029 1 -1.250 33.951 18.703
2030 1 -1.915 28.572 19.839
2031 1 0.864 36.602 17.650
2032 1 14.025 31.234 14.701
2033 1 12.362 30.196 15.193
2034 1 16.695 29.949 13.178
2035 1 12.212 23.283 18.493
2036 1 14.569 28.003 13.220
2037 1 13.336 22.551 20.947
2038 1 -4.136 22.390 10.130
2039 1 -7.496 20.937 7.095
2040 1 -6.377 25.551 11.537
2041 1 34.897 21.763 -11.585
2042 1 31.754 21.470 -4.345
2043 1 31.456 24.094 -4.974
2044 1 32.995 21.710 35.203
2045 1 27.751 23.491 35.756
2046 1 29.191 23.337 32.946
2047 1 39.525 36.412 6.724
2048 1 39.612 35.859 9.801
2049 1 37.707 37.513 5.607
2050 1 36.902 18.135 12.443
2051 1 37.729 21.440 17.402
2052 1 34.493 21.101 15.612
2053 1 -1.759 23.509 30.934
2054 1 -0.854 27.408 34.083
2055 1 -2.365 23.546 33.807
2056 1 -12.898 29.101 11.413
2057 1 -8.902 26.079 8.701
2058 1 -11.449 27.635 12.200
2059 1 4.045 32.313 5.136
2060 1 1.722 35.765 5.918
2061 1 2.705 39.595 5.299
2062 1 -11.433 31.056 5.632
2063 1 -11.921 25.511 11.600
2064 1 -12.767 28.456 6.257
2065 1 24.755 45.283 5.005
2066 1 23.639 43.106 7.854
2067 1 20.480 42.058 6.962
2068 1 9.510 22.855 19.465
2069 1 6.330 22.618 17.725
2070 1 8.680 23.065 17.856
2071 1 8.502 23.450 37.606
2072 1 13.319 23.210 37.374
2073 1 10.922 24.233 37.124
2074 1 17.249 33.061 -1.302
2075 1 18.155 33.799 0.643
2076 1 15.471 24.400 -2.664
2077 1 29.527 54.099 23.887
2078 1 23.498 56.380 22.944
2079 1 25.671 54.042 20.483
2080 1 8.662 29.766 51.436
2081 1 10.596 35.173 57.632
2082 1 5.023 32.723 56.966
2083 1 47.766 41.451 -8.883
2084 1 43.415 42.128 -7.464
2085 1 44.371 37.467 -6.834
2086 1 25.950 21.844 7.679
2087 1 25.371 20.328 6.833
2088 1 24.320 18.780 6.526
2089 1 60.727 13.844 16.939
2090 1 67.756 15.576 28.263
2091 1 64.039 15.304 21.003
2092 1 17.196 53.973 16.964
2093 1 15.934 48.347 19.904
2094 1 16.682 45.615 19.769
2095 1 24.461 37.856 9.567
2096 1 25.304 37.586 10.132
2097 1 25.309 38.415 13.168
2098 1 1.699 28.146 20.662
2099 1 2.994 26.777 20.289
2100 1 0.728 28.626 18.148
2101 1 12.261 20.537 0.949
2102 1 9.672 18.860 12.021
2103 1 13.469 17.031 6.036
2104 1 23.235 36.305 19.556
2105 1 22.315 35.138 20.213
2106 1 25.073 37.464 17.719
2107 1 15.766 16.675 9.509
2108 1 13.937 11.177 7.781
2109 1 13.186 14.779 6.499
2110 1 -9.812 35.334 15.355
2111 1 -14.090 37.869 18.357
2112 1 -12.936 27.450 12.596
2113 1 20.340 23.938 9.079
2114 1 14.764 22.094 12.594
2115 1 16.748 27.697 14.819
2116 1 43.201 26.622 7.805
2117 1 42.142 26.284 8.921
2118 1 42.490 30.108 5.264
2119 1 -0.649 21.025 13.519
2120 1 3.755 25.021 17.730
2121 1 0.665 26.392 20.522
2122 1 36.510 49.602 4.074
2123 1 35.962 47.952 7.442
2124 1 36.460 50.670 2.533
2125 1 27.351 52.743 -13.347
2126 1 28.924 55.656 -10.414
2127 1 31.238 58.299 -8.656
2128 1 43.740 9.005 -0.125
2129 1 46.538 9.745 -2.511
2130 1 45.061 9.707 -4.232
2131 1 48.035 48.321 11.806
2132 1 46.148 50.125 18.656
2133 1 47.304 46.969 20.688
2134 1 5.414 3.580 -6.101
2135 1 3.906 2.096 -4.046
2136 1 1.794 3.552 -8.261
2137 1 -14.533 57.798 -2.825
2138 1 -12.103 51.065 -4.655
2139 1 -12.089 55.767 -6.009
2140 1 9.678 45.137 13.964
2141 1 9.648 42.624 12.014
2142 1 7.531 45.675 15.026
2143 1 10.921 54.264 37.086
2144 1 10.672 59.260 34.244
2145 1 15.531 54.628 34.112
2146 1 -0.114 30.029 -6.096
2147 1 2.853 26.547 -5.815
2148 1 2.108 28.732 -9.531
2149 1 14.317 27.093 9.575
2150 1 16.524 27.423 7.972
2151 1 16.546 28.147 8.087
2152 1 41.841 44.950 35.162
2153 1 38.743 46.695 33.585
2154 1 39.049 46.118 36.759
2155 1 17.864 51.488 6.670
2156 1 21.492 50.046 8.484
2157 1 18.800 45.591 7.451
2158 1 29.549 59.993 20.415
2159 1 32.254 58.904 18.018
2160 1 32.046 60.494 16.150
2161 1 16.361 57.324 -1.988
2162 1 18.343 59.770 -2.567
2163 1 16.573 53.813 -0.089
2164 1 32.223 30.016 23.220
2165 1 32.083 34.460 25.480
2166 1 31.644 29.957 28.035
2167 1 49.250 19.721 -6.277
2168 1 48.481 21.001 -8.272
2169 1 46.623 21.942 -10.684
2170 1 34.675 17.454 -0.258
2171 1 36.504 16.419 -5.416
2172 1 35.269 17.094 -3.828
2173 1 -5.501 2.580 0.615
2174 1 -6.495 1.817 -1.605
2175 1 -8.068 -0.542 0.380
2176 1 -14.657 -5.041 22.564
2177 1 -10.386 0.585 19.187
2178 1 -13.264 -5.544 28.729
2179 1 -0.733 16.157 10.511
2180 1 0.254 16.269 9.079
2181 1 -0.622 13.703 6.492
2182 1 32.627 9.001 17.049
2183 1 34.321 10.687 18.631
2184 1 33.583 9.334 16.946
2185 1 6.976 -3.749 9.157
2186 1 8.095 -9.099 12.029
2187 1 8.898 -11.638 11.176
2188 1 0.497 -16.501 -7.519
2189 1 -0.370 -15.322 -9.329
2190 1 -2.559 -12.919 -8.406
2191 1 20.117 -0.163 2.289
2192 1 18.760 -3.125 -0.256
2193 1 20.312 -4.242 -1.373
2194 1 43.192 -5.380 26.872
2195 1 43.486 -4.435 26.078
2196 1 42.842 -4.828 31.811
2197 1 29.632 -12.072 9.905
2198 1 26.774 -13.731 10.451
2199 1 30.588 -12.488 11.191
2200 1 34.093 6.838 12.276
2201 1 33.621 2.594 9.384
2202 1 32.224 1.833 13.814
2203 1 28.735 20.118 -0.522
2204 1 28.930 20.010 1.759
2205 1 33.595 22.088 -2.543
2206 1 78.202 10.841 16.407
2207 1 74.862 10.286 18.199
2208 1 76.343 6.917 14.422
2209 1 64.709 2.605 12.124
2210 1 61.851 2.587 14.713
2211 1 63.050 5.116 11.533
2212 1 3.866 27.718 12.267
2213 1 -1.775 34.038 13.826
2214 1 -1.306 33.400 13.612
2215 1 10.824 -5.920 5.011
2216 1 10.139 -10.664 3.751
2217 1 9.887 -12.552 6.041
2218 1 0.390 -1.608 19.659
2219 1 1.412 0.166 13.451
2220 1 2.049 -4.154 15.268
2221 1 44.182 -0.584 12.830
2222 1 44.017 2.992 4.694
2223 1 40.671 2.367 5.908
2224 1 11.450 17.374 40.620
2225 1 11.742 14.301 43.229
2226 1 11.665 14.404 43.896
2227 1 15.609 -12.872 36.434
2228 1 19.128 -17.984 28.156
2229 1 13.750 -12.598 30.276
2230 1 12.380 6.453 7.740
2231 1 15.825 8.986 8.644
2232 1 15.700 8.830 8.967
2233 1 8.549 -5.083 27.600
2234 1 9.027 -0.548 28.344
2235 1 5.129 -1.378 27.792
2236 1 40.305 2.784 25.954
2237 1 36.062 5.733 17.359
2238 1 36.489 4.722 19.418
2239 1 37.692 -13.660 2.067
2240 1 39.714 -11.068 -0.734
2241 1 39.480 -8.473 0.603
2242 1 34.542 10.255 4.216
2243 1 32.209 10.007 1.123
2244 1 33.411 10.246 -0.541
2245 1 38.459 12.635 23.212
2246 1 43.321 12.310 28.775
2247 1 40.083 11.629 26.695
2248 1 14.351 -13.348 3.335
2249 1 11.589 -9.994 4.688
2250 1 13.008 -12.293 4.112
2251 1 -30.590 3.638 25.940
2252 1 -30.376 7.485 30.537
2253 1 -30.631 5.618 32.877
2254 1 8.380 -5.053 21.444
2255 1 6.374 -7.041 20.015
2256 1 7.102 -9.437 25.264
2257 1 4.226 33.744 10.825
2258 1 5.142 33.640 15.661
2259 1 6.423 35.745 15.461
2260 1 35.821 39.578 19.178
2261 1 35.690 36.603 23.129
2262 1 36.598 38.723 16.578
2263 1 6.887 28.698 7.285
2264 1 7.516 27.865 9.890
2265 1 7.079 23.309 6.870
2266 1 6.754 7.023 10.640
2267 1 8.674 12.126 10.586
2268 1 7.924 7.892 8.015
2269 1 3.117 31.071 41.983
2270 1 4.495 30.431 39.548
2271 1 4.829 30.891 40.337
2272 1 19.742 18.241 19.876
2273 1 16.284 14.819 22.038
2274 1 16.601 16.839 16.536
2275 1 25.883 -10.251 18.818
2276 1 26.942 -7.024 23.069
2277 1 24.097 -10.829 25.018
2278 1 21.352 29.130 -7.080
2279 1 19.277 28.272 -6.700
2280 1 21.738 29.178 -1.298
2281 1 27.667 9.875 23.305
2282 1 25.146 11.847 22.781
2283 1 27.805 11.068 20.402
2284 1 32.295 24.869 7.235
2285 1 35.703 19.714 6.668
2286 1 32.389 23.985 3.561
2287 1 29.397 31.854 21.825
2288 1 28.202 34.368 23.821
2289 1 28.597 31.006 20.199
2290 1 0.496 44.573 -12.608
2291 1 2.920 46.148 -14.949
2292 1 2.998 41.527 -9.924
2293 1 18.826 7.669 15.473
2294 1 11.287 9.013 20.380
2295 1 18.196 9.346 22.511
2296 1 -8.330 -9.547 27.586
2297 1 -3.883 -8.212 31.212
2298 1 -3.842 -8.493 28.527
2299 1 -16.611 5.610 13.006
2300 1 -20.138 5.571 14.616
2301 1 -23.110 6.981 6.545
2302 1 33.335 18.788 -8.940
2303 1 30.768 10.116 -8.399
2304 1 32.713 16.569 -7.676
2305 1 8.407 15.416 36.627
2306 1 13.853 21.076 38.163
2307 1 10.078 19.560 34.768
2308 1 34.796 32.705 16.084
2309 1 35.748 32.689 20.178
2310 1 35.425 32.291 16.077
2311 1 19.002 10.040 8.484
2312 1 15.243 11.664 7.183
2313 1 21.356 3.730 7.404
2314 1 15.334 8.020 19.554
2315 1 17.437 6.818 23.310
2316 1 17.184 4.452 20.167
2317 1 19.114 9.112 -8.857
2318 1 15.132 9.713 -7.855
2319 1 15.507 6.600 -14.691
2320 1 6.275 -7.404 7.403
2321 1 6.307 -6.641 9.340
2322 1 7.462 -6.752 10.152
2323 1 23.390 15.170 16.433
2324 1 20.778 17.827 16.609
2325 1 25.968 15.507 17.244
2326 1 36.457 23.107 24.208
2327 1 39.874 25.513 27.208
2328 1 34.632 22.422 25.841
2329 1 5.250 23.674 2.822
2330 1 3.754 24.957 -0.149
2331 1 2.075 18.483 1.343
2332 1 6.389 20.827 28.601
2333 1 7.230 23.621 29.760
2334 1 4.401 24.268 38.072
2335 1 20.511 -15.996 14.961
2336 1 18.678 -18.112 19.741
2337 1 23.336 -16.003 17.459
2338 1 46.047 44.494 14.230
2339 1 46.673 46.773 13.860
2340 1 45.236 47.162 16.113
2341 1 1.281 26.542 6.083
2342 1 5.352 30.372 9.320
2343 1 4.489 26.293 0.095
2344 1 25.403 47.874 32.579
2345 1 23.915 47.958 27.949
2346 1 19.439 51.050 28.619
2347 1 12.872 34.755 -6.635
2348 1 8.395 34.679 -4.491
2349 1 14.044 39.769 -12.248
2350 1 27.600 13.585 -6.101
2351 1 24.778 15.505 -8.842
2352 1 21.738 17.675 -10.422
2353 1 7.419 55.396 20.783
2354 1 6.447 51.479 24.566
2355 1 10.021 54.608 23.040
2356 1 11.618 -6.434 29.977
2357 1 8.047 -4.677 28.602
2358 1 9.348 0.483 24.605
2359 1 -10.166 24.947 17.447
2360 1 -9.530 26.700 14.479
2361 1 -8.281 22.982 17.478
2362 1 3.453 25.931 -2.901
2363 1 3.403 29.373 -0.086
2364 1 1.965 27.526 -5.239
2365 1 9.111 -2.368 18.798
2366 1 12.832 -4.387 22.367
2367 1 13.366 -6.331 24.337
2368 1 47.717 19.627 22.838
2369 1 53.876 21.810 20.165
2370 1 52.731 18.818 17.907
2371 1 3.713 33.446 39.048
2372 1 -1.796 31.629 32.169
2373 1 0.761 32.920 33.124
2374 1 18.090 17.593 3.042
2375 1 18.324 19.388 -0.682
2376 1 18.795 14.345 -1.991
2377 1 11.647 32.862 51.831
2378 1 9.303 28.999 53.060
2379 1 11.900 31.155 47.850
2380 1 34.496 40.530 -9.457
2381 1 35.660 39.947 0.362
2382 1 34.699 42.383 -2.699
2383 1 34.442 21.392 15.035
2384 1 34.184 21.744 8.914
2385 1 33.492 25.886 8.464
2386 1 -16.339 16.543 45.323
2387 1 -15.865 15.792 47.633
2388 1 -15.577 17.661 50.245
2389 1 -15.422 5.289 23.374
2390 1 -13.987 3.705 21.296
2391 1 -13.837 3.347 17.905
2392 1 -19.213 24.754 11.073
2393 1 -22.040 22.736 13.070
2394 1 -21.143 23.224 12.502
2395 1 7.086 16.346 17.397
2396 1 6.177 12.304 15.778
2397 1 3.836 22.579 20.696
2398 1 28.404 19.112 26.103
2399 1 27.496 18.520 18.869
2400 1 27.860 21.432 25.668
2401 1 35.164 32.466 17.527
2402 1 33.189 28.110 15.341
2403 1 38.356 29.456 14.600
2404 1 10.502 28.407 10.547
2405 1 10.346 32.864 13.159
2406 1 7.281 31.528 12.626
2407 1 37.898 57.916 -10.247
2408 1 43.112 57.885 -12.265
2409 1 37.134 58.932 -6.093
2410 1 37.738 24.318 23.686
2411 1 34.322 27.788 20.095
2412 1 33.604 29.814 22.199
2413 1 34.453 28.839 19.999
2414 1 36.384 31.239 21.007
2415 1 35.077 33.200 23.769
2416 1 -5.544 30.245 13.748
2417 1 -2.866 26.252 11.290
2418 1 -2.211 26.682 19.193
2419 1 -0.635 14.351 13.328
2420 1 -0.256 22.788 11.913
2421 1 -1.640 23.757 11.947
2422 1 25.736 28.971 34.591
2423 1 23.056 28.374 35.267
2424 1 23.678 29.812 38.506
2425 1 22.588 58.503 13.200
2426 1 23.058 66.341 10.041
2427 1 21.395 62.150 12.278
2428 1 -2.923 4.903 13.559
2429 1 0.442 9.981 16.230
2430 1 0.654 10.482 17.643
2431 1 9.092 9.150 19.801
2432 1 9.691 9.664 25.192
2433 1 6.515 13.575 30.338
2434 1 10.785 42.840 21.784
2435 1 12.154 41.345 19.824
2436 1 10.418 42.406 15.405
2437 1 17.812 15.786 31.431
2438 1 18.794 18.980 33.289
2439 1 19.528 20.408 30.720
2440 1 25.062 35.995 18.445
2441 1 35.971 38.236 22.051
2442 1 29.232 29.133 21.188
2443 1 32.620 35.754 24.982
2444 1 34.413 33.019 22.555
2445 1 32.365 34.120 23.549
2446 1 24.052 27.930 11.926
2447 1 22.833 29.452 13.704
2448 1 23.584 31.771 15.511
2449 1 2.865 10.919 -10.084
2450 1 6.421 12.183 -8.583
2451 1 6.150 15.379 -3.941
2452 1 31.775 33.493 28.068
2453 1 33.457 33.278 27.345
2454 1 32.579 35.222 29.944
2455 1 45.916 33.245 31.587
2456 1 43.548 33.200 29.312
2457 1 47.441 34.358 29.978
2458 1 41.731 12.209 31.876
2459 1 40.552 8.814 28.905
2460 1 44.011 11.586 30.802
2461 1 53.108 17.818 37.671
2462 1 57.437 22.239 31.908
2463 1 56.181 22.199 38.504
2464 1 -12.109 31.815 28.501
2465 1 -12.973 35.810 19.984
2466 1 -14.830 31.965 27.424
2467 1 -15.930 28.738 25.188
2468 1 -14.475 26.976 25.693
2469 1 -11.035 27.331 31.070
2470 1 14.064 46.297 -3.522
2471 1 15.468 47.571 0.062
2472 1 14.111 48.698 -3.669
2473 1 33.517 28.464 27.966
2474 1 35.615 23.488 26.100
2475 1 36.413 26.624 25.247
2476 1 7.791 31.201 13.859
2477 1 6.747 30.651 15.197
2478 1 6.013 30.185 12.953
2479 1 4.910 25.873 5.956
2480 1 5.593 20.895 10.071
2481 1 7.144 22.358 11.992
2482 1 25.729 15.007 -2.247
2483 1 25.223 25.481 -4.956
2484 1 29.131 22.549 -6.076
2485 1 19.951 54.583 -12.063
2486 1 21.299 46.807 -9.307
2487 1 18.216 47.026 -7.859
2488 1 12.503 38.346 14.105
2489 1 15.310 36.129 13.032
2490 1 12.896 35.578 13.152
2491 1 16.572 28.596 -7.807
2492 1 17.650 32.443 -2.442
2493 1 13.956 27.715 -3.394
2494 1 31.321 44.370 8.547
2495 1 34.390 42.394 9.162
2496 1 36.412 45.663 11.736
2497 1 40.691 16.020 15.855
2498 1 36.127 19.598 14.863
2499 1 33.235 13.825 19.107
2500 1 8.586 25.884 23.782
2501 1 9.965 27.053 25.552
2502 1 8.857 31.007 26.911
2503 1 -9.740 31.884 13.514
2504 1 -4.038 30.408 7.254
2505 1 -6.172 29.031 7.805
2506 1 19.112 29.220 22.355
2507 1 21.246 32.530 20.228
2508 1 23.386 31.724 26.062
2509 1 -2.811 51.346 4.500
2510 1 -6.313 50.040 2.694
2511 1 -2.342 49.729 -2.119
2512 1 -7.154 45.003 18.096
2513 1 -3.829 43.813 13.896
2514 1 -6.351 45.189 15.067
2515 1 7.257 21.526 11.044
2516 1 6.722 21.386 19.313
2517 1 6.120 23.959 13.811
2518 1 9.506 13.779 16.413
2519 1 8.017 16.083 17.905
2520 1 7.301 14.585 18.195
2521 1 17.170 57.277 27.359
2522 1 16.698 57.323 31.835
2523 1 15.648 56.013 24.714
2524 1 34.512 44.442 19.800
2525 1 35.038 46.156 16.810
2526 1 34.505 46.853 15.438
2527 1 31.036 43.984 21.457
2528 1 30.105 40.900 20.949
2529 1 32.741 41.872 22.856
2530 1 40.907 33.451 17.589
2531 1 42.709 32.977 16.636
2532 1 38.531 30.813 17.610
2533 1 23.403 26.800 -2.290
2534 1 28.465 25.469 2.094
2535 1 27.865 25.281 3.202
2536 1 46.034 59.895 4.327
2537 1 45.206 61.608 4.296
2538 1 50.236 62.488 4.671
2539 1 39.811 47.026 15.009
2540 1 38.905 45.973 19.709
2541 1 41.353 47.965 13.063
2542 1 15.218 2.386 9.331
2543 1 11.393 3.403 0.184
2544 1 12.160 -1.549 5.916
2545 1 20.845 17.722 3.071
2546 1 16.247 17.998 -2.865
2547 1 19.101 23.391 -1.315
2548 1 -16.708 -1.280 30.660
2549 1 -15.856 0.216 41.821
2550 1 -14.054 -3.177 35.461
2551 1 25.329 -14.467 13.561
2552 1 22.290 -15.073 14.514
2553 1 22.976 -10.813 14.831
2554 1 21.161 -11.994 27.073
2555 1 23.641 -12.341 22.369
2556 1 23.548 -11.367 30.102
2557 1 6.536 -5.303 18.308
2558 1 5.414 -3.408 9.988
2559 1 8.441 -4.931 18.032
2560 1 40.701 9.278 15.682
2561 1 37.032 5.930 13.451
2562 1 40.091 11.157 17.661
2563 1 44.579 0.985 1.909
2564 1 44.217 2.440 8.707
2565 1 43.957 -0.413 4.004
2566 1 38.803 14.924 33.270
2567 1 36.406 12.130 31.729
2568 1 42.004 11.411 29.975
2569 1 39.198 8.061 26.904
2570 1 40.841 10.078 36.885
2571 1 41.488 7.110 24.218
2572 1 51.077 18.034 8.877
2573 1 50.460 14.219 4.677
2574 1 54.116 15.223 9.228
2575 1 36.433 28.032 19.255
2576 1 38.376 31.744 18.357
2577 1 35.951 32.598 20.904
2578 1 34.198 6.001 23.584
2579 1 36.440 6.080 18.511
2580 1 38.101 2.875 25.134
2581 1 25.081 21.362 40.291
2582 1 27.395 22.871 42.408
2583 1 25.116 21.547 40.496
2584 1 19.822 -11.147 13.343
2585 1 20.432 -10.367 8.217
2586 1 21.213 -10.736 8.140
2587 1 5.105 8.018 36.945
2588 1 -0.341 7.273 37.151
2589 1 -1.268 5.643 32.062
2590 1 8.587 18.079 8.663
2591 1 7.847 19.059 3.173
2592 1 9.490 20.224 6.034
2593 1 -13.512 7.504 -4.832
2594 1 -12.420 8.532 -0.262
2595 1 -14.530 7.311 0.613
2596 1 25.976 1.698 30.031
2597 1 26.036 -1.706 30.578
2598 1 25.678 -1.007 29.539
2599 1 36.972 8.601 18.445
2600 1 32.228 9.139 11.182
2601 1 30.624 9.737 20.750
2602 1 11.435 7.959 -9.404
2603 1 16.211 8.940 -8.399
2604 1 11.029 10.468 -5.570
2605 1 21.313 2.897 22.743
2606 1 20.508 1.295 21.025
2607 1 21.784 4.516 20.878
2608 1 11.163 10.711 24.792
2609 1 10.163 7.736 28.557
2610 1 9.119 6.806 27.694
2611 1 24.160 3.180 4.886
2612 1 24.973 4.928 8.766
2613 1 22.295 1.981 12.826
2614 1 27.191 8.638 5.131
2615 1 26.476 6.828 5.297
2616 1 27.047 9.008 6.917
2617 1 32.593 5.493 13.365
2618 1 31.099 3.063 14.700
2619 1 29.488 6.439 11.827
2620 1 -9.250 7.153 29.211
2621 1 -5.467 6.858 27.557
2622 1 -7.612 9.189 29.840
2623 1 -11.517 17.778 26.914
2624 1 -7.971 17.223 25.100
2625 1 -14.843 17.095 25.176
2626 1 7.272 -2.891 10.734
2627 1 9.673 -7.372 8.497
2628 1 5.652 -4.061 9.327
2629 1 26.933 20.217 21.874
2630 1 30.637 16.508 17.401
2631 1 32.365 21.226 25.715
2632 1 46.354 7.555 21.647
2633 1 44.514 6.339 19.113
2634 1 42.017 9.047 22.613
2635 1 22.246 6.026 2.009
2636 1 23.438 10.270 0.785
2637 1 21.700 5.575 2.521
2638 1 10.701 4.186 39.685
2639 1 14.375 3.435 39.126
2640 1 9.238 4.008 41.531
2641 1 11.057 14.589 10.321
2642 1 10.746 12.655 10.780
2643 1 13.788 8.400 16.111
2644 1 48.053 14.540 16.412
2645 1 43.555 19.523 19.771
2646 1 47.435 9.685 17.872
2647 1 13.697 17.204 21.092
2648 1 13.953 24.347 23.348
2649 1 12.605 22.866 18.955
2650 1 11.876 6.742 26.299
2651 1 1.950 12.826 27.287
2652 1 5.938 7.337 26.755
2653 1 26.306 27.962 25.771
2654 1 26.956 29.556 28.605
2655 1 28.324 25.143 29.206
2656 1 45.059 0.655 17.046
2657 1 47.325 3.065 17.220
2658 1 44.105 4.269 16.115
2659 1 -11.136 -6.653 11.819
2660 1 -17.656 -12.066 11.002
2661 1 -12.509 -8.197 12.081
2662 1 15.319 19.292 16.818
2663 1 16.552 19.653 14.473
2664 1 14.471 19.651 8.271
2665 1 8.652 -2.660 14.692
2666 1 9.119 -2.255 16.219
2667 1 6.740 -7.987 8.110
2668 1 30.239 25.720 13.903
2669 1 31.711 27.733 14.789
2670 1 32.891 26.160 13.138
2671 1 10.084 2.615 9.704
2672 1 8.875 1.817 13.434
2673 1 6.628 3.583 7.763
2674 1 34.411 5.752 -6.701
2675 1 31.849 6.705 -6.307
2676 1 31.711 3.253 -10.108
2677 1 30.729 11.784 14.531
2678 1 30.231 13.584 17.253
2679 1 30.879 11.044 16.914
2680 1 51.946 33.295 18.055
2681 1 46.429 28.276 20.092
2682 1 46.372 29.182 25.346
2683 1 33.927 10.513 21.692
2684 1 31.803 11.941 19.500
2685 1 34.817 13.587 20.454
2686 1 7.610 -17.053 29.794
2687 1 5.220 -14.079 31.375
2688 1 7.449 -18.746 29.132
2689 1 40.142 -2.341 5.251
2690 1 42.124 -0.789 0.259
2691 1 42.799 -8.004 5.320
2692 1 52.707 8.792 11.772
2693 1 52.760 7.357 11.324
2694 1 49.598 8.686 13.620
2695 1 -9.395 17.339 22.987
2696 1 -5.915 19.328 17.642
2697 1 -9.266 18.842 20.770
2698 1 55.002 21.120 33.895
2699 1 53.688 21.689 32.461
2700 1 48.048 23.769 35.544
2701 1 13.291 36.973 32.104
2702 1 12.095 34.045 37.295
2703 1 13.418 32.405 32.281
2704 1 12.100 12.808 30.539
2705 1 17.194 11.350 31.922
2706 1 16.187 15.915 33.393
2707 1 -6.958 26.466 25.368
2708 1 -7.130 34.486 27.294
2709 1 -5.836 28.045 30.197
2710 1 34.997 1.726 44.799
2711 1 39.149 1.469 42.012
2712 1 37.230 1.642 48.166
2713 1 -18.419 0.483 9.261
2714 1 -12.468 -0.224 7.326
2715 1 -15.437 1.282 10.658
2716 1 4.200 14.809 33.390
2717 1 1.803 15.117 35.324
2718 1 0.411 14.811 32.382
2719 1 24.378 25.401 20.479
2720 1 23.988 23.508 17.057
2721 1 24.608 21.395 18.689
2722 1 -8.317 36.919 -10.659
2723 1 -8.907 38.253 -10.746
2724 1 -7.946 35.771 -10.797
2725 1 2.556 32.586 23.778
2726 1 7.743 43.654 23.283
2727 1 4.450 41.251 26.105
2728 1 -1.908 24.838 36.988
2729 1 1.123 28.270 34.287
2730 1 4.034 25.717 34.736
2731 1 25.274 54.172 6.171
2732 1 26.049 54.073 6.159
2733 1 23.970 51.858 2.417
2734 1 6.938 25.984 2.713
2735 1 10.280 30.034 3.863
2736 1 8.499 30.806 0.461
2737 1 20.099 21.954 14.978
2738 1 18.316 25.311 14.686
2739 1 20.904 29.502 12.091
2740 1 -12.181 15.878 17.932
2741 1 -11.458 17.674 15.730
2742 1 -15.060 18.176 15.700
2743 1 24.211 17.974 23.044
2744 1 24.703 17.540 25.345
2745 1 24.834 17.513 23.271
2746 1 43.146 33.990 18.521
2747 1 45.248 40.529 26.753
2748 1 43.121 34.970 22.251
2749 1 0.375 31.075 7.457
2750 1 -2.122 30.839 1.836
2751 1 -0.355 30.382 8.100
2752 1 1.404 42.331 18.724
2753 1 2.046 41.683 19.501
2754 1 -1.389 41.068 13.966
2755 1 37.372 33.759 30.795
2756 1 31.143 32.196 32.533
2757 1 32.770 35.423 29.893
2758 1 8.083 18.669 21.769
2759 1 11.245 19.769 14.372
2760 1 6.655 12.832 18.008
2761 1 12.552 18.722 33.665
2762 1 10.912 16.854 34.549
2763 1 14.864 15.017 28.831
2764 1 17.173 44.288 13.822
2765 1 16.342 38.547 16.708
2766 1 15.470 40.483 22.078
2767 1 16.290 41.875 -8.118
2768 1 11.850 42.741 -6.149
2769 1 17.542 39.022 -6.727
2770 1 29.798 15.106 12.129
2771 1 31.847 15.180 9.878
2772 1 36.430 14.897 9.405
2773 1 18.111 17.226 15.542
2774 1 13.515 16.067 13.150
2775 1 16.862 20.519 17.652
2776 1 7.036 21.925 13.461
2777 1 4.529 24.969 15.609
2778 1 4.549 25.731 17.101
2779 1 26.387 26.723 18.963
2780 1 23.952 27.252 22.357
2781 1 23.593 23.699 17.425
2782 1 0.929 40.801 31.961
2783 1 0.153 38.194 36.385
2784 1 3.240 39.552 31.330
2785 1 57.467 -6.889 41.284
2786 1 60.466 -0.331 42.889
2787 1 61.276 -2.822 35.504
2788 1 6.032 30.948 6.110
2789 1 8.806 30.808 7.691
2790 1 11.800 30.175 12.423
2791 1 -13.121 36.118 18.955
2792 1 -13.424 34.108 16.254
2793 1 -14.034 35.399 16.561
2794 1 5.319 24.243 28.655
2795 1 7.715 17.638 24.902
2796 1 6.447 20.049 25.038
2797 1 18.400 21.393 17.053
2798 1 20.821 26.669 15.640
2799 1 24.697 26.337 13.994
2800 1 8.139 41.007 -2.739
2801 1 11.262 42.214 1.807
2802 1 7.636 41.776 -1.093
2803 1 10.787 39.569 19.918
2804 1 6.196 35.452 18.613
2805 1 9.869 36.395 18.132
2806 1 32.174 30.443 22.503
2807 1 29.413 31.142 24.528
2808 1 31.357 32.304 25.952
2809 1 46.746 31.251 -4.399
2810 1 47.511 27.217 -3.495
2811 1 47.510 23.921 -7.329
2812 1 21.279 21.454 23.241
2813 1 24.353 19.724 26.263
2814 1 23.066 19.763 23.818
2815 1 29.314 40.800 30.303
2816 1 34.388 42.044 29.819
2817 1 27.742 41.500 30.805
2818 1 19.273 24.069 30.109
2819 1 22.008 23.145 25.827
2820 1 21.073 25.066 26.353
2821 1 37.352 32.686 43.692
2822 1 36.991 37.518 42.061
2823 1 38.724 34.694 39.739
2824 1 36.967 31.362 -0.441
2825 1 35.736 29.344 4.275
2826 1 35.168 26.796 2.360
2827 1 26.681 37.828 11.233
2828 1 24.680 33.319 6.332
2829 1 26.230 34.680 6.667
2830 1 28.732 32.071 39.414
2831 1 27.875 34.477 36.824
2832 1 29.383 34.289 35.322
2833 1 20.579 34.559 14.021
2834 1 19.616 33.012 12.712
2835 1 18.052 36.674 12.132
2836 1 11.598 21.075 40.400
2837 1 13.572 17.136 42.477
2838 1 13.545 18.034 41.257
2839 1 23.220 24.601 23.164
2840 1 22.115 31.004 23.908
2841 1 22.375 33.125 26.828
2842 1 -9.274 41.323 12.002
2843 1 -3.159 34.910 7.421
2844 1 -7.183 37.764 1.268
2845 1 34.089 38.047 -0.173
2846 1 33.601 36.850 -0.354
2847 1 31.147 41.506 3.686
2848 1 27.366 39.837 -3.990
2849 1 23.760 37.641 -1.814
2850 1 24.168 34.362 -3.795
2851 1 26.450 30.049 20.014
2852 1 25.483 30.128 21.984
2853 1 26.945 30.047 13.424
2854 1 33.169 16.412 2.089
2855 1 29.435 22.485 4.530
2856 1 31.448 19.967 5.190
2857 1 11.168 47.763 17.012
2858 1 17.106 45.660 16.712
2859 1 16.386 47.814 8.268
2860 1 35.271 20.692 15.237
2861 1 34.159 18.187 11.617
2862 1 34.011 16.357 17.218
2863 1 50.827 29.946 29.132
2864 1 47.680 31.708 31.252
2865 1 48.569 28.713 33.692
2866 1 10.648 -13.086 -3.019
2867 1 9.321 -15.274 -3.830
2868 1 9.316 -20.278 -4.219
2869 1 11.756 39.309 13.923
2870 1 16.106 37.558 13.967
2871 1 13.342 35.654 9.880
2872 1 26.226 1.296 -9.010
2873 1 29.811 3.221 -10.196
2874 1 26.458 5.996 -4.082
2875 1 18.238 10.320 27.234
2876 1 15.898 10.553 31.921
2877 1 19.925 12.644 28.493
2878 1 10.910 18.824 5.675
2879 1 15.166 22.020 1.040
2880 1 14.730 15.152 1.939
2881 1 54.394 19.675 -7.986
2882 1 49.602 13.422 -5.269
2883 1 50.650 17.597 -10.782
2884 1 5.625 -22.097 0.830
2885 1 5.557 -18.994 5.508
2886 1 4.957 -22.189 3.606
2887 1 27.269 -1.515 23.372
2888 1 32.224 -4.435 23.077
2889 1 27.674 -5.597 22.724
2890 1 38.854 -22.158 -4.149
2891 1 41.333 -19.784 -3.587
2892 1 37.373 -18.573 -0.499
2893 1 35.801 10.915 17.353
2894 1 35.874 7.137 16.588
2895 1 39.753 4.607 16.652
2896 1 50.638 6.966 -2.667
2897 1 46.992 4.181 -4.596
2898 1 44.726 1.090 -2.993
2899 1 42.538 -7.775 25.028
2900 1 40.827 -5.648 28.376
2901 1 39.843 -6.972 21.013
2902 1 33.777 -5.415 23.079
2903 1 35.001 -5.367 18.574
2904 1 31.730 -7.599 22.126
2905 1 3.258 -4.740 45.286
2906 1 1.696 -3.227 46.697
2907 1 3.897 -4.089 44.605
2908 1 8.580 4.061 35.183
2909 1 9.375 0.433 36.255
2910 1 8.623 5.107 38.447
2911 1 34.661 7.465 15.622
2912 1 34.213 11.800 17.217
2913 1 29.876 12.392 13.588
2914 1 10.576 -5.508 8.180
2915 1 11.394 -3.125 7.571
2916 1 13.951 -5.389 10.342
2917 1 3.799 19.937 14.597
2918 1 4.758 20.165 1.024
2919 1 8.285 20.501 4.000
2920 1 29.376 7.583 -2.270
2921 1 28.260 10.095 0.179
2922 1 33.809 7.636 -1.438
2923 1 22.490 -5.771 8.387
2924 1 22.649 -0.157 14.836
2925 1 23.489 -4.131 11.401
2926 1 30.141 14.525 17.255
2927 1 31.407 14.824 23.596
2928 1 28.377 11.243 17.365
2929 1 11.289 6.357 41.794
2930 1 8.926 5.970 40.723
2931 1 3.297 6.817 42.670
2932 1 32.162 -1.652 16.467
2933 1 24.578 1.408 15.960
2934 1 27.475 -0.221 19.152
2935 1 26.947 14.186 17.595
2936 1 29.470 14.570 18.924
2937 1 33.426 18.415 19.059
2938 1 28.958 12.377 6.930
2939 1 30.852 11.769 9.101
2940 1 29.612 12.068 9.453
2941 1 37.232 -13.775 17.513
2942 1 38.510 -13.386 15.104
2943 1 34.986 -17.498 12.978
2944 1 22.482 -2.282 -5.997
2945 1 23.452 -0.875 -11.016
2946 1 19.478 -1.821 -12.178
2947 1 4.322 24.072 11.295
2948 1 3.512 26.852 7.574
2949 1 5.732 28.398 2.188
2950 1 24.334 33.051 11.776
2951 1 26.633 33.204 12.216
2952 1 24.839 35.111 13.868
2953 1 -5.270 17.494 15.376
2954 1 -2.565 11.964 15.555
2955 1 -2.719 16.157 12.578
2956 1 22.052 0.978 17.021
2957 1 22.452 4.937 14.680
2958 1 20.557 -1.912 19.704
2959 1 34.036 22.819 17.649
2960 1 39.828 25.047 18.306
2961 1 37.708 25.949 22.677
2962 1 44.955 28.319 9.975
2963 1 45.753 30.321 9.929
2964 1 43.755 34.309 14.714
2965 1 19.716 33.569 40.102
2966 1 17.490 34.143 31.425
2967 1 18.107 33.170 32.078
2968 1 -0.075 2.901 35.634
2969 1 -1.085 4.082 33.455
2970 1 0.646 2.029 37.386
2971 1 26.364 13.640 17.086
2972 1 22.536 11.859 19.092
2973 1 24.002 16.228 19.450
2974 1 21.350 15.030 23.867
2975 1 21.712 18.037 21.983
2976 1 23.309 16.572 27.519
2977 1 39.409 1.290 -8.996
2978 1 36.171 0.730 -8.509
2979 1 36.684 2.273 -2.229
2980 1 39.509 14.008 5.421
2981 1 40.642 16.915 5.185
2982 1 38.647 17.605 5.864
2983 1 20.771 -5.057 16.865
2984 1 18.848 -1.719 11.829
2985 1 20.135 -2.628 17.639
2986 1 3.673 1.432 25.751
2987 1 0.677 2.494 20.947
2988 1 5.416 7.643 22.539
2989 1 30.724 25.037 31.583
2990 1 26.573 28.976 26.750
2991 1 31.476 30.527 34.386
2992 1 17.944 9.205 4.534
2993 1 19.409 11.223 10.171
2994 1 18.055 10.563 12.545
2995 1 20.039 21.120 -0.976
2996 1 19.491 21.488 -1.587
2997 1 20.154 22.184 3.870
2998 1 36.861 21.595 32.773
2999 1 38.139 21.161 26.217
3000 1 40.544 22.858 29.366
3001 1 13.579 25.909 40.475
3002 1 15.435 20.369 33.759
3003 1 17.327 24.297 37.614
3004 1 -3.227 13.517 28.929
3005 1 -5.591 14.572 30.584
3006 1 -2.300 16.550 31.459
3007 1 37.875 5.949 28.864
3008 1 30.517 4.078 24.614
3009 1 35.942 5.966 23.236
3010 1 4.131 6.143 3.637
3011 1 1.309 5.534 2.069
3012 1 -0.052 5.598 6.019
3013 1 22.850 4.770 34.761
3014 1 21.361 0.642 38.444
3015 1 22.664 7.792 34.553
3016 1 -4.928 30.769 0.985
3017 1 0.947 31.659 3.891
3018 1 -3.267 29.861 2.815
3019 1 45.104 14.782 22.116
3020 1 42.919 14.725 23.295
3021 1 43.715 9.133 22.279
3022 1 -11.366 26.542 24.453
3023 1 -12.975 26.456 21.120
3024 1 -15.863 30.769 25.320
3025 1 15.516 38.366 26.433
3026 1 14.610 39.461 29.596
3027 1 12.804 37.737 25.876
3028 1 -8.856 14.837 24.177
3029 1 -11.163 17.198 30.523
3030 1 -10.572 14.521 23.642
3031 1 33.277 25.166 30.308
3032 1 35.967 31.245 31.010
3033 1 37.688 28.115 24.024
3034 1 -6.851 20.744 4.920
3035 1 -4.193 15.413 2.912
3036 1 -5.004 17.620 3.840
3037 1 -8.958 8.424 47.404
3038 1 -7.055 8.358 47.005
3039 1 -10.266 6.144 43.738
3040 1 39.337 51.815 28.627
3041 1 37.267 49.386 29.185
3042 1 33.831 51.103 31.531
3043 1 14.381 19.937 44.335
3044 1 14.182 23.463 39.447
3045 1 15.012 22.632 42.028
3046 1 40.792 36.799 5.628
3047 1 39.528 36.385 7.663
3048 1 37.950 36.110 0.731
3049 1 23.173 3.987 16.509
3050 1 24.747 2.470 19.996
3051 1 20.103 2.136 21.742
3052 1 -17.241 38.699 19.602
3053 1 -15.391 42.682 14.751
3054 1 -22.266 43.419 16.336
3055 1 -0.099 23.187 27.150
3056 1 -0.623 20.394 33.575
3057 1 1.525 22.933 28.071
3058 1 19.777 29.021 30.180
3059 1 21.198 29.918 25.696
3060 1 25.167 30.603 32.202
3061 1 19.857 48.899 24.914
3062 1 16.194 41.937 25.881
3063 1 20.881 49.056 27.408
3064 1 20.692 27.628 12.518
3065 1 28.032 27.537 14.272
3066 1 25.800 24.140 15.035
3067 1 25.456 19.850 37.123
3068 1 25.340 18.985 43.800
3069 1 25.665 13.365 36.709
3070 1 19.421 38.172 -9.473
3071 1 23.723 39.841 -4.461
3072 1 19.587 37.515 2.935
3073 1 -0.941 31.768 4.582
3074 1 -1.771 32.127 4.861
3075 1 -0.768 32.269 0.960
3076 1 50.504 26.566 30.806
3077 1 47.596 29.693 31.767
3078 1 49.793 26.392 32.680
3079 1 24.135 39.541 46.246
3080 1 17.665 39.409 42.367
3081 1 22.572 41.322 46.230
3082 1 26.656 40.101 9.513
3083 1 28.697 38.891 16.006
3084 1 26.317 37.253 15.771
3085 1 43.314 11.292 19.359
3086 1 45.020 11.207 19.486
3087 1 46.089 9.658 19.494
3088 1 10.222 42.417 29.437
3089 1 9.391 48.647 32.346
3090 1 12.163 41.852 30.779
3091 1 -12.316 30.072 3.605
3092 1 -11.301 31.065 3.298
3093 1 -13.540 31.963 10.183
3094 1 16.359 41.645 33.888
3095 1 16.433 42.670 32.907
3096 1 13.732 43.101 34.563
3097 1 4.922 16.976 39.866
3098 1 8.289 18.184 40.006
3099 1 5.594 19.993 32.344
3100 1 21.937 37.767 -0.876
3101 1 18.817 36.402 -2.597
3102 1 20.194 37.952 0.273
3103 1 20.363 29.972 29.825
3104 1 12.879 24.824 30.222
3105 1 14.741 31.501 24.494
3106 1 33.917 3.204 18.063
3107 1 31.980 -3.279 16.868
3108 1 32.451 -0.156 13.101
3109 1 27.076 31.936 -2.607
3110 1 25.869 28.480 -7.506
3111 1 28.143 27.772 -3.155
3112 1 26.788 31.359 20.954
3113 1 24.542 31.578 20.800
3114 1 26.030 30.380 21.674
3115 1 9.090 23.959 39.282
3116 1 8.712 28.850 36.276
3117 1 11.735 28.752 43.555
3118 1 23.215 20.669 20.544
3119 1 26.309 15.654 24.958
3120 1 25.531 15.091 22.426
3121 1 40.803 36.036 19.971
3122 1 40.773 40.836 20.110
3123 1 41.566 41.530 21.733
3124 1 33.325 58.184 1.240
3125 1 33.636 56.950 2.547
3126 1 31.625 59.359 0.523
3127 1 50.393 42.761 26.541
3128 1 48.574 41.591 24.195
3129 1 49.600 39.142 23.973
3130 1 -2.108 22.418 -8.842
3131 1 -0.279 24.384 -3.567
3132 1 -0.145 23.395 -11.814
3133 1 15.949 61.312 52.477
3134 1 15.985 64.283 57.060
3135 1 17.968 61.050 53.697
3136 1 18.633 34.068 29.606
3137 1 19.437 34.007 32.084
3138 1 20.706 35.797 28.844
3139 1 7.093 19.446 41.472
3140 1 5.570 13.851 31.809
3141 1 9.739 16.806 38.227
3142 1 30.508 42.272 9.537
3143 1 30.882 45.612 13.136
3144 1 28.928 43.508 9.040
3145 1 38.621 34.950 2.590
3146 1 35.980 33.997 2.000
3147 1 37.100 33.372 7.873
3148 1 34.874 46.546 36.956
3149 1 30.301 41.435 37.827
3150 1 33.780 38.867 35.026
3151 1 25.395 52.679 -7.669
3152 1 22.134 53.233 -6.581
3153 1 23.060 51.813 -3.997
3154 1 3.557 16.594 10.016
3155 1 -2.555 13.009 10.346
3156 1 -2.764 16.872 11.069
3157 1 30.920 15.814 35.132
3158 1 32.678 24.224 30.618
3159 1 34.518 19.960 30.124
3160 1 24.821 42.181 10.633
3161 1 25.588 43.931 9.655
3162 1 22.546 50.067 17.574
3163 1 22.533 44.571 16.747
3164 1 21.807 42.599 15.988
3165 1 24.475 43.592 16.123
3166 1 13.745 43.840 18.672
3167 1 13.679 40.559 15.099
3168 1 13.728 46.330 20.705
3169 1 17.487 9.226 12.990
3170 1 16.496 6.120 7.216
3171 1 20.023 5.714 10.718
3172 1 -15.395 -4.689 21.573
3173 1 -15.562 -4.622 23.790
3174 1 -17.235 -3.185 26.816
3175 1 11.804 19.592 40.220
3176 1 16.000 18.440 39.178
3177 1 13.486 16.315 38.732
3178 1 18.883 9.575 28.422
3179 1 17.297 3.769 28.199
3180 1 15.609 4.621 22.820
3181 1 24.850 -13.953 18.222
3182 1 20.111 -9.555 20.530
3183 1 24.913 -11.541 19.388
3184 1 20.628 18.755 27.561
3185 1 19.372 17.210 20.780
3186 1 19.686 16.233 25.800
3187 1 11.187 2.586 7.093
3188 1 13.754 3.561 7.752
3189 1 13.799 4.020 10.579
3190 1 2.344 0.343 18.901
3191 1 0.142 -0.947 14.664
3192 1 0.527 -3.819 8.717
3193 1 9.385 8.221 24.809
3194 1 8.518 14.025 24.244
3195 1 7.206 14.174 25.161
3196 1 50.907 17.098 36.007
3197 1 54.380 17.324 34.516
3198 1 53.851 12.210 40.579
3199 1 50.181 19.359 42.127
3200 1 55.375 15.517 33.307
3201 1 49.824 21.220 36.716
3202 1 15.436 -6.446 41.460
3203 1 13.541 -1.727 45.632
3204 1 13.849 -6.612 43.488
3205 1 23.781 17.470 34.832
3206 1 20.675 14.453 36.465
3207 1 21.926 18.415 40.009
3208 1 1.804 -11.204 10.157
3209 1 5.144 -11.942 16.109
3210 1 2.146 -10.831 11.517
3211 1 7.781 19.667 -3.311
3212 1 1.819 18.125 7.698
3213 1 11.443 16.704 4.732
3214 1 14.436 8.575 30.332
3215 1 16.924 5.697 33.838
3216 1 13.386 8.439 31.355
3217 1 -1.980 11.523 30.703
3218 1 -4.560 8.594 33.474
3219 1 -6.155 9.223 28.264
3220 1 12.177 30.312 26.087
3221 1 11.849 26.142 28.724
3222 1 9.610 26.421 26.520
3223 1 3.192 5.750 -4.418
3224 1 2.928 6.815 -2.441
3225 1 2.345 10.478 -9.587
3226 1 35.114 24.688 -6.958
3227 1 32.941 24.029 -7.472
3228 1 38.428 26.808 -7.860
3229 1 23.280 3.905 16.120
3230 1 23.182 6.065 17.701
3231 1 26.697 6.152 22.439
3232 1 32.571 -4.560 15.343
3233 1 31.110 -1.899 21.795
3234 1 32.727 -1.456 22.994
3235 1 17.533 -12.092 25.413
3236 1 16.989 -14.771 24.385
3237 1 18.755 -14.837 26.375
3238 1 31.123 8.922 6.062
3239 1 32.247 6.172 14.155
3240 1 29.228 3.353 14.875
3241 1 39.157 21.146 -4.377
3242 1 42.512 24.000 -7.539
3243 1 39.719 20.186 -5.225
3244 1 33.425 -2.938 32.590
3245 1 38.065 -6.898 32.778
3246 1 35.140 -1.667 32.859
3247 1 7.227 5.093 3.040
3248 1 10.336 8.362 8.050
3249 1 7.584 3.400 2.275
3250 1 10.494 -1.929 1.467
3251 1 11.510 -0.900 -1.597
3252 1 13.035 -1.332 6.064
3253 1 21.028 6.966 28.722
3254 1 21.854 2.153 30.396
3255 1 22.976 7.949 28.403
3256 1 23.896 3.628 23.152
3257 1 27.447 6.177 15.788
3258 1 28.845 6.434 17.013
3259 1 27.556 0.523 26.691
3260 1 29.345 1.410 27.699
3261 1 30.955 4.338 24.952
3262 1 17.481 18.248 21.872
3263 1 17.032 14.746 21.434
3264 1 19.000 16.214 20.592
3265 1 40.007 14.041 24.155
3266 1 40.080 15.494 26.559
3267 1 37.239 10.238 22.876
3268 1 24.951 -5.957 25.581
3269 1 22.931 0.487 18.485
3270 1 25.460 -4.685 19.162
3271 1 26.009 17.401 23.253
3272 1 26.285 19.369 22.135
3273 1 27.198 18.664 26.526
3274 1 37.951 -18.928 24.963
3275 1 36.062 -16.500 28.812
3276 1 35.629 -13.816 32.824
3277 1 36.809 -4.061 36.012
3278 1 31.307 -4.553 33.163
3279 1 32.419 -4.134 35.944
3280 1 36.067 3.845 23.134
3281 1 39.020 2.464 21.251
3282 1 36.750 4.492 22.721
3283 1 37.196 18.539 23.077
3284 1 37.398 16.128 17.658
3285 1 35.691 15.816 19.587
3286 1 8.013 17.156 23.241
3287 1 4.938 14.495 26.390
3288 1 10.539 18.334 27.453
3289 1 -9.014 12.491 2.937
3290 1 -7.193 11.091 1.849
3291 1 -7.741 15.855 3.032
3292 1 13.553 5.613 24.830
3293 1 14.404 7.705 27.452
3294 1 16.554 4.008 19.920
3295 1 12.112 14.997 31.599
3296 1 15.644 16.729 32.064
3297 1 13.071 16.103 31.971
3298 1 26.015 -9.156 30.250
3299 1 26.332 -7.330 20.544
3300 1 26.854 -6.051 19.379
3301 1 3.225 27.002 -1.401
3302 1 6.127 26.983 0.891
3303 1 4.517 27.222 6.734
3304 1 2.302 16.269 31.748
3305 1 0.807 16.141 33.987
3306 1 0.807 14.041 28.322
3307 1 40.046 20.664 3.792
3308 1 33.348 15.768 8.537
3309 1 32.656 17.460 6.883
3310 1 31.021 29.070 21.507
3311 1 33.220 27.067 14.318
3312 1 32.980 31.945 15.344
3313 1 0.460 5.533 17.721
3314 1 2.069 8.951 21.194
3315 1 2.169 5.108 20.223
3316 1 32.718 28.667 23.135
3317 1 37.419 31.838 20.348
3318 1 35.738 26.410 19.823
3319 1 24.106 23.822 23.659
3320 1 21.162 15.389 16.646
3321 1 24.263 25.020 23.578
3322 1 47.685 23.082 13.154
3323 1 50.333 21.750 13.421
3324 1 42.968 21.910 17.648
3325 1 6.574 33.033 6.058
3326 1 6.727 28.367 10.219
3327 1 7.422 32.687 4.199
3328 1 41.576 21.931 22.283
3329 1 45.161 23.856 24.792
3330 1 42.215 20.931 17.433
3331 1 -0.843 28.597 14.429
3332 1 0.270 28.557 11.669
3333 1 0.288 29.016 13.995
3334 1 36.027 19.878 22.046
3335 1 36.614 20.428 23.187
3336 1 29.120 17.132 23.074
3337 1 7.130 28.679 -1.537
3338 1 6.814 27.844 1.887
3339 1 7.632 32.358 0.161
3340 1 8.371 15.485 7.924
3341 1 6.363 14.442 8.203
3342 1 5.440 9.412 11.245
3343 1 27.870 13.271 42.639
3344 1 25.168 20.052 45.393
3345 1 26.866 17.994 47.721
3346 1 11.201 22.598 1.720
3347 1 14.894 24.460 4.900
3348 1 11.831 25.683 3.867
3349 1 20.226 23.142 28.862
3350 1 20.278 15.984 25.924
3351 1 22.386 18.579 26.023
3352 1 26.359 43.413 28.053
3353 1 25.719 46.129 34.366
3354 1 28.249 47.686 32.544
3355 1 12.042 26.907 40.189
3356 1 11.580 29.425 41.958
3357 1 13.331 30.545 42.552
3358 1 -15.625 21.208 3.323
3359 1 -13.995 21.849 5.308
3360 1 -16.188 19.822 5.803
3361 1 15.596 21.949 19.412
3362 1 11.396 18.609 16.398
3363 1 11.747 19.566 21.631
3364 1 20.078 29.566 27.641
3365 1 18.410 27.775 24.120
3366 1 21.426 27.765 27.334
3367 1 26.556 21.577 24.974
3368 1 26.484 19.632 30.274
3369 1 24.562 15.160 30.625
3370 1 20.992 36.045 13.676
3371 1 18.896 34.308 16.116
3372 1 18.805 33.683 16.799
3373 1 4.399 37.211 14.743
3374 1 8.000 35.994 12.553
3375 1 4.190 34.097 13.380
3376 1 5.810 38.625 38.703
3377 1 5.941 39.132 35.013
3378 1 6.358 41.320 31.429
3379 1 -6.787 23.809 9.842
3380 1 -8.684 28.378 13.943
3381 1 -8.348 29.585 9.957
3382 1 3.045 42.411 4.940
3383 1 2.539 40.027 6.401
3384 1 3.749 41.380 5.064
3385 1 21.322 26.721 21.169
3386 1 17.114 28.490 24.945
3387 1 17.568 28.189 21.903
3388 1 34.807 41.216 25.566
3389 1 33.949 41.556 24.414
3390 1 37.283 38.806 27.884
3391 1 14.545 33.967 9.525
3392 1 16.364 31.493 11.535
3393 1 15.605 33.101 11.596
3394 1 7.225 37.749 10.325
3395 1 4.272 41.331 16.266
3396 1 3.759 40.209 11.826
3397 1 8.990 53.336 39.346
3398 1 10.532 44.234 41.602
3399 1 9.913 47.719 41.775
3400 1 30.439 44.573 21.722
3401 1 36.104 46.873 21.144
3402 1 33.924 48.073 20.349
3403 1 24.316 54.507 32.473
3404 1 24.854 53.702 35.822
3405 1 26.278 53.617 31.518
3406 1 47.630 29.392 34.276
3407 1 44.375 28.292 38.545
3408 1 42.386 25.238 42.777
3409 1 46.810 41.683 30.077
3410 1 51.060 40.460 23.747
3411 1 48.284 42.622 30.399
3412 1 -7.384 29.851 17.436
3413 1 -11.055 35.197 17.545
3414 1 -8.591 36.833 22.002
3415 1 39.369 -3.165 24.269
3416 1 39.486 -5.328 23.896
3417 1 39.615 -5.544 26.469
3418 1 9.243 30.466 32.155
3419 1 8.084 32.782 32.640
3420 1 9.347 33.524 35.965
3421 1 18.815 37.310 23.257
3422 1 21.565 42.964 28.573
3423 1 19.096 38.663 24.533
3424 1 0.298 30.987 5.419
3425 1 -5.861 32.678 0.099
3426 1 -0.706 26.824 5.257
3427 1 -7.681 49.784 7.428
3428 1 -9.506 47.271 13.128
3429 1 -12.019 44.540 14.446
3430 1 41.273 43.813 41.486
3431 1 42.414 46.686 42.942
3432 1 38.723 49.022 40.963
3433 1 48.254 29.752 34.462
3434 1 51.874 30.110 36.102
3435 1 50.087 26.944 29.867
3436 1 19.834 21.942 28.511
3437 1 19.141 24.802 30.459
3438 1 17.042 26.608 32.924
3439 1 30.326 50.654 20.299
3440 1 34.873 55.499 23.766
3441 1 31.177 49.310 26.459
3442 1 23.186 3.736 21.006
3443 1 24.697 7.631 19.649
3444 1 27.077 8.950 23.146
3445 1 30.277 19.412 11.858
3446 1 27.958 19.110 14.782
3447 1 32.401 17.734 10.029
3448 1 54.612 23.287 36.138
3449 1 54.948 26.845 31.721
3450 1 55.927 20.429 31.841
3451 1 3.151 15.891 35.002
3452 1 2.578 13.812 38.901
3453 1 1.142 13.867 36.162
3454 1 19.827 36.351 22.704
3455 1 19.896 36.885 18.477
3456 1 18.393 41.892 19.662
3457 1 -10.080 23.039 14.005
3458 1 -9.283 18.276 13.070
3459 1 -7.603 24.878 17.691
3460 1 8.789 28.674 -0.729
3461 1 9.671 28.874 0.317
3462 1 10.633 29.935 -4.690
3463 1 -5.791 -3.356 43.660
3464 1 -5.653 -0.341 45.334
3465 1 -7.555 -0.319 44.176
3466 1 39.707 33.482 -0.477
3467 1 38.632 31.068 -1.292
3468 1 38.442 31.598 -5.544
3469 1 26.974 53.489 35.589
3470 1 26.678 50.230 35.004
3471 1 21.498 53.659 31.937
3472 1 13.621 14.012 31.146
3473 1 10.548 12.473 36.191
3474 1 10.787 14.961 30.573
3475 1 15.736 36.489 23.518
3476 1 14.749 41.713 18.888
3477 1 14.596 40.063 24.970
3478 1 10.443 50.269 16.752
3479 1 12.513 45.451 12.246
3480 1 13.148 49.506 13.173
3481 1 47.594 51.185 17.602
3482 1 47.209 47.187 11.521
3483 1 45.916 44.833 9.206
3484 1 23.094 58.605 12.476
3485 1 19.121 60.742 5.780
3486 1 18.236 60.482 13.758
3487 1 44.192 47.495 3.756
3488 1 49.356 48.226 10.216
3489 1 46.285 51.173 9.449
3490 1 30.718 7.129 37.699
3491 1 29.176 9.716 34.875
3492 1 27.769 6.795 34.530
3493 1 24.427 -8.119 30.362
3494 1 28.283 -8.401 30.740
3495 1 24.118 -9.599 27.336
3496 1 2.095 9.295 5.328
3497 1 5.891 13.408 8.591
3498 1 2.734 11.858 3.730
3499 1 10.995 -8.665 23.241
3500 1 16.651 -3.345 23.265
3501 1 11.498 -3.791 23.123
3502 1 15.078 -2.375 27.201
3503 1 15.587 0.771 26.547
3504 1 13.361 -2.681 26.362
3505 1 25.511 -2.454 13.015
3506 1 25.662 -2.200 13.045
3507 1 19.893 0.179 16.188
3508 1 18.181 20.704 17.625
3509 1 13.941 17.904 20.881
3510 1 17.200 18.759 19.288
3511 1 25.894 0.797 -0.350
3512 1 25.261 1.287 -0.283
3513 1 21.051 2.233 -0.526
3514 1 33.185 19.135 34.380
3515 1 33.301 23.064 37.687
3516 1 41.103 17.633 36.674
3517 1 37.439 -4.988 21.874
3518 1 40.061 -7.287 12.484
3519 1 34.577 -3.863 10.106
3520 1 38.743 18.910 27.307
3521 1 37.545 17.746 25.878
3522 1 36.154 10.962 29.304
3523 1 26.815 -17.697 43.182
3524 1 30.819 -18.356 39.456
3525 1 31.481 -15.763 42.634
3526 1 56.349 9.641 12.962
3527 1 56.765 9.708 11.566
3528 1 64.190 7.653 8.649
3529 1 29.213 9.817 19.192
3530 1 32.668 9.811 16.380
3531 1 26.800 11.009 18.183
3532 1 -7.325 -16.460 44.387
3533 1 -4.185 -13.690 44.003
3534 1 -10.902 -13.818 39.673
3535 1 1.891 14.384 38.246
3536 1 -0.978 9.311 30.399
3537 1 2.126 7.801 35.273
3538 1 10.597 8.135 8.689
3539 1 13.308 5.906 3.364
3540 1 12.463 7.033 4.803
3541 1 31.323 18.607 34.371
3542 1 31.924 11.268 30.807
3543 1 35.237 17.068 25.209
3544 1 -4.616 7.611 41.185
3545 1 -6.150 11.233 39.018
3546 1 -5.333 11.141 43.945
3547 1 33.922 8.172 35.482
3548 1 33.288 6.009 36.379
3549 1 34.266 9.500 39.392
3550 1 26.287 -3.555 33.025
3551 1 25.815 -3.684 34.682
3552 1 26.232 -1.984 36.012
3553 1 32.747 1.133 36.125
3554 1 30.380 3.686 35.715
3555 1 33.409 8.323 36.473
3556 1 16.673 17.490 -8.678
3557 1 20.927 19.612 -9.288
3558 1 18.822 15.034 -9.161
3559 1 26.186 7.676 19.951
3560 1 31.079 6.407 24.936
3561 1 23.209 10.348 19.199
3562 1 17.300 -11.007 25.189
3563 1 17.269 -13.492 22.283
3564 1 19.344 -11.532 25.985
3565 1 45.179 -9.061 23.757
3566 1 42.719 -12.485 22.895
3567 1 44.258 -10.517 22.562
3568 1 -6.997 9.613 32.604
3569 1 -6.947 6.933 29.463
3570 1 -9.064 10.780 35.302
3571 1 24.020 12.476 29.337
3572 1 24.042 13.069 39.173
3573 1 22.327 10.216 32.281
3574 1 17.283 7.133 12.543
3575 1 14.013 4.288 15.242
3576 1 17.912 6.633 11.169
3577 1 6.862 -3.536 37.145
3578 1 6.357 -2.886 33.584
3579 1 9.614 -6.097 34.377
3580 1 22.386 18.343 22.056
3581 1 20.488 23.456 20.643
3582 1 20.431 18.394 19.845
3583 1 37.250 10.465 25.154
3584 1 35.516 20.775 24.285
3585 1 36.956 21.477 21.760
3586 1 17.709 25.349 0.150
3587 1 15.855 26.401 0.293
3588 1 16.351 20.546 -4.887
3589 1 25.542 17.898 7.946
3590 1 23.521 17.207 7.354
3591 1 20.223 15.735 10.530
3592 1 25.806 7.616 8.273
3593 1 25.526 10.940 11.442
3594 1 27.435 10.516 4.346
3595 1 26.529 6.828 32.241
3596 1 24.055 12.134 32.373
3597 1 25.766 6.259 34.190
3598 1 36.570 18.866 32.186
3599 1 39.320 15.924 27.448
3600 1 41.158 17.539 24.534
3601 1 20.474 16.090 34.886
3602 1 22.923 13.618 37.201
3603 1 21.675 13.118 35.110
3604 1 67.682 -5.827 50.338
3605 1 62.855 -6.776 53.169
3606 1 66.302 -6.825 45.733
3607 1 -18.928 7.176 9.480
3608 1 -18.221 7.104 16.042
3609 1 -20.367 6.802 16.482
3610 1 18.871 26.683 6.920
3611 1 20.362 29.475 5.295
3612 1 21.742 24.420 7.203
3613 1 5.908 13.000 37.320
3614 1 5.151 8.215 42.583
3615 1 1.184 12.063 34.515
3616 1 19.140 7.017 4.357
3617 1 17.058 3.857 12.591
3618 1 15.221 -0.110 8.842
3619 1 19.967 8.835 26.336
3620 1 22.743 10.141 16.654
3621 1 21.976 5.191 26.349
3622 1 9.770 15.400 14.305
3623 1 7.823 15.176 11.705
3624 1 7.473 8.786 12.499
3625 1 28.612 10.604 8.909
3626 1 28.891 12.524 9.052
3627 1 25.298 12.798 12.416
3628 1 22.420 30.883 16.366
3629 1 23.596 32.850 9.737
3630 1 23.870 37.683 10.344
3631 1 6.476 19.751 34.969
3632 1 5.611 22.118 38.755
3633 1 7.150 21.513 33.732
3634 1 37.600 24.121 17.631
3635 1 34.424 22.373 19.794
3636 1 37.834 25.385 18.955
3637 1 15.314 24.366 -1.526
3638 1 11.887 25.712 -0.029
3639 1 13.921 19.615 -2.595
3640 1 56.267 0.400 43.489
3641 1 54.438 5.234 45.814
3642 1 54.476 1.682 40.685
3643 1 20.548 21.630 40.163
3644 1 17.183 19.139 39.064
3645 1 25.470 23.545 38.023
3646 1 10.838 20.883 27.379
3647 1 11.424 21.420 30.673
3648 1 9.499 20.475 28.904
3649 1 41.615 34.577 12.210
3650 1 41.672 38.190 11.817
3651 1 38.816 37.412 15.420
3652 1 35.386 14.239 32.713
3653 1 36.967 12.030 35.773
3654 1 39.795 11.025 34.494
3655 1 -1.323 3.018 39.355
3656 1 -2.614 6.662 33.792
3657 1 -0.197 3.775 32.492
3658 1 10.249 22.257 31.203
3659 1 12.362 24.268 22.205
3660 1 11.619 20.646 28.963
3661 1 32.004 9.720 33.358
3662 1 29.554 3.564 25.451
3663 1 29.677 8.128 22.378
3664 1 -21.445 10.084 16.763
3665 1 -17.909 13.966 21.073
3666 1 -17.528 12.892 18.298
3667 1 54.673 32.908 14.490
3668 1 52.763 30.510 11.570
3669 1 53.787 32.442 15.033
3670 1 9.632 36.438 10.227
3671 1 7.509 25.609 9.472
3672 1 8.795 31.464 8.238
3673 1 30.360 -1.244 34.107
3674 1 26.664 -2.917 35.901
3675 1 31.620 1.819 34.437
3676 1 7.979 7.958 26.791
3677 1 7.963 13.489 27.896
3678 1 6.186 9.349 27.765
3679 1 -15.490 47.485 34.882
3680 1 -15.112 43.693 33.222
3681 1 -10.338 43.956 33.488
3682 1 41.272 -9.300 30.597
3683 1 34.388 -19.898 23.698
3684 1 35.796 -13.355 29.166
3685 1 21.795 24.206 7.784
3686 1 19.614 18.068 5.302
3687 1 21.073 16.634 8.220
3688 1 3.823 9.112 10.953
3689 1 1.657 12.213 14.639
3690 1 2.559 7.001 7.643
3691 1 -9.588 44.359 5.170
3692 1 -9.201 41.136 2.630
3693 1 -6.586 47.328 6.304
3694 1 0.179 23.925 3.350
3695 1 1.058 23.080 -1.102
3696 1 0.719 23.149 3.908
3697 1 14.739 -3.934 23.487
3698 1 14.695 -7.398 21.108
3699 1 16.050 -5.621 26.006
3700 1 21.925 35.395 29.754
3701 1 25.028 32.580 29.380
3702 1 23.998 34.152 24.667
3703 1 17.722 31.441 19.669
3704 1 16.649 31.312 21.789
3705 1 15.712 29.248 18.691
3706 1 29.696 9.980 14.184
3707 1 26.957 12.477 12.889
3708 1 30.053 10.330 11.389
3709 1 23.036 18.733 -12.085
3710 1 23.740 16.803 -14.520
3711 1 23.016 17.871 -13.676
3712 1 57.664 27.244 32.398
3713 1 55.460 25.807 26.898
3714 1 53.542 25.738 32.766
3715 1 15.660 25.315 19.010
3716 1 13.728 25.790 23.272
3717 1 11.887 26.932 22.738
3718 1 24.560 18.020 33.895
3719 1 23.514 18.110 29.232
3720 1 24.683 19.315 27.934
3721 1 37.881 28.326 31.126
3722 1 36.212 21.481 29.608
3723 1 36.696 23.824 31.565
3724 1 4.180 32.815 17.935
3725 1 7.679 34.284 17.729
3726 1 9.277 29.203 12.771
3727 1 13.289 42.278 20.322
3728 1 17.674 35.860 16.644
3729 1 11.964 46.152 20.741
3730 1 -15.198 38.929 28.687
3731 1 -8.511 39.060 26.232
3732 1 -12.961 32.746 30.392
3733 1 -4.230 6.268 28.781
3734 1 -7.361 6.934 24.363
3735 1 -8.762 8.060 26.791
3736 1 -3.155 37.924 44.206
3737 1 -7.826 32.965 43.677
3738 1 -2.564 33.405 45.745
3739 1 21.144 37.931 23.180
3740 1 24.728 36.050 21.852
3741 1 24.144 39.952 24.184
3742 1 -7.228 10.041 11.706
3743 1 -3.777 7.893 10.607
3744 1 -4.315 14.613 9.035
3745 1 19.339 51.147 28.752
3746 1 17.084 51.476 29.790
3747 1 17.108 50.079 25.020
3748 1 20.965 41.751 20.546
3749 1 22.169 42.651 20.887
3750 1 17.943 40.512 14.962
3751 1 33.195 33.232 6.317
3752 1 36.667 30.747 -1.503
3753 1 37.268 28.822 4.085
3754 1 17.201 34.690 -6.560
3755 1 17.850 30.135 -7.615
3756 1 15.641 30.360 -5.387
3757 1 12.256 20.192 52.428
3758 1 13.425 15.066 47.970
3759 1 17.381 12.906 48.407
3760 1 17.502 7.512 28.570
3761 1 16.206 12.656 21.566
3762 1 20.205 9.732 27.622
3763 1 17.949 46.235 67.537
3764 1 15.153 42.771 65.386
3765 1 18.757 42.850 69.637
3766 1 -3.425 26.048 30.872
3767 1 2.424 35.194 29.061
3768 1 -3.973 26.303 34.042
3769 1 2.573 43.654 -0.749
3770 1 3.868 44.615 -5.273
3771 1 2.516 42.327 -8.876
3772 1 1.797 42.252 33.602
3773 1 4.497 39.749 36.538
3774 1 2.694 44.999 35.662
3775 1 26.563 39.734 29.326
3776 1 26.397 42.125 25.826
3777 1 27.984 42.496 26.099
3778 1 24.563 70.674 33.787
3779 1 20.317 67.916 35.202
3780 1 18.394 66.716 33.692
3781 1 30.869 56.792 42.516
3782 1 27.126 53.829 37.977
3783 1 27.658 55.433 38.400
3784 1 1.422 23.951 10.035
3785 1 2.163 19.166 17.518
3786 1 -0.903 17.819 11.952
3787 1 17.917 19.048 25.985
3788 1 19.275 21.050 22.825
3789 1 19.507 21.878 21.165
3790 1 18.762 24.568 35.368
3791 1 23.605 24.323 33.533
3792 1 21.277 24.174 42.046
3793 1 14.430 29.739 18.065
3794 1 12.603 29.678 13.962
3795 1 13.704 32.821 15.848
3796 1 37.727 17.326 22.774
3797 1 38.509 16.208 13.888
3798 1 36.279 14.254 16.056
3799 1 37.291 35.505 41.090
3800 1 35.983 34.371 40.254
3801 1 37.559 33.351 39.618
3802 1 -4.100 23.375 19.353
3803 1 -1.283 21.326 18.278
3804 1 -4.710 20.382 17.563
3805 1 12.568 38.751 24.364
3806 1 12.568 35.127 23.936
3807 1 11.630 34.349 24.156
3808 1 13.559 8.810 19.675
3809 1 10.882 5.176 25.074
3810 1 13.315 6.053 19.114
3811 1 -4.481 11.826 15.235
3812 1 -7.556 12.200 9.861
3813 1 -8.651 12.287 3.906
3814 1 26.442 39.311 12.732
3815 1 24.748 33.984 17.193
3816 1 22.241 38.136 18.228
3817 1 18.115 13.064 24.548
3818 1 18.211 16.687 23.551
3819 1 15.399 11.612 20.983
3820 1 25.046 13.083 29.274
3821 1 25.249 13.395 28.941
3822 1 26.747 12.446 29.399
3823 1 6.475 11.927 21.249
3824 1 9.241 9.644 25.741
3825 1 4.738 11.178 23.969
3826 1 38.146 46.846 10.775
3827 1 39.225 48.076 18.646
3828 1 35.338 45.614 17.967
3829 1 37.347 10.808 22.312
3830 1 34.637 8.281 23.830
3831 1 35.562 10.885 25.105
3832 1 29.415 34.790 34.836
3833 1 27.110 30.791 34.233
3834 1 29.970 32.697 38.886
3835 1 36.860 36.780 27.162
3836 1 35.869 39.178 27.003
3837 1 35.285 41.192 33.150
3838 1 49.475 21.006 21.413
3839 1 45.998 25.229 14.820
3840 1 47.576 21.845 18.625
3841 1 15.662 19.161 53.806
3842 1 15.728 13.119 48.606
3843 1 14.865 17.764 51.517
3844 1 24.745 -5.836 46.234
3845 1 21.757 -5.666 44.862
3846 1 20.796 -9.392 47.583
3847 1 20.331 13.314 32.305
3848 1 20.862 11.632 36.597
3849 1 14.959 14.108 38.914
3850 1 1.219 11.848 30.103
3851 1 -5.901 13.104 31.479
3852 1 -3.566 15.191 31.915
3853 1 4.255 10.441 16.174
3854 1 4.414 7.996 17.342
3855 1 6.209 7.537 18.828
3856 1 21.348 -2.434 22.984
3857 1 23.503 -4.651 18.862
3858 1 19.494 -8.950 26.011
3859 1 16.517 25.698 43.915
3860 1 17.759 21.072 35.791
3861 1 17.825 18.830 37.736
3862 1 22.432 29.209 50.052
3863 1 25.867 27.137 54.026
3864 1 22.293 24.279 51.377
3865 1 40.799 1.413 31.359
3866 1 43.081 8.983 33.488
3867 1 41.359 4.649 33.471
3868 1 14.602 -1.889 23.317
3869 1 15.157 -2.476 22.917
3870 1 17.865 1.805 28.005
3871 1 35.163 -1.089 34.838
3872 1 36.752 1.779 41.753
3873 1 28.416 2.181 40.316
3874 1 25.700 9.397 41.547
3875 1 25.522 11.470 40.496
3876 1 23.893 12.891 43.611
3877 1 48.765 7.009 39.283
3878 1 48.538 10.171 44.353
3879 1 47.284 8.272 42.143
3880 1 0.247 2.860 33.511
3881 1 0.894 3.455 39.460
3882 1 1.842 -0.513 36.166
3883 1 6.605 16.076 13.220
3884 1 5.302 12.139 17.246
3885 1 6.888 19.503 16.034
3886 1 3.368 25.037 18.818
3887 1 2.745 22.381 10.241
3888 1 3.051 20.870 22.607
3889 1 -15.138 3.237 44.792
3890 1 -11.740 6.784 35.203
3891 1 -15.118 4.576 34.283
3892 1 0.634 28.241 14.561
3893 1 2.498 30.862 16.554
3894 1 -2.236 30.939 14.427
3895 1 -2.938 -0.782 16.206
3896 1 -1.441 0.372 22.555
3897 1 -3.833 -2.379 21.300
3898 1 28.799 -7.410 31.173
3899 1 28.880 -8.702 22.734
3900 1 27.527 -9.098 25.138
3901 1 38.748 21.854 9.511
3902 1 41.983 24.675 14.688
3903 1 43.045 23.546 10.874
3904 1 11.299 -9.259 2.627
3905 1 10.838 -8.591 6.314
3906 1 12.168 -11.817 1.412
3907 1 24.947 11.748 9.243
3908 1 24.871 9.284 10.532
3909 1 21.120 8.591 8.778
3910 1 30.111 15.774 22.410
3911 1 30.455 16.412 25.871
3912 1 31.132 23.341 29.356
3913 1 27.726 -8.017 9.945
3914 1 24.261 -10.464 12.165
3915 1 25.235 -10.457 14.400
3916 1 55.578 5.349 13.206
3917 1 57.958 6.041 14.995
3918 1 57.552 1.801 16.611
3919 1 3.805 -15.061 22.831
3920 1 6.040 -13.197 29.220
3921 1 4.384 -13.682 25.752
3922 1 -5.079 10.253 16.979
3923 1 -7.955 10.289 20.209
3924 1 -2.122 10.160 12.182
3925 1 18.480 34.614 3.760
3926 1 19.912 40.484 5.930
3927 1 21.428 32.189 2.778
3928 1 6.792 -4.329 26.870
3929 1 7.843 1.106 24.176
3930 1 8.273 -0.410 23.327
3931 1 25.303 21.915 39.797
3932 1 22.735 21.483 40.089
3933 1 22.322 19.924 42.477
3934 1 34.571 17.585 26.721
3935 1 36.592 15.575 33.124
3936 1 32.573 9.637 28.912
3937 1 -3.898 1.768 10.912
3938 1 -3.493 4.786 15.575
3939 1 -2.643 5.458 10.110
3940 1 37.825 21.727 52.720
3941 1 40.233 20.680 51.352
3942 1 39.880 18.451 52.982
3943 1 44.139 0.536 13.700
3944 1 46.125 -4.930 19.060
3945 1 46.649 -1.892 14.328
3946 1 43.756 9.770 30.946
3947 1 43.139 8.174 31.891
3948 1 40.249 12.057 34.147
3949 1 40.577 17.486 39.645
3950 1 41.078 15.582 37.681
3951 1 43.040 15.856 34.247
3952 1 31.409 -32.539 7.441
3953 1 32.234 -28.806 12.612
3954 1 29.616 -28.955 13.217
3955 1 44.195 19.326 44.469
3956 1 45.867 23.051 40.124
3957 1 44.886 18.510 42.692
3958 1 37.017 31.882 -7.628
3959 1 34.873 31.207 -12.426
3960 1 32.874 27.924 -12.916
3961 1 -17.645 14.596 35.448
3962 1 -17.292 10.278 38.690
3963 1 -17.285 11.376 35.729
3964 1 0.313 31.797 26.834
3965 1 -2.019 32.105 24.977
3966 1 -1.883 34.363 27.565
3967 1 11.401 0.698 45.613
3968 1 15.286 -5.186 38.482
3969 1 10.617 -3.471 41.036
3970 1 19.349 29.912 28.379
3971 1 23.656 26.787 31.696
3972 1 21.234 25.014 26.318
3973 1 33.556 -5.644 10.870
3974 1 34.427 -2.498 13.326
3975 1 36.215 -5.167 12.366
3976 1 19.468 8.179 52.953
3977 1 18.729 7.929 57.872
3978 1 18.957 13.642 60.427
3979 1 48.843 6.257 32.114
3980 1 45.963 7.428 28.944
3981 1 47.990 6.222 31.325
3982 1 23.113 13.562 23.862
3983 1 19.004 9.986 23.084
3984 1 21.499 10.421 22.105
3985 1 37.381 25.854 19.689
3986 1 35.877 29.050 15.753
3987 1 34.361 26.182 20.660
3988 1 23.574 37.147 24.811
3989 1 24.766 39.087 25.319
3990 1 26.374 39.389 25.810
3991 1 16.087 2.783 16.019
3992 1 18.503 -1.122 13.408
3993 1 17.604 3.636 16.996
3994 1 26.214 4.929 32.627
3995 1 30.453 7.839 32.651
3996 1 29.232 10.766 34.082
3997 1 20.985 45.887 18.036
3998 1 17.945 42.684 14.976
3999 1 24.229 49.247 10.775
4000 1 23.478 23.693 38.708
4001 1 18.971 30.800 30.960
4002 1 18.601 32.485 41.208
4003 1 20.650 23.325 30.509
4004 1 18.261 18.386 30.298
4005 1 24.882 18.748 25.041
4006 1 47.586 5.039 49.975
4007 1 46.977 3.676 45.335
4008 1 46.826 9.162 45.695
4009 1 27.708 31.517 11.477
4010 1 27.333 25.534 17.041
4011 1 29.177 32.623 14.307
4012 1 5.986 11.791 45.883
4013 1 5.955 6.084 42.573
4014 1 7.705 12.369 45.435
4015 1 14.977 33.350 37.703
4016 1 19.812 32.821 40.110
4017 1 15.988 34.054 35.564
4018 1 22.068 25.456 27.759
4019 1 19.889 34.588 33.025
4020 1 23.806 29.458 26.505
4021 1 32.394 2.500 36.780
4022 1 35.705 9.893 36.298
4023 1 29.270 8.962 33.440
4024 1 25.730 11.613 35.890
4025 1 28.078 16.593 35.526
4026 1 27.427 15.860 35.081
4027 1 43.535 -0.368 14.202
4028 1 44.320 -0.125 23.985
4029 1 45.988 3.125 18.157
4030 1 7.112 48.660 1.128
4031 1 3.476 45.580 -0.879
4032 1 -2.141 45.608 -3.209
4033 1 13.619 24.841 19.070
4034 1 11.788 23.054 15.169
4035 1 6.488 25.600 19.389
4036 1 18.706 17.102 16.247
4037 1 11.905 13.267 16.267
4038 1 15.200 16.625 10.973
4039 1 42.780 -6.815 23.650
4040 1 42.247 -5.661 22.963
4041 1 43.526 -7.374 28.907
4042 1 27.657 34.050 38.630
4043 1 26.033 30.218 39.174
4044 1 27.067 37.380 46.537
4045 1 -15.356 14.937 28.288
4046 1 -19.619 20.264 28.950
4047 1 -17.314 22.627 34.770
4048 1 16.387 42.777 45.206
4049 1 12.433 35.843 42.723
4050 1 13.761 38.225 40.028
4051 1 2.184 22.254 12.804
4052 1 0.450 20.293 12.576
4053 1 -2.673 20.485 10.772
4054 1 9.989 30.382 42.219
4055 1 7.470 28.465 40.830
4056 1 7.843 31.561 42.976
4057 1 19.179 3.329 33.022
4058 1 18.582 3.532 31.278
4059 1 18.888 8.869 36.442
4060 1 44.947 7.054 18.476
4061 1 41.304 9.008 17.634
4062 1 40.719 4.295 26.886
4063 1 12.782 29.902 29.121
4064 1 13.022 26.587 34.198
4065 1 9.840 30.707 32.724
4066 1 45.018 12.889 18.224
4067 1 44.394 9.408 24.979
4068 1 43.400 10.210 27.682
4069 1 26.558 33.051 32.134
4070 1 25.324 33.710 23.533
4071 1 20.538 32.684 26.030
4072 1 6.309 16.273 0.348
4073 1 3.405 10.606 6.805
4074 1 5.371 17.429 3.619
4075 1 40.193 28.916 20.189
4076 1 37.847 26.083 11.353
4077 1 37.758 24.599 11.773
4078 1 11.318 28.554 28.593
4079 1 14.210 31.403 24.724
4080 1 13.632 25.531 26.445
4081 1 28.544 21.796 38.342
4082 1 31.101 20.637 36.686
4083 1 27.726 17.772 39.214
4084 1 24.761 35.349 36.857
4085 1 24.595 35.788 43.967
4086 1 21.291 30.068 36.233
4087 1 -9.554 29.022 12.419
4088 1 -6.874 18.410 14.782
4089 1 -9.335 23.906 13.241
4090 1 -7.647 35.351 33.222
4091 1 -5.555 38.743 34.489
4092 1 -10.499 40.584 34.281
4093 1 23.053 39.526 9.269
4094 1 23.991 33.190 8.381
4095 1 23.149 35.206 4.162
4096 1 23.542 21.197 17.959
4097 1 22.800 24.373 16.505
4098 1 22.918 21.049 12.178
4099 1 12.013 40.338 23.062
4100 1 10.135 40.668 26.769
4101 1 11.885 41.471 23.768
4102 1 27.908 32.280 6.025
4103 1 29.275 30.768 3.523
4104 1 30.545 29.240 3.022
4105 1 16.332 2.699 18.298
4106 1 14.281 2.471 22.161
4107 1 13.666 0.509 19.915
4108 1 30.882 33.165 48.778
4109 1 28.829 39.068 46.412
4110 1 27.120 34.432 43.113
4111 1 40.153 3.823 20.883
4112 1 36.894 5.779 21.780
4113 1 37.486 1.730 16.521
4114 1 38.583 31.710 38.820
4115 1 38.178 24.966 34.550
4116 1 36.191 30.828 32.362
4117 1 -15.588 24.874 42.722
4118 1 -14.715 25.676 42.262
4119 1 -15.076 22.577 46.393
4120 1 1.643 48.644 29.463
4121 1 -1.323 49.888 30.411
4122 1 3.943 53.446 26.457
4123 1 15.877 44.695 17.739
4124 1 17.718 48.359 5.589
4125 1 17.609 42.183 4.726
4126 1 29.046 19.735 29.864
4127 1 30.526 21.698 30.088
4128 1 28.356 17.365 25.772
4129 1 12.031 20.418 32.645
4130 1 8.492 21.611 29.285
4131 1 8.266 23.110 30.631
4132 1 1.897 35.656 24.033
4133 1 5.230 40.451 27.812
4134 1 4.365 37.061 22.775
4135 1 23.559 30.385 58.144
4136 1 24.881 28.190 52.283
4137 1 26.465 30.023 55.077
4138 1 4.071 33.185 14.845
4139 1 -1.506 32.086 16.196
4140 1 0.928 33.660 17.636
4141 1 40.989 23.482 20.105
4142 1 39.634 25.759 23.250
4143 1 40.851 29.860 22.291
4144 1 6.877 39.529 29.680
4145 1 2.973 39.639 21.218
4146 1 1.178 37.853 23.943
4147 1 33.464 35.613 34.786
4148 1 30.332 32.997 37.109
4149 1 30.331 32.468 36.408
4150 1 14.989 33.710 7.506
4151 1 19.081 30.832 15.277
4152 1 20.927 36.619 15.658
4153 1 9.053 43.904 33.617
4154 1 8.849 39.547 35.955
4155 1 6.883 38.495 39.095
4156 1 -13.844 36.672 30.122
4157 1 -16.604 38.180 32.086
4158 1 -15.692 34.022 29.286
4159 1 3.912 9.440 23.645
4160 1 4.791 6.115 19.124
4161 1 1.944 6.964 19.251
4162 1 4.016 27.131 24.405
4163 1 4.165 26.174 22.852
4164 1 4.796 28.103 27.301
4165 1 16.991 27.419 21.048
4166 1 16.719 24.967 22.233
4167 1 14.880 34.718 22.177
4168 1 15.337 48.649 13.093
4169 1 13.696 53.404 12.067
4170 1 18.048 52.981 7.173
4171 1 18.161 25.438 45.476
4172 1 20.317 25.493 37.656
4173 1 19.352 27.358 43.251
4174 1 11.890 23.015 24.968
4175 1 11.338 19.907 25.144
4176 1 16.087 23.045 26.886
4177 1 16.244 29.309 15.761
4178 1 19.038 33.965 14.220
4179 1 14.553 34.503 15.648
4180 1 35.861 29.689 37.747
4181 1 35.788 34.202 40.604
4182 1 32.056 33.737 33.734
4183 1 17.276 27.654 46.388
4184 1 15.186 25.033 44.041
4185 1 13.190 29.664 49.356
4186 1 23.203 8.802 -4.962
4187 1 24.304 13.736 -0.179
4188 1 22.890 10.220 -4.099
4189 1 12.356 29.469 51.390
4190 1 15.630 30.723 50.308
4191 1 12.146 26.959 46.225
4192 1 47.054 25.275 24.135
4193 1 52.117 26.766 19.742
4194 1 50.817 25.536 20.167
4195 1 8.955 41.228 24.141
4196 1 10.633 41.262 19.609
4197 1 11.739 39.007 18.994
4198 1 -7.919 9.230 22.583
4199 1 -7.902 7.671 25.547
4200 1 -7.785 9.375 19.559
4201 1 8.147 28.813 6.582
4202 1 6.804 29.232 9.225
4203 1 8.640 24.739 7.198
4204 1 1.931 -9.293 50.031
4205 1 1.065 -10.887 49.670
4206 1 2.060 -4.156 51.165
4207 1 32.971 41.861 33.354
4208 1 29.283 39.030 34.079
4209 1 33.765 40.015 35.777
4210 1 19.841 45.161 47.747
4211 1 18.052 45.555 43.403
4212 1 18.478 45.953 44.465
4213 1 36.641 28.484 33.197
4214 1 39.714 31.654 31.687
4215 1 39.846 31.372 27.530
4216 1 29.353 14.448 15.845
4217 1 33.016 13.103 19.996
4218 1 30.235 13.021 18.765
4219 1 25.421 30.820 15.975
4220 1 25.390 31.857 8.734
4221 1 25.496 33.329 8.234
4222 1 20.896 42.577 31.148
4223 1 22.989 48.508 25.953
4224 1 21.517 42.949 30.911
4225 1 2.215 48.830 23.177
4226 1 0.584 46.552 22.293
4227 1 3.743 50.809 18.482
4228 1 60.391 22.703 25.982
4229 1 59.060 22.397 30.356
4230 1 62.096 19.496 24.860
4231 1 37.600 13.928 6.590
4232 1 37.209 16.028 8.001
4233 1 36.149 16.240 8.431
4234 1 -21.140 -8.165 42.476
4235 1 -16.595 -3.583 43.413
4236 1 -17.418 -6.987 38.241
4237 1 25.171 -17.175 51.227
4238 1 25.821 -17.856 56.417
4239 1 28.968 -17.332 54.841
4240 1 10.302 1.017 32.160
4241 1 11.644 -1.662 33.614
4242 1 11.430 -1.426 32.023
4243 1 23.167 26.163 21.202
4244 1 20.256 23.296 13.001
4245 1 20.299 21.037 15.088
4246 1 -2.977 -2.457 12.496
4247 1 -5.757 -1.059 14.977
4248 1 -5.654 -4.544 11.569
4249 1 19.950 6.985 58.063
4250 1 19.468 3.562 64.012
4251 1 19.532 5.525 57.109
4252 1 40.419 -4.236 10.378
4253 1 44.051 -6.903 12.862
4254 1 41.428 -11.492 7.804
4255 1 12.267 2.511 6.677
4256 1 14.239 -1.154 5.684
4257 1 13.173 1.014 7.066
4258 1 44.868 -13.929 41.501
4259 1 45.751 -18.267 42.481
4260 1 45.030 -15.685 43.260
4261 1 14.335 10.183 44.588
4262 1 14.029 6.974 46.115
4263 1 17.015 6.098 47.820
4264 1 10.676 -1.803 24.471
4265 1 11.831 3.024 28.673
4266 1 12.653 3.969 28.355
4267 1 22.401 17.708 31.104
4268 1 16.711 20.282 31.112
4269 1 16.659 16.274 33.855
4270 1 23.717 -2.383 38.695
4271 1 19.669 -3.230 36.589
4272 1 19.891 -0.857 37.945
4273 1 14.689 7.256 34.693
4274 1 15.990 10.966 29.661
4275 1 14.964 10.378 32.807
4276 1 10.786 36.383 26.260
4277 1 11.718 31.751 22.414
4278 1 14.240 35.260 27.914
4279 1 -3.821 -11.711 24.642
4280 1 -9.001 -13.521 21.886
4281 1 -3.927 -15.472 24.548
4282 1 1.359 23.754 22.330
4283 1 -0.292 21.895 26.811
4284 1 -0.211 21.333 30.564
4285 1 11.567 26.642 27.085
4286 1 7.774 27.755 19.405
4287 1 11.696 29.073 23.164
4288 1 2.407 17.185 42.469
4289 1 -4.027 11.716 39.282
4290 1 0.210 10.859 41.232
4291 1 34.959 9.740 32.883
4292 1 34.145 10.626 28.706
4293 1 31.594 8.940 28.291
4294 1 18.098 9.135 48.704
4295 1 17.526 7.034 53.894
4296 1 17.831 10.637 51.243
4297 1 23.434 -11.665 52.589
4298 1 26.385 -12.169 52.208
4299 1 23.169 -4.381 51.074
4300 1 22.141 13.475 35.190
4301 1 28.312 7.489 33.022
4302 1 25.809 7.369 32.767
4303 1 54.492 -0.751 38.774
4304 1 53.487 3.738 36.513
4305 1 58.629 2.240 40.826
4306 1 43.316 38.931 24.693
4307 1 44.484 36.733 28.432
4308 1 39.715 36.965 24.851
4309 1 51.702 -8.489 18.672
4310 1 52.428 -2.177 15.310
4311 1 48.427 -6.986 18.224
4312 1 11.769 34.575 29.186
4313 1 9.483 27.048 27.865
4314 1 6.860 33.044 26.632
4315 1 17.750 10.214 36.698
4316 1 16.975 8.546 34.428
4317 1 16.978 11.592 32.663
4318 1 -6.402 -8.020 47.040
4319 1 -5.035 -5.603 39.119
4320 1 -8.973 -8.079 40.630
4321 1 -2.492 -0.690 9.660
4322 1 -2.280 0.059 15.090
4323 1 -0.479 2.195 15.419
4324 1 21.623 24.051 30.318
4325 1 21.922 19.396 32.448
4326 1 21.741 22.531 35.985
4327 1 21.309 -0.778 33.047
4328 1 13.396 4.269 27.999
4329 1 15.284 -2.407 24.821
4330 1 27.134 -15.324 35.365
4331 1 25.208 -12.096 32.335
4332 1 26.927 -14.955 31.335
4333 1 35.048 11.130 34.026
4334 1 31.940 13.199 35.204
4335 1 34.584 12.347 28.067
4336 1 29.265 32.026 19.429
4337 1 29.381 30.581 16.240
4338 1 25.191 28.016 18.488
4339 1 24.079 -4.529 38.514
4340 1 19.161 -7.045 33.326
4341 1 21.805 -9.304 31.518
4342 1 47.016 23.781 21.475
4343 1 46.174 25.850 25.342
4344 1 42.712 24.257 24.638
4345 1 13.731 3.420 54.578
4346 1 13.996 9.511 57.347
4347 1 18.944 8.959 51.817
4348 1 13.619 16.158 3.079
4349 1 19.849 16.665 5.621
4350 1 16.346 17.406 0.333
4351 1 -4.917 10.315 29.884
4352 1 -6.707 12.779 29.859
4353 1 -9.680 9.395 29.983
4354 1 11.586 -14.503 43.470
4355 1 9.553 -12.859 40.371
4356 1 13.812 -11.264 41.357
4357 1 -8.996 44.473 31.001
4358 1 -13.246 45.437 35.455
4359 1 -12.212 45.323 32.886
4360 1 28.185 -16.535 41.879
4361 1 27.645 -15.686 45.984
4362 1 23.828 -14.009 40.484
4363 1 -10.554 11.869 38.847
4364 1 -8.701 11.607 37.170
4365 1 -7.179 11.389 38.000
4366 1 -5.733 13.903 3.123
4367 1 -0.181 23.230 5.004
4368 1 -5.789 16.088 0.051
4369 1 12.607 32.294 11.623
4370 1 10.246 31.017 12.151
4371 1 6.631 32.381 14.371
4372 1 43.368 -2.687 28.100
4373 1 45.967 -1.183 28.036
4374 1 40.584 -1.051 28.109
4375 1 9.956 7.975 50.939
4376 1 11.311 5.358 46.953
4377 1 13.294 4.554 44.500
4378 1 26.058 6.176 41.632
4379 1 25.331 1.953 41.099
4380 1 24.405 5.025 43.204
4381 1 27.224 8.779 60.645
4382 1 26.758 11.948 64.940
4383 1 30.037 13.005 55.056
4384 1 19.803 14.280 32.058
4385 1 19.533 13.755 33.532
4386 1 15.804 10.817 28.986
4387 1 -8.810 14.484 24.138
4388 1 -5.987 18.657 32.702
4389 1 -7.306 17.378 23.745
4390 1 20.530 42.026 10.257
4391 1 20.307 41.081 10.811
4392 1 18.244 39.716 7.687
4393 1 7.749 16.265 36.577
4394 1 7.156 19.543 29.475
4395 1 8.880 15.150 29.414
4396 1 29.344 29.481 17.351
4397 1 31.571 26.819 16.844
4398 1 31.710 28.065 16.457
4399 1 44.403 15.920 26.655
4400 1 40.966 16.103 28.421
4401 1 39.031 15.049 28.594
4402 1 38.129 -0.632 31.363
4403 1 43.554 -6.679 32.221
4404 1 35.312 -5.214 26.108
4405 1 54.320 -11.316 32.531
4406 1 55.572 -8.237 30.824
4407 1 54.824 -6.850 30.741
4408 1 -14.624 34.330 43.103
4409 1 -15.537 34.667 45.796
4410 1 -15.470 33.384 45.321
4411 1 -28.730 9.212 34.518
4412 1 -30.475 17.041 37.370
4413 1 -34.122 12.596 31.961
4414 1 2.692 68.256 50.251
4415 1 8.738 64.851 43.017
4416 1 3.223 67.690 47.398
4417 1 8.146 21.127 28.876
4418 1 8.837 21.940 29.490
4419 1 9.063 20.633 32.061
4420 1 41.163 26.670 30.395
4421 1 41.127 23.566 30.968
4422 1 43.639 21.107 28.327
4423 1 47.607 10.247 38.820
4424 1 49.751 10.756 35.946
4425 1 49.262 10.886 39.857
4426 1 -2.141 21.392 50.847
4427 1 -2.977 20.361 46.731
4428 1 -1.000 21.756 52.429
4429 1 -16.520 16.502 23.745
4430 1 -12.085 22.394 15.816
4431 1 -12.557 20.726 20.057
4432 1 16.476 22.142 19.082
4433 1 19.507 17.332 20.956
4434 1 19.377 23.429 22.746
4435 1 24.890 1.406 30.379
4436 1 23.828 -3.605 30.942
4437 1 24.215 -0.679 30.459
4438 1 38.725 1.368 43.358
4439 1 36.135 3.595 49.065
4440 1 38.495 2.718 45.699
4441 1 45.481 -12.895 30.440
4442 1 45.487 -11.211 32.995
4443 1 43.479 -10.952 33.418
4444 1 26.937 34.219 42.278
4445 1 25.659 35.654 33.180
4446 1 25.149 35.075 38.600
4447 1 37.823 12.666 2.311
4448 1 36.503 11.470 1.415
4449 1 33.766 9.142 4.227
4450 1 -1.357 28.520 22.505
4451 1 -2.890 28.088 18.920
4452 1 -3.620 20.745 24.055
4453 1 31.938 25.575 32.543
4454 1 31.851 27.701 34.056
4455 1 31.275 22.718 35.053
4456 1 36.106 3.465 17.691
4457 1 33.992 4.864 20.381
4458 1 34.268 4.843 21.829
4459 1 16.405 23.834 38.173
4460 1 17.900 23.674 33.241
4461 1 13.071 19.948 33.230
4462 1 16.610 5.013 17.793
4463 1 16.284 6.330 17.013
4464 1 15.681 6.007 16.445
4465 1 28.662 32.955 21.379
4466 1 30.240 31.964 24.679
4467 1 31.687 33.811 22.605
4468 1 26.531 65.733 15.766
4469 1 28.330 66.206 10.381
4470 1 24.909 61.362 13.007
4471 1 -1.022 -13.600 44.495
4472 1 -6.639 -15.297 44.872
4473 1 -2.254 -11.276 40.746
4474 1 32.880 20.157 21.699
4475 1 31.285 22.585 17.810
4476 1 33.802 20.369 17.955
4477 1 -3.233 25.005 34.412
4478 1 -1.134 22.233 32.031
4479 1 -0.705 24.557 32.957
4480 1 31.378 -0.887 33.904
4481 1 34.249 5.283 35.452
4482 1 33.009 5.090 38.216
4483 1 35.284 28.352 22.461
4484 1 35.445 25.435 19.406
4485 1 35.131 26.146 23.887
4486 1 22.266 11.695 10.962
4487 1 24.471 11.053 14.601
4488 1 26.417 12.624 17.143
4489 1 -14.477 44.869 19.281
4490 1 -11.440 49.555 18.491
4491 1 -15.133 46.932 16.617
4492 1 23.956 -10.205 33.660
4493 1 24.515 -10.133 31.711
4494 1 24.012 -10.001 27.646
4495 1 6.052 27.033 20.817
4496 1 7.592 22.740 22.053
4497 1 10.710 23.858 27.818
4498 1 12.894 9.010 51.609
4499 1 13.667 7.670 48.329
4500 1 16.260 9.520 50.091
4501 1 17.733 6.575 31.232
4502 1 16.349 2.589 35.249
4503 1 18.958 11.069 32.254
4504 1 14.933 14.237 36.203
4505 1 15.214 18.477 37.142
4506 1 13.125 21.746 33.905
4507 1 15.294 30.843 20.939
4508 1 17.042 28.649 19.063
4509 1 17.408 36.061 24.101
4510 1 34.099 36.717 46.390
4511 1 34.735 38.795 37.401
4512 1 37.886 34.063 46.008
4513 1 25.315 20.870 49.201
4514 1 23.976 20.058 47.833
4515 1 24.423 19.999 53.525
4516 1 4.176 33.324 35.038
4517 1 5.428 30.330 37.487
4518 1 7.013 34.054 39.524
4519 1 16.865 15.294 18.304
4520 1 11.505 13.860 21.210
4521 1 13.179 15.577 19.349
4522 1 12.292 27.363 35.721
4523 1 9.024 28.014 33.730
4524 1 10.942 29.967 38.160
4525 1 14.502 37.560 11.939
4526 1 10.043 35.490 11.791
4527 1 13.767 34.945 11.219
4528 1 26.565 -6.595 26.896
4529 1 23.113 -3.410 31.090
4530 1 22.536 -5.943 27.926
4531 1 -5.656 8.474 25.303
4532 1 -7.151 6.981 22.894
4533 1 -4.917 7.741 19.522
4534 1 4.432 14.664 35.793
4535 1 3.805 16.849 38.892
4536 1 6.309 18.286 30.532
4537 1 12.255 26.755 59.157
4538 1 14.388 27.347 60.974
4539 1 18.718 28.264 61.007
4540 1 18.177 24.122 6.554
4541 1 17.294 22.641 9.166
4542 1 16.251 21.899 8.066
4543 1 51.282 7.583 47.399
4544 1 46.114 9.474 44.648
4545 1 46.883 9.601 45.212
4546 1 60.841 23.580 32.780
4547 1 59.666 22.655 35.081
4548 1 58.927 20.271 36.250
4549 1 25.249 40.254 58.035
4550 1 26.209 42.611 48.416
4551 1 27.963 41.925 54.719
4552 1 39.783 35.759 53.921
4553 1 36.176 31.942 54.359
4554 1 34.987 30.857 50.213
4555 1 11.678 35.176 30.944
4556 1 13.191 35.443 36.448
4557 1 14.853 31.968 34.208
4558 1 18.543 16.470 12.867
4559 1 15.622 17.795 15.585
4560 1 18.275 20.329 20.736
4561 1 -9.823 14.846 28.220
4562 1 -11.008 16.606 28.935
4563 1 -7.353 11.171 27.875
4564 1 38.004 42.553 27.802
4565 1 37.787 44.552 27.932
4566 1 41.469 48.205 25.085
4567 1 19.669 25.391 19.450
4568 1 15.455 30.177 26.381
4569 1 16.120 29.505 23.431
4570 1 6.124 29.445 46.833
4571 1 7.037 30.864 48.388
4572 1 2.149 31.789 43.606
4573 1 27.757 23.531 26.127
4574 1 25.819 26.882 25.113
4575 1 29.421 20.149 19.054
4576 1 30.409 22.789 18.909
4577 1 31.559 18.802 25.057
4578 1 33.308 19.196 21.857
4579 1 -5.562 30.762 34.095
4580 1 -2.129 39.160 31.139
4581 1 -4.110 31.462 33.012
4582 1 23.131 24.625 15.783
4583 1 23.397 26.551 19.173
4584 1 27.230 22.645 21.017
4585 1 32.734 5.938 22.651
4586 1 30.028 4.069 22.550
4587 1 31.179 7.079 24.146
4588 1 22.199 17.359 39.969
4589 1 20.922 15.129 44.860
4590 1 17.602 18.964 38.353
4591 1 40.133 41.805 30.163
4592 1 40.160 42.356 28.240
4593 1 33.105 40.848 29.880
4594 1 10.365 34.723 13.490
4595 1 7.376 36.015 19.298
4596 1 9.702 36.627 19.928
4597 1 11.728 37.835 30.184
4598 1 13.472 38.031 31.244
4599 1 8.368 37.977 34.036
4600 1 6.195 34.427 42.144
4601 1 8.055 28.941 42.825
4602 1 5.848 35.282 41.927
4603 1 -1.627 23.703 45.577
4604 1 -2.953 24.212 52.068
4605 1 -5.129 23.442 45.352
4606 1 -6.081 29.912 37.649
4607 1 -1.448 29.452 34.357
4608 1 -1.857 23.805 41.052
4609 1 4.390 58.931 36.975
4610 1 1.476 64.818 33.471
4611 1 1.495 60.417 30.971
4612 1 27.985 29.704 32.724
4613 1 26.033 24.704 29.771
4614 1 27.539 32.271 39.325
4615 1 35.306 50.191 22.298
4616 1 34.671 49.828 30.371
4617 1 37.326 49.978 31.385
4618 1 32.832 57.979 30.105
4619 1 30.651 54.205 26.759
4620 1 28.482 53.776 34.079
4621 1 46.091 14.934 36.786
4622 1 44.466 17.080 30.640
4623 1 43.294 12.633 32.739
4624 1 29.051 41.317 24.112
4625 1 28.328 42.863 26.891
4626 1 27.269 39.677 21.839
4627 1 5.136 40.926 17.237
4628 1 4.260 38.809 20.658
4629 1 5.436 37.528 19.393
4630 1 62.767 7.068 36.209
4631 1 64.409 -0.009 31.220
4632 1 63.577 4.754 36.321
4633 1 11.247 -1.542 37.410
4634 1 14.011 -5.506 40.759
4635 1 12.243 -3.082 36.058
4636 1 17.518 -11.989 13.242
4637 1 13.819 -7.548 13.152
4638 1 13.319 -13.139 17.375
4639 1 8.318 37.785 52.265
4640 1 10.351 38.720 51.467
4641 1 10.777 40.694 50.889
4642 1 12.338 5.135 22.298
4643 1 7.408 8.788 24.443
4644 1 10.498 5.949 25.913
4645 1 14.772 23.053 32.940
4646 1 13.831 21.803 32.842
4647 1 12.900 22.420 30.294
4648 1 21.846 6.692 43.528
4649 1 21.002 11.922 43.109
4650 1 24.651 8.008 42.946
4651 1 -15.956 -5.329 43.620
4652 1 -14.447 -3.679 44.596
4653 1 -11.157 -5.043 46.640
4654 1 -3.039 0.109 38.469
4655 1 -3.008 -3.292 34.104
4656 1 -4.320 -1.003 31.994
4657 1 15.960 11.321 33.439
4658 1 14.029 8.644 32.010
4659 1 12.083 12.281 31.847
4660 1 14.328 0.583 26.008
4661 1 15.904 -5.490 31.745
4662 1 14.799 0.345 33.946
4663 1 16.684 -6.461 30.888
4664 1 19.746 -8.140 23.627
4665 1 18.412 -5.076 25.797
4666 1 34.693 8.117 31.563
4667 1 39.942 13.266 34.958
4668 1 34.525 9.886 30.546
4669 1 40.434 12.384 44.605
4670 1 39.982 17.871 48.146
4671 1 40.241 15.891 36.060
4672 1 -10.890 20.315 16.086
4673 1 -9.487 19.653 18.165
4674 1 -10.169 20.967 13.918
4675 1 -3.612 8.386 48.914
4676 1 -0.757 10.410 45.306
4677 1 -3.072 6.413 41.172
4678 1 31.652 9.713 38.727
4679 1 32.591 7.206 41.231
4680 1 29.078 11.552 37.786
4681 1 20.722 1.216 24.148
4682 1 22.990 3.094 21.769
4683 1 22.447 6.052 18.062
4684 1 -11.726 16.808 53.426
4685 1 -12.873 18.630 60.301
4686 1 -12.086 19.102 51.161
4687 1 -10.878 -6.101 39.696
4688 1 -6.050 -7.144 36.619
4689 1 -7.770 -8.327 36.553
4690 1 35.400 9.699 26.028
4691 1 34.169 9.378 26.734
4692 1 35.953 12.407 23.938
4693 1 4.493 -3.230 0.027
4694 1 7.591 -0.656 4.266
4695 1 9.035 -1.558 1.200
4696 1 21.434 11.259 13.819
4697 1 21.260 12.072 10.596
4698 1 19.183 12.961 18.129
4699 1 33.201 -10.404 2.881
4700 1 28.622 -13.908 2.785
4701 1 32.660 -13.403 9.006
4702 1 28.770 -3.979 15.393
4703 1 28.852 -7.331 16.100
4704 1 31.529 -5.450 16.430
4705 1 45.102 -12.437 23.231
4706 1 45.961 -14.536 26.863
4707 1 46.415 -4.309 20.559
4708 1 43.270 -16.347 26.008
4709 1 42.346 -15.078 28.612
4710 1 43.083 -16.640 25.825
4711 1 0.659 1.882 34.621
4712 1 1.237 -4.534 39.337
4713 1 1.581 -6.299 30.715
4714 1 11.308 12.838 20.634
4715 1 12.646 9.928 26.313
4716 1 9.048 9.468 26.454
4717 1 -12.251 5.858 65.838
4718 1 -14.000 6.109 66.362
4719 1 -6.310 8.836 65.079
4720 1 15.178 34.862 44.359
4721 1 20.190 34.098 43.069
4722 1 14.094 33.281 42.690
4723 1 20.142 17.815 45.775
4724 1 19.320 12.547 47.153
4725 1 19.254 14.508 44.633
4726 1 34.000 14.074 26.365
4727 1 34.836 14.082 25.454
4728 1 36.013 8.364 30.324
4729 1 6.576 31.428 34.138
4730 1 4.230 27.731 29.776
4731 1 6.426 26.082 31.653
4732 1 22.732 13.070 14.774
4733 1 27.995 7.407 14.977
4734 1 25.357 10.520 16.949
4735 1 28.385 11.044 15.534
4736 1 33.143 15.500 13.253
4737 1 34.563 7.246 8.486
4738 1 10.316 0.394 32.196
4739 1 8.899 1.564 36.597
4740 1 13.718 -1.314 34.568
4741 1 25.170 9.061 63.586
4742 1 25.826 8.149 60.936
4743 1 25.534 9.092 67.527
4744 1 39.191 5.777 32.414
4745 1 41.187 1.403 30.256
4746 1 38.224 4.062 34.293
4747 1 41.894 3.067 39.833
4748 1 41.382 -1.597 40.088
4749 1 39.897 3.495 41.761
4750 1 -10.328 4.872 38.918
4751 1 -11.917 10.331 37.210
4752 1 -9.443 8.951 41.530
4753 1 18.252 36.797 23.839
4754 1 18.684 33.160 20.052
4755 1 17.807 31.988 21.034
4756 1 5.471 28.545 24.727
4757 1 5.910 26.976 26.016
4758 1 6.672 24.889 30.030
4759 1 29.731 20.837 10.323
4760 1 26.294 21.317 8.157
4761 1 25.022 26.991 9.921
4762 1 29.288 -4.240 18.620
4763 1 31.627 -0.804 14.277
4764 1 29.939 -3.348 19.886
4765 1 16.767 -5.254 48.823
4766 1 18.882 -5.573 49.645
4767 1 18.960 2.320 51.050
4768 1 29.920 27.351 7.411
4769 1 29.498 24.082 8.675
4770 1 26.854 23.639 14.453
4771 1 27.384 10.960 24.414
4772 1 27.272 10.245 23.674
4773 1 26.352 13.387 29.527
4774 1 33.606 5.771 46.989
4775 1 30.830 1.278 43.750
4776 1 29.489 6.355 44.188
4777 1 34.231 6.693 5.430
4778 1 33.373 6.774 5.866
4779 1 33.222 3.228 4.313
4780 1 20.010 31.614 27.837
4781 1 18.945 24.886 25.990
4782 1 20.389 28.594 31.962
4783 1 23.245 3.056 21.438
4784 1 27.588 -1.660 23.792
4785 1 28.047 -3.368 25.320
4786 1 15.111 16.391 18.088
4787 1 17.748 16.199 15.768
4788 1 21.405 17.527 13.163
4789 1 3.312 27.604 18.248
4790 1 5.998 28.770 16.997
4791 1 4.053 29.093 15.755
4792 1 11.272 19.525 36.877
4793 1 10.689 21.229 35.668
4794 1 7.801 16.568 36.677
4795 1 10.634 9.625 27.629
4796 1 11.277 9.629 37.165
4797 1 9.119 9.767 31.580
4798 1 25.381 25.835 39.467
4799 1 27.379 25.157 36.369
4800 1 26.832 27.533 32.558
4801 1 24.609 3.245 12.381
4802 1 24.614 6.548 14.513
4803 1 25.309 1.747 14.401
4804 1 22.992 13.558 29.121
4805 1 24.845 10.710 28.219
4806 1 24.683 13.494 24.408
4807 1 29.072 31.069 50.634
4808 1 30.794 28.753 49.263
4809 1 29.593 32.155 50.622
4810 1 62.244 23.749 24.849
4811 1 56.986 18.266 28.033
4812 1 56.790 18.448 28.317
4813 1 38.315 33.046 40.076
4814 1 36.556 32.927 37.691
4815 1 35.764 31.807 35.446
4816 1 0.060 -0.202 40.327
4817 1 -1.143 3.458 41.724
4818 1 0.381 1.988 39.070
4819 1 8.338 36.792 32.988
4820 1 8.538 36.990 28.254
4821 1 9.178 37.156 32.538
4822 1 -7.911 8.276 42.431
4823 1 -8.168 4.146 36.282
4824 1 -8.126 4.547 46.648
4825 1 24.373 27.240 45.434
4826 1 29.419 26.655 43.795
4827 1 28.239 24.687 40.595
4828 1 58.588 27.884 36.993
4829 1 60.199 35.081 40.959
4830 1 59.335 33.424 33.843
4831 1 29.302 10.091 39.851
4832 1 30.415 16.920 37.782
4833 1 29.854 12.603 45.164
4834 1 12.500 -4.576 39.182
4835 1 16.181 -1.574 39.698
4836 1 17.022 -3.099 36.237
4837 1 55.167 2.972 33.609
4838 1 58.117 8.204 38.684
4839 1 56.191 10.703 33.261
4840 1 10.788 36.218 31.541
4841 1 12.028 36.126 31.139
4842 1 8.812 35.481 30.159
4843 1 0.572 -0.427 38.920
4844 1 -0.426 -2.140 36.860
4845 1 2.831 -2.044 33.953
4846 1 -3.728 37.900 19.483
4847 1 -2.593 41.629 19.131
4848 1 -1.640 44.463 15.543
4849 1 28.995 20.949 32.993
4850 1 28.039 22.578 36.892
4851 1 23.182 19.671 29.711
4852 1 23.029 18.020 5.342
4853 1 25.906 20.632 1.800
4854 1 26.167 17.596 4.488
4855 1 4.612 33.910 31.542
4856 1 6.144 35.785 27.244
4857 1 5.622 32.578 31.647
4858 1 54.976 12.638 38.038
4859 1 56.616 15.192 40.691
4860 1 50.558 10.080 40.016
4861 1 25.810 26.166 26.274
4862 1 26.309 22.406 31.077
4863 1 25.326 19.849 26.215
4864 1 -9.004 18.770 36.784
4865 1 -13.676 18.764 36.827
4866 1 -8.997 16.146 39.139
4867 1 -2.317 30.948 54.388
4868 1 0.049 37.621 58.856
4869 1 -5.061 38.787 59.194
4870 1 1.331 14.205 11.421
4871 1 -0.934 14.988 12.765
4872 1 3.179 15.029 14.212
4873 1 17.567 37.630 26.710
4874 1 14.219 38.459 33.398
4875 1 18.536 41.370 25.895
4876 1 39.646 31.745 48.340
4877 1 37.406 29.424 45.845
4878 1 39.624 28.506 48.352
4879 1 12.136 19.900 20.514
4880 1 10.517 20.030 14.447
4881 1 15.563 21.450 14.915
4882 1 40.460 24.533 38.246
4883 1 40.454 31.090 41.014
4884 1 41.650 34.886 36.837
4885 1 19.367 20.458 49.432
4886 1 19.331 26.637 49.699
4887 1 21.008 17.941 47.210
4888 1 -3.867 12.385 32.783
4889 1 -9.197 11.339 35.876
4890 1 -5.341 11.610 37.547
4891 1 14.458 32.404 42.929
4892 1 16.024 29.894 43.516
4893 1 12.950 37.047 55.077
4894 1 -0.640 33.318 22.877
4895 1 -2.146 32.907 23.204
4896 1 -0.524 30.852 24.903
4897 1 11.402 18.858 21.333
4898 1 10.612 17.016 18.289
4899 1 12.581 19.968 25.313
4900 1 9.777 32.136 30.821
4901 1 12.795 33.458 36.431
4902 1 10.653 30.861 28.074
4903 1 -13.801 33.590 25.337
4904 1 -15.171 33.226 26.488
4905 1 -13.332 25.777 23.341
4906 1 36.234 42.263 42.296
4907 1 34.426 43.099 39.977
4908 1 35.223 48.731 47.511
4909 1 40.599 7.902 27.548
4910 1 33.592 6.864 30.901
4911 1 36.728 4.998 26.193
4912 1 3.886 44.420 40.114
4913 1 5.897 44.269 30.885
4914 1 3.967 42.362 34.747
4915 1 34.325 10.943 21.397
4916 1 32.313 11.731 25.431
4917 1 37.668 14.982 19.690
4918 1 1.053 14.446 30.872
4919 1 -2.514 13.360 27.790
4920 1 2.017 12.520 30.292
4921 1 44.993 8.817 39.762
4922 1 40.706 9.175 43.217
4923 1 45.369 6.043 47.867
4924 1 23.325 16.537 19.786
4925 1 25.512 16.313 21.030
4926 1 24.004 16.292 24.513
4927 1 45.273 45.320 32.749
4928 1 44.317 51.200 35.602
4929 1 50.387 42.140 37.555
4930 1 15.782 26.199 33.893
4931 1 17.217 25.653 32.949
4932 1 14.608 23.288 33.807
4933 1 38.145 36.522 19.426
4934 1 36.604 34.816 22.297
4935 1 34.208 35.153 23.637
4936 1 27.273 15.898 24.693
4937 1 26.581 16.037 20.228
4938 1 31.008 18.540 18.159
4939 1 22.898 55.903 35.811
4940 1 22.680 54.431 32.123
4941 1 22.731 50.225 34.057
4942 1 21.917 18.825 18.112
4943 1 22.079 25.379 16.947
4944 1 25.281 24.813 19.086
4945 1 21.540 22.285 41.181
4946 1 21.816 21.873 33.728
4947 1 20.404 24.731 33.192
4948 1 14.511 11.729 -5.731
4949 1 16.429 10.120 -9.502
4950 1 16.276 15.247 -10.810
4951 1 13.751 37.722 29.973
4952 1 16.650 42.177 34.106
4953 1 15.454 40.690 34.040
4954 1 6.413 57.600 35.095
4955 1 6.018 54.588 29.387
4956 1 5.174 52.187 37.883
4957 1 -8.061 28.009 49.859
4958 1 -10.845 29.174 50.246
4959 1 -7.104 30.299 47.626
4960 1 5.520 33.860 43.938
4961 1 8.296 36.087 40.938
4962 1 1.204 36.059 43.241
4963 1 25.482 52.713 22.577
4964 1 24.895 52.591 32.876
4965 1 28.205 55.641 33.833
4966 1 12.615 27.328 29.156
4967 1 10.566 30.672 23.855
4968 1 13.104 32.005 33.427
4969 1 4.037 29.493 20.469
4970 1 2.034 34.460 27.343
4971 1 -0.869 28.222 26.672
4972 1 7.534 21.367 36.891
4973 1 3.482 25.121 34.822
4974 1 7.555 26.110 36.687
4975 1 23.217 18.835 21.469
4976 1 22.002 15.620 20.736
4977 1 24.827 17.077 15.947
4978 1 47.138 26.146 32.881
4979 1 48.100 22.526 37.171
4980 1 47.105 19.063 35.860
4981 1 26.580 26.458 36.159
4982 1 25.859 27.250 31.471
4983 1 26.755 30.228 37.682
4984 1 27.804 13.978 34.143
4985 1 29.418 12.640 32.677
4986 1 29.974 8.837 33.122
4987 1 24.488 26.869 39.744
4988 1 22.774 31.281 44.562
4989 1 20.883 30.526 42.041
4990 1 -2.380 28.009 34.249
4991 1 -1.475 29.781 34.242
4992 1 -0.314 24.982 33.061
4993 1 13.243 33.998 11.938
4994 1 12.317 28.493 15.307
4995 1 7.563 38.300 15.363
4996 1 24.628 49.916 10.745
4997 1 28.357 51.930 12.173
4998 1 26.909 46.776 8.810
4999 1 8.183 45.348 34.692
5000 1 6.743 41.500 40.023
5001 1 5.824 36.385 41.363
5002 1 6.003 29.098 34.139
5003 1 3.763 32.742 34.514
5004 1 5.872 31.323 38.709
5005 1 4.132 28.186 38.885
5006 1 7.034 25.927 41.699
5007 1 9.958 29.109 42.902
5008 1 -5.632 36.833 32.753
5009 1 -3.259 33.851 35.553
5010 1 -2.900 38.549 35.016
5011 1 20.224 25.463 31.936
5012 1 13.877 24.971 35.987
5013 1 18.383 27.401 42.134
5014 1 11.078 30.827 33.055
5015 1 10.947 30.080 37.304
5016 1 9.560 28.771 33.220
5017 1 38.903 27.402 19.743
5018 1 40.484 28.045 17.033
5019 1 38.573 28.774 15.924
5020 1 23.528 24.878 16.068
5021 1 21.523 21.052 15.781
5022 1 20.905 24.990 9.670
5023 1 16.748 38.732 39.129
5024 1 16.941 40.204 39.214
5025 1 14.537 38.811 44.299
5026 1 12.677 24.837 45.501
5027 1 11.653 28.934 45.842
5028 1 12.315 30.907 47.535
5029 1 2.934 28.231 13.631
5030 1 4.339 25.310 6.155
5031 1 3.804 28.480 14.144
5032 1 -3.174 11.507 26.219
5033 1 -9.182 10.954 32.525
5034 1 -8.922 11.382 28.120
5035 1 35.788 20.934 14.393
5036 1 35.355 24.638 23.288
5037 1 37.232 24.048 23.604
5038 1 6.060 39.447 29.886
5039 1 4.576 40.854 28.900
5040 1 3.415 39.931 27.779
5041 1 5.274 42.429 43.744
5042 1 3.566 43.735 37.319
5043 1 0.435 41.462 42.252
5044 1 14.567 25.406 53.352
5045 1 15.521 23.530 49.537
5046 1 7.135 25.552 53.243
5047 1 11.765 9.921 31.114
5048 1 16.084 6.848 30.832
5049 1 10.260 7.864 37.692
5050 1 25.609 26.864 4.978
5051 1 32.142 23.931 9.060
5052 1 28.663 29.300 5.163
5053 1 0.254 37.638 25.761
5054 1 2.070 36.903 25.209
5055 1 3.384 37.191 27.119
5056 1 32.617 5.607 24.941
5057 1 34.567 7.785 27.879
5058 1 29.441 6.420 31.961
5059 1 43.732 30.473 27.452
5060 1 45.698 34.902 23.263
5061 1 45.417 38.146 26.639
5062 1 35.603 34.135 31.869
5063 1 31.505 32.699 30.577
5064 1 31.677 32.102 28.073
5065 1 47.463 61.808 21.143
5066 1 44.022 63.120 23.788
5067 1 43.803 64.518 23.335
5068 1 -9.789 13.055 32.206
5069 1 -4.153 12.498 25.439
5070 1 -7.425 16.039 27.143
5071 1 -0.138 -21.710 42.897
5072 1 -2.121 -18.745 47.039
5073 1 -3.435 -21.035 41.922
5074 1 5.404 -7.079 39.924
5075 1 5.490 -2.399 43.560
5076 1 3.645 -7.627 43.650
5077 1 6.770 -14.430 33.592
5078 1 2.212 -16.757 34.802
5079 1 3.328 -16.892 35.138
5080 1 11.461 14.902 28.410
5081 1 15.487 19.249 23.824
5082 1 17.615 14.022 29.537
5083 1 18.519 10.881 61.304
5084 1 20.528 9.638 64.353
5085 1 16.301 7.090 61.901
5086 1 27.208 -13.849 30.137
5087 1 26.331 -14.773 24.835
5088 1 27.814 -17.231 29.249
5089 1 20.875 -0.651 34.675
5090 1 21.844 2.823 30.891
5091 1 21.901 -1.310 39.735
5092 1 33.692 4.450 40.543
5093 1 33.080 2.171 38.562
5094 1 29.009 2.449 39.468
5095 1 32.869 12.671 19.551
5096 1 33.433 11.972 22.246
5097 1 37.175 10.471 20.323
5098 1 22.211 -3.214 46.385
5099 1 19.775 4.470 41.962
5100 1 22.146 -4.231 46.036
5101 1 37.656 23.305 37.000
5102 1 39.251 22.216 29.316
5103 1 39.228 19.237 36.649
5104 1 31.031 -19.536 28.351
5105 1 29.617 -20.501 28.775
5106 1 31.216 -18.867 32.657
5107 1 -25.932 21.356 65.941
5108 1 -33.420 19.876 63.038
5109 1 -30.504 22.097 66.936
5110 1 8.639 6.772 28.807
5111 1 10.230 4.911 27.731
5112 1 7.606 3.530 26.629
5113 1 28.819 11.037 32.316
5114 1 29.249 8.539 23.565
5115 1 26.824 11.447 23.006
5116 1 34.621 12.677 22.571
5117 1 35.948 11.765 21.568
5118 1 32.709 12.326 23.664
5119 1 25.081 9.853 13.592
5120 1 20.690 10.489 13.843
5121 1 22.766 14.958 14.055
5122 1 -4.343 5.675 10.393
5123 1 -4.365 0.008 14.197
5124 1 -2.778 4.647 17.566
5125 1 17.290 20.464 7.210
5126 1 19.505 21.585 10.423
5127 1 17.222 19.739 11.530
5128 1 -6.536 25.222 34.683
5129 1 -6.595 21.276 31.109
5130 1 -3.961 22.601 30.022
5131 1 53.350 20.509 19.939
5132 1 55.857 23.408 20.588
5133 1 58.701 22.386 20.091
5134 1 22.722 0.980 30.886
5135 1 24.720 -1.294 30.687
5136 1 21.673 -2.816 28.532
5137 1 36.950 -26.651 38.893
5138 1 35.805 -31.067 36.952
5139 1 33.218 -23.900 30.203
5140 1 23.724 -7.612 46.988
5141 1 18.788 -9.602 41.934
5142 1 21.027 -10.875 48.251
5143 1 24.230 -21.598 33.192
5144 1 23.770 -28.771 32.950
5145 1 23.905 -24.179 35.267
5146 1 11.297 12.163 29.405
5147 1 14.268 3.538 26.541
5148 1 8.637 7.894 25.691
5149 1 6.670 24.829 48.208
5150 1 7.598 23.006 46.491
5151 1 8.424 22.659 48.317
5152 1 13.108 3.643 38.746
5153 1 10.269 0.419 37.482
5154 1 9.265 2.253 35.101
5155 1 32.772 40.102 25.200
5156 1 27.865 39.494 23.487
5157 1 28.458 36.290 24.911
5158 1 -12.055 1.148 36.542
5159 1 -17.495 0.369 33.192
5160 1 -10.097 2.953 38.553
5161 1 3.645 20.619 43.132
5162 1 2.549 19.484 45.795
5163 1 6.395 18.208 39.887
5164 1 -4.954 3.245 43.064
5165 1 -6.466 6.310 45.810
5166 1 -5.593 1.854 39.440
5167 1 20.954 29.525 31.163
5168 1 22.273 26.620 21.300
5169 1 23.586 31.838 24.966
5170 1 17.830 23.388 21.964
5171 1 14.437 25.925 25.958
5172 1 12.858 24.305 21.404
5173 1 40.499 24.236 45.420
5174 1 39.161 20.579 47.285
5175 1 37.294 25.716 41.754
5176 1 31.907 30.424 35.327
5177 1 37.478 32.025 34.933
5178 1 37.226 32.351 39.507
5179 1 48.641 -6.881 30.707
5180 1 50.421 -4.553 33.167
5181 1 50.743 -6.080 40.433
5182 1 43.698 -8.353 39.045
5183 1 43.858 -8.785 35.911
5184 1 44.708 -10.313 35.211
5185 1 -10.338 32.614 49.308
5186 1 -8.691 37.914 44.805
5187 1 -9.319 36.922 45.219
5188 1 8.080 41.611 49.300
5189 1 7.623 40.190 47.140
5190 1 7.391 41.931 56.255
5191 1 16.787 12.977 19.310
5192 1 14.727 11.761 27.646
5193 1 14.590 12.497 17.066
5194 1 32.893 42.120 49.242
5195 1 27.992 47.414 49.807
5196 1 25.172 47.197 45.415
5197 1 21.754 11.381 32.484
5198 1 19.996 16.373 34.384
5199 1 21.870 12.247 32.381
5200 1 15.092 24.031 27.515
5201 1 16.984 21.822 24.462
5202 1 17.134 25.736 25.471
5203 1 38.749 1.614 28.502
5204 1 35.809 2.265 22.303
5205 1 38.702 -2.989 26.958
5206 1 32.608 22.992 21.286
5207 1 29.797 19.906 15.501
5208 1 30.408 18.843 12.498
5209 1 13.080 28.931 3.772
5210 1 9.351 31.212 3.740
5211 1 11.930 35.867 5.296
5212 1 10.979 11.750 37.357
5213 1 9.181 15.316 30.793
5214 1 8.878 16.276 32.134
5215 1 20.149 8.604 41.354
5216 1 17.508 12.079 45.917
5217 1 16.819 14.761 40.688
5218 1 25.882 -3.055 29.069
5219 1 25.737 -3.824 25.868
5220 1 29.075 -7.872 31.706
5221 1 49.993 -5.809 40.603
5222 1 45.812 -5.385 40.300
5223 1 47.485 -5.821 40.038
5224 1 -0.956 -3.417 29.307
5225 1 -2.850 -2.553 32.255
5226 1 -5.057 -4.717 29.488
5227 1 15.626 17.444 45.334
5228 1 20.591 19.749 43.645
5229 1 19.273 19.754 46.939
5230 1 25.045 26.246 43.614
5231 1 24.097 23.934 43.074
5232 1 23.348 22.936 41.673
5233 1 17.818 3.267 31.138
5234 1 19.416 5.361 33.061
5235 1 22.360 7.045 31.987
5236 1 13.202 22.702 13.274
5237 1 12.164 19.462 10.933
5238 1 11.392 22.554 15.867
5239 1 13.662 27.412 41.947
5240 1 14.029 32.442 40.884
5241 1 15.722 34.777 43.031
5242 1 4.140 37.381 35.605
5243 1 5.018 34.184 40.256
5244 1 7.491 38.100 40.655
5245 1 37.149 9.082 30.928
5246 1 32.463 10.236 25.482
5247 1 38.554 7.996 23.172
5248 1 32.193 9.441 9.241
5249 1 30.805 8.170 17.422
5250 1 37.578 3.016 12.858
5251 1 14.483 3.706 22.271
5252 1 13.400 3.133 15.553
5253 1 14.715 5.704 13.967
5254 1 25.961 2.019 44.970
5255 1 24.453 2.826 45.811
5256 1 25.500 3.568 46.483
5257 1 60.239 48.560 11.473
5258 1 63.046 48.112 9.948
5259 1 58.021 52.374 7.905
5260 1 17.001 33.155 50.014
5261 1 14.076 33.739 54.714
5262 1 19.812 30.055 46.299
5263 1 30.196 12.718 49.056
5264 1 32.781 16.939 54.728
5265 1 34.890 13.525 50.872
5266 1 10.892 15.956 26.742
5267 1 7.691 9.121 28.832
5268 1 7.356 11.243 29.028
5269 1 -5.569 6.086 47.602
5270 1 0.899 7.766 51.799
5271 1 0.479 9.196 50.595
5272 1 24.829 14.826 36.722
5273 1 23.503 16.616 40.803
5274 1 20.578 10.237 38.137
5275 1 27.350 31.879 38.618
5276 1 28.504 29.939 35.337
5277 1 26.685 22.894 36.981
5278 1 19.182 21.491 44.867
5279 1 20.604 17.986 47.073
5280 1 20.230 19.104 51.630
5281 1 30.812 2.166 25.652
5282 1 34.838 3.588 19.916
5283 1 31.981 1.982 15.926
5284 1 28.400 18.207 28.761
5285 1 27.280 19.441 30.571
5286 1 31.211 16.990 27.809
5287 1 41.322 27.085 20.864
5288 1 38.213 24.902 26.551
5289 1 43.628 24.401 25.751
5290 1 19.031 -9.055 43.094
5291 1 20.081 -7.119 45.054
5292 1 19.297 -5.383 41.286
5293 1 20.698 19.030 28.906
5294 1 17.903 15.134 26.237
5295 1 18.592 18.227 27.033
5296 1 2.005 2.450 34.691
5297 1 3.008 2.375 32.854
5298 1 3.670 6.509 32.608
5299 1 30.499 9.916 46.259
5300 1 24.746 9.153 44.685
5301 1 23.886 6.150 42.570
5302 1 17.285 16.715 16.021
5303 1 12.573 15.109 20.886
5304 1 17.037 16.161 17.815
5305 1 30.356 15.519 11.676
5306 1 30.096 15.572 18.466
5307 1 27.438 17.621 12.704
5308 1 3.036 24.918 36.250
5309 1 0.911 27.997 33.446
5310 1 2.798 27.563 32.036
5311 1 27.925 64.672 14.685
5312 1 27.451 61.412 15.492
5313 1 33.027 59.434 14.953
5314 1 19.975 37.054 47.862
5315 1 18.317 39.461 50.675
5316 1 21.889 36.836 48.246
5317 1 16.344 7.073 21.922
5318 1 13.211 7.326 16.862
5319 1 15.289 5.243 21.474
5320 1 3.086 26.477 25.482
5321 1 3.811 28.338 24.904
5322 1 3.730 32.026 26.514
5323 1 -0.022 7.984 20.910
5324 1 -4.533 5.516 20.000
5325 1 -4.176 5.430 25.490
5326 1 30.218 13.625 29.014
5327 1 28.581 13.026 28.018
5328 1 27.801 13.828 29.701
5329 1 15.861 17.826 18.561
5330 1 18.080 16.789 15.230
5331 1 11.932 18.788 8.455
5332 1 17.665 33.531 60.775
5333 1 25.296 32.175 55.288
5334 1 20.745 32.864 55.853
5335 1 33.298 29.455 34.810
5336 1 31.682 35.736 33.187
5337 1 31.300 31.980 35.198
5338 1 19.453 17.336 43.318
5339 1 19.102 18.156 37.414
5340 1 17.189 17.969 44.269
5341 1 16.957 27.149 33.925
5342 1 17.601 26.000 29.815
5343 1 15.492 27.774 30.166
5344 1 34.600 -3.335 28.059
5345 1 30.831 -1.886 31.228
5346 1 34.378 -3.533 32.576
5347 1 10.295 25.924 45.160
5348 1 7.928 25.191 48.926
5349 1 7.275 31.374 46.578
5350 1 -8.735 11.649 25.080
5351 1 -6.682 16.218 19.883
5352 1 -9.899 10.088 22.904
5353 1 12.237 19.261 24.899
5354 1 8.056 15.898 25.104
5355 1 11.235 15.796 30.841
5356 1 1.728 33.263 25.659
5357 1 4.299 31.209 23.871
5358 1 1.694 32.231 26.292
5359 1 18.320 32.091 50.797
5360 1 18.163 35.837 53.395
5361 1 15.765 31.249 57.430
5362 1 3.277 30.671 49.007
5363 1 5.162 29.373 51.475
5364 1 6.007 29.516 51.070
5365 1 13.010 35.473 50.457
5366 1 9.989 36.549 47.735
5367 1 13.752 36.660 47.276
5368 1 20.006 12.774 45.015
5369 1 17.039 12.889 41.098
5370 1 18.596 11.606 39.724
5371 1 5.023 21.518 14.749
5372 1 5.657 22.431 15.893
5373 1 2.785 24.434 17.560
5374 1 8.239 52.298 33.359
5375 1 11.246 53.295 30.853
5376 1 10.898 52.433 31.591
5377 1 14.823 -2.758 28.198
5378 1 18.073 -2.073 33.448
5379 1 18.044 -1.608 29.425
5380 1 19.863 14.669 44.791
5381 1 24.526 19.468 40.608
5382 1 19.720 14.928 43.674
5383 1 26.522 35.878 21.300
5384 1 25.797 37.199 23.257
5385 1 18.801 36.429 25.279
5386 1 4.223 58.621 44.913
5387 1 0.803 56.277 43.166
5388 1 2.187 57.695 42.486
5389 1 28.429 17.607 40.031
5390 1 28.618 21.340 35.017
5391 1 23.282 21.707 37.843
5392 1 -5.321 36.671 29.250
5393 1 -5.342 36.654 27.182
5394 1 -3.415 33.033 29.765
5395 1 25.302 26.750 67.992
5396 1 26.724 23.987 68.712
5397 1 25.944 25.262 67.975
5398 1 17.609 -3.306 34.406
5399 1 18.629 -8.934 31.506
5400 1 20.464 -1.283 36.692
5401 1 45.331 26.667 43.719
5402 1 48.816 30.696 43.381
5403 1 50.281 33.528 45.413
5404 1 7.051 15.960 12.308
5405 1 7.660 12.393 14.915
5406 1 10.205 19.655 14.009
5407 1 15.684 32.673 34.735
5408 1 13.283 36.291 41.699
5409 1 17.894 38.324 43.667
5410 1 17.793 34.383 50.107
5411 1 15.855 39.098 50.886
5412 1 18.418 35.308 46.872
5413 1 19.425 42.311 29.569
5414 1 16.644 38.472 22.585
5415 1 21.336 42.966 30.798
5416 1 20.066 2.676 45.065
5417 1 23.297 6.293 48.057
5418 1 21.682 6.785 39.142
5419 1 44.631 43.314 25.932
5420 1 45.408 44.769 27.622
5421 1 42.204 41.875 24.843
5422 1 24.759 33.704 32.756
5423 1 23.204 33.485 34.761
5424 1 27.544 34.044 33.440
5425 1 6.791 18.248 29.726
5426 1 3.996 19.644 32.941
5427 1 6.384 20.330 31.142
5428 1 11.980 22.894 42.483
5429 1 11.823 20.490 42.194
5430 1 11.259 24.540 42.270
5431 1 -2.016 13.144 35.191
5432 1 -0.641 7.941 36.230
5433 1 -0.102 8.527 37.559
5434 1 19.300 1.674 32.191
5435 1 21.179 -0.636 23.148
5436 1 16.771 -3.313 26.959
5437 1 15.913 44.132 4.647
5438 1 16.736 41.236 8.883
5439 1 17.713 43.065 8.224
5440 1 7.155 42.384 29.388
5441 1 8.978 40.661 34.377
5442 1 6.572 43.605 32.152
5443 1 -2.313 23.354 48.065
5444 1 -2.385 26.129 47.378
5445 1 -4.793 23.515 50.634
5446 1 31.186 47.609 21.681
5447 1 31.935 41.226 34.603
5448 1 33.509 39.753 29.491
5449 1 -20.027 31.383 18.639
5450 1 -22.985 36.240 21.401
5451 1 -22.740 29.909 19.248
5452 1 24.267 17.092 20.178
5453 1 24.709 18.105 19.277
5454 1 21.632 22.186 17.839
5455 1 13.915 27.708 16.370
5456 1 14.982 24.520 25.590
5457 1 13.205 25.321 20.265
5458 1 10.386 19.366 55.425
5459 1 8.704 16.457 53.305
5460 1 10.226 19.186 50.895
5461 1 40.755 30.202 42.482
5462 1 43.293 27.389 49.537
5463 1 44.110 23.793 44.646
5464 1 4.575 33.923 40.122
5465 1 8.830 34.593 32.866
5466 1 5.492 40.306 33.265
5467 1 11.841 29.198 36.091
5468 1 13.282 34.098 33.354
5469 1 11.932 32.355 35.791
5470 1 2.152 23.341 49.501
5471 1 -1.240 25.541 50.365
5472 1 -2.151 21.186 54.404
5473 1 -1.197 10.692 47.722
5474 1 0.297 15.455 53.017
5475 1 -4.475 17.448 52.684
5476 1 9.246 40.683 36.289
5477 1 11.090 39.127 33.848
5478 1 11.135 40.009 29.876
5479 1 33.610 43.557 61.418
5480 1 31.099 37.096 56.065
5481 1 31.783 39.122 61.992
5482 1 20.299 23.561 25.066
5483 1 21.787 22.924 18.551
5484 1 21.168 24.810 25.168
5485 1 20.163 37.479 50.763
5486 1 21.441 46.311 48.596
5487 1 19.268 42.563 48.884
5488 1 34.425 38.921 33.892
5489 1 35.830 40.410 31.741
5490 1 37.136 39.005 28.200
5491 1 39.252 35.358 25.431
5492 1 40.115 34.933 20.949
5493 1 41.731 33.461 25.650
5494 1 23.315 41.498 22.398
5495 1 24.629 41.782 17.403
5496 1 23.867 38.886 16.261
5497 1 14.237 41.382 7.518
5498 1 14.878 38.622 4.305
5499 1 15.795 40.684 2.622
5500 1 22.552 27.855 55.377
5501 1 26.346 25.077 55.539
5502 1 29.830 27.366 51.219
5503 1 -4.535 58.915 46.078
5504 1 -5.885 58.664 52.049
5505 1 -5.062 57.780 39.540
5506 1 35.969 31.913 42.007
5507 1 39.245 32.669 40.280
5508 1 33.458 33.577 39.579
5509 1 13.509 0.038 38.758
5510 1 17.242 1.518 42.507
5511 1 15.041 1.581 41.980
5512 1 -2.472 48.470 38.426
5513 1 -2.188 52.244 38.187
5514 1 1.001 49.879 39.444
5515 1 3.234 30.009 58.643
5516 1 3.275 28.623 66.164
5517 1 5.442 31.095 60.865
5518 1 2.590 32.687 39.119
5519 1 2.246 30.637 44.406
5520 1 2.777 35.795 36.764
5521 1 -7.882 77.453 22.014
5522 1 -3.773 78.466 24.658
5523 1 -7.264 81.509 22.176
5524 1 26.606 30.812 48.363
5525 1 27.991 34.578 44.855
5526 1 27.697 36.460 43.228
5527 1 29.512 56.355 14.286
5528 1 29.768 57.433 17.542
5529 1 31.044 57.469 18.336
5530 1 30.889 23.268 48.409
5531 1 29.465 20.485 53.993
5532 1 27.074 22.366 51.813
5533 1 29.005 26.287 40.698
5534 1 29.645 27.583 35.326
5535 1 33.954 30.825 39.886
5536 1 36.382 16.569 19.867
5537 1 37.356 19.962 21.217
5538 1 38.853 20.208 20.266
5539 1 54.441 19.724 53.039
5540 1 54.990 19.554 58.877
5541 1 51.040 19.245 49.185
