ITEM: TIMESTEP
601000
ITEM: NUMBER OF ATOMS
5541
ITEM: BOX BOUNDS pp pp pp
-19.1 19.1
-19.1 19.1
-19.1 19.1
ITEM: ATOMS id type xu yu zu
1 1 2.831352 9.499033 6.649354
2 1 3.899907 5.369109 7.414332
3 1 1.682217 0.863635 1.110859
4 1 5.022358 3.875916 -0.007412
5 1 4.288099 7.496107 4.832679
6 1 4.080582 7.821280 3.207805
7 1 5.383938 3.852073 4.686778
8 1 8.497405 4.650931 1.338880
9 1 2.803089 7.160919 0.383829
10 1 5.262493 6.692840 0.520086
11 1 1.060152 -0.243776 2.341778
12 1 4.075270 5.404766 6.128603
13 1 7.198861 3.994465 -1.636868
14 1 4.584027 6.757729 0.188529
15 1 8.081144 6.833079 -0.489470
16 1 9.133448 6.469978 -0.297547
17 1 1.260975 -6.135674 -3.031493
18 1 2.089775 5.085856 -4.202776
19 1 2.327924 4.423760 1.632562
20 1 2.708045 3.017469 -1.894124
21 1 0.856766 7.629613 -1.224068
22 1 3.032991 3.933528 1.818656
23 1 6.946788 1.350395 0.821060
24 1 7.663515 2.596876 -2.270368
25 1 2.606363 -0.679527 0.716578
26 1 7.223616 -2.306296 4.593683
27 1 2.959367 2.344702 -3.075041
28 1 1.377581 1.587148 2.709276
29 1 4.284480 5.452410 -5.338470
30 1 5.311493 4.158900 -0.300389
31 1 7.907925 0.925682 -3.362600
32 1 5.084515 6.294865 -0.651447
33 1 1.358918 8.148940 1.998456
34 1 4.322410 5.472404 1.139066
35 1 5.624727 2.581925 -0.804481
36 1 -0.571935 4.936741 -2.289554
37 1 3.966738 -2.650107 3.554010
38 1 3.074627 -1.359026 0.849261
39 1 7.939272 -3.742330 2.973260
40 1 1.117160 -4.202212 1.678244
41 1 8.218361 -0.708626 1.151490
42 1 3.495041 4.544214 0.966338
43 1 3.814359 1.499682 2.710634
44 1 8.314409 1.705734 4.921405
45 1 5.431386 3.950639 -0.549607
46 1 6.339156 4.062435 -2.206579
47 1 5.943180 2.371357 1.646554
48 1 4.887062 -0.299909 1.804936
49 1 5.968375 0.994329 6.093381
50 1 8.276722 6.734415 -3.207441
51 1 10.160025 4.460335 0.937251
52 1 5.108167 7.900899 0.998704
53 1 5.692085 7.922771 3.688348
54 1 6.049088 2.777178 4.725501
55 1 8.557896 0.576451 6.733041
56 1 7.037037 2.632597 5.117597
57 1 3.283291 1.521289 3.753018
58 1 7.481921 1.788388 1.725451
59 1 4.624797 3.356921 -3.521391
60 1 4.504426 4.079332 5.539657
61 1 28.879602 -0.545427 11.629674
62 1 30.388511 3.570509 9.116020
63 1 31.475491 5.859302 12.066913
64 1 29.268525 2.517595 14.471128
65 1 30.951681 2.575073 9.250698
66 1 29.252081 -1.061501 6.345894
67 1 31.742882 3.114943 10.694806
68 1 30.885541 4.979291 16.141093
69 1 28.928605 2.803077 10.690325
70 1 26.668490 2.540598 13.496865
71 1 28.230089 -3.109371 13.197313
72 1 31.663086 4.868945 12.102488
73 1 31.001250 1.875864 11.703851
74 1 29.424157 -0.034392 9.302570
75 1 30.102823 5.932225 14.730345
76 1 33.353176 5.599478 13.496397
77 1 28.379743 5.548485 13.400337
78 1 28.042140 4.238581 18.230591
79 1 26.552029 3.916466 17.368869
80 1 28.635920 2.102349 13.251673
81 1 30.465939 4.337697 16.338350
82 1 28.011247 0.488394 12.705388
83 1 27.679657 5.647428 16.195381
84 1 31.522024 5.282310 12.346989
85 1 28.841240 4.014639 7.066694
86 1 29.975875 6.506933 16.245909
87 1 29.826638 -1.973167 13.453973
88 1 29.109935 6.450217 14.642115
89 1 29.612952 6.312921 7.616864
90 1 31.516803 7.956201 11.520426
91 1 31.724208 5.852589 15.771518
92 1 29.310780 1.683716 4.707924
93 1 28.171314 5.889678 10.364642
94 1 28.343402 4.204858 6.488370
95 1 27.997955 5.026837 11.328094
96 1 34.364101 2.800129 15.438764
97 1 29.680193 7.920455 8.637851
98 1 28.680944 5.110218 10.553533
99 1 28.509131 6.444679 12.758485
100 1 29.380889 4.561414 14.750763
101 1 31.954728 5.825843 12.520484
102 1 31.266919 7.328685 10.920844
103 1 29.590103 5.877198 13.223406
104 1 29.190590 10.948939 18.251482
105 1 31.062002 5.621139 12.986796
106 1 26.312264 1.487163 15.177354
107 1 30.508525 8.288469 13.526322
108 1 31.846478 8.568782 14.016921
109 1 26.904027 6.753840 12.541416
110 1 31.579831 4.160214 6.731400
111 1 27.647856 6.357777 14.931198
112 1 27.834218 4.460442 20.992562
113 1 29.180998 1.579571 5.744873
114 1 29.861467 9.584823 14.177126
115 1 30.575713 4.237348 15.694822
116 1 28.310668 8.369227 18.545261
117 1 25.740713 9.847622 15.537786
118 1 27.641055 7.944745 14.445254
119 1 24.686108 8.242009 16.974877
120 1 30.004967 3.784720 16.909236
121 1 10.221852 8.202340 17.785251
122 1 10.208891 11.998639 15.773589
123 1 12.480508 11.472410 14.654927
124 1 9.848922 12.565981 16.377795
125 1 11.399047 11.819361 19.992994
126 1 11.658499 16.891455 15.838867
127 1 12.491574 15.862182 13.039145
128 1 10.686550 15.851956 15.885657
129 1 15.033554 10.815772 12.319147
130 1 16.702921 7.276429 12.261155
131 1 13.311061 10.702978 13.690141
132 1 11.933860 10.205614 14.298278
133 1 12.954455 10.572922 11.387219
134 1 14.463156 12.045888 12.028875
135 1 12.996434 16.214775 10.051504
136 1 13.142124 12.700023 12.820602
137 1 10.890308 9.255056 8.571839
138 1 12.926284 12.532221 11.758458
139 1 12.755220 13.594774 10.724074
140 1 12.503090 8.822681 11.221077
141 1 16.269055 11.712655 12.384704
142 1 15.694943 10.938876 9.092085
143 1 15.722931 12.256591 10.574407
144 1 16.745843 12.832881 13.148214
145 1 10.972424 9.580532 13.836215
146 1 15.011714 5.402660 10.651628
147 1 11.483519 12.868104 6.198793
148 1 11.494627 14.759602 9.113669
149 1 13.424376 11.524561 7.938117
150 1 13.076087 11.084553 14.365743
151 1 13.403401 12.827722 11.641124
152 1 14.800404 8.942282 7.728262
153 1 9.396839 10.633991 12.804658
154 1 9.473939 13.611824 16.331755
155 1 14.352371 13.921516 12.770589
156 1 13.844193 8.067988 14.363869
157 1 13.145033 10.167700 12.838172
158 1 10.231060 11.353368 17.448319
159 1 12.114075 4.316439 14.840502
160 1 12.247310 13.002812 13.814282
161 1 14.441367 12.403929 9.881050
162 1 10.287374 6.461697 15.121492
163 1 14.035565 12.827329 10.616608
164 1 8.312330 9.131741 12.523863
165 1 15.763198 14.013854 12.500015
166 1 17.512252 9.988511 16.551691
167 1 13.533477 11.229832 12.561250
168 1 16.147511 10.039418 17.060614
169 1 12.921782 11.968377 13.435117
170 1 11.749099 9.295561 11.659918
171 1 13.782673 13.049836 13.468434
172 1 11.140345 16.503844 10.344447
173 1 12.253865 9.705339 11.655613
174 1 10.116143 9.144181 14.438841
175 1 13.448327 10.957634 21.289685
176 1 14.371295 12.915754 14.842927
177 1 12.333724 13.084327 7.269988
178 1 13.045948 11.595379 12.120502
179 1 12.114626 13.996318 11.856673
180 1 12.912203 8.172264 13.000670
181 2 -6.865646 0.812800 8.569266
182 3 -7.894694 4.891385 13.950229
183 3 -5.086829 4.276259 6.912647
184 2 -18.447010 -18.667246 21.930867
185 3 -16.940137 -23.138746 23.137798
186 3 -17.130856 -16.949998 23.834897
187 2 -10.613442 25.135931 25.221731
188 3 -11.915370 23.995397 23.765200
189 3 -6.433191 24.826587 24.383844
190 2 13.118838 40.763324 -20.286698
191 3 19.151297 34.126389 -19.601355
192 3 13.989496 32.919418 -18.621467
193 2 -0.409727 -6.723403 8.911574
194 3 3.913133 -5.865921 13.311679
195 3 1.658324 -9.195622 9.753200
196 2 -24.140838 10.745653 -31.187431
197 3 -24.845195 10.412608 -26.851530
198 3 -24.974953 11.544547 -25.055232
199 2 9.546577 -8.651398 3.380915
200 3 6.645011 -8.719632 9.151200
201 3 5.374322 -5.972253 5.258196
202 2 18.360968 -2.052605 23.982908
203 3 22.238863 -0.039817 21.268333
204 3 20.552979 -2.884880 19.445977
205 2 -2.464456 24.055562 1.241399
206 3 1.594966 21.210581 5.540015
207 3 -3.648508 20.799561 7.990860
208 2 31.773034 11.862698 10.679977
209 3 34.185183 14.123541 11.487997
210 3 34.967860 8.729043 10.813633
211 2 29.094766 -12.336080 10.186917
212 3 29.012534 -18.733811 4.721826
213 3 30.548583 -17.319386 5.068371
214 2 60.093866 33.194869 -1.095776
215 3 59.184632 30.074103 -0.681025
216 3 60.522734 30.756979 -0.195631
217 2 33.735450 13.990377 28.278740
218 3 36.503776 10.868924 24.996333
219 3 37.013072 16.366287 22.309209
220 2 -0.644113 16.607725 -10.795966
221 3 1.120867 15.040165 -9.386790
222 3 0.530612 12.383803 -10.457416
223 2 -11.257491 -25.417618 -6.862363
224 3 -12.303433 -26.382185 -4.883974
225 3 -9.925012 -30.883561 -4.411742
226 2 -1.227634 -2.163836 26.453359
227 3 4.109424 -3.496796 31.831384
228 3 1.094125 -0.180804 24.953791
229 2 33.498238 3.941971 -11.900800
230 3 31.416699 10.898433 -11.576583
231 3 33.190640 8.083279 -14.260372
232 2 7.179929 35.091070 5.512992
233 3 8.528855 38.197967 5.083953
234 3 10.142539 40.685814 3.099661
235 2 -3.276830 29.741005 11.829313
236 3 -5.353560 31.577263 13.721329
237 3 -4.359914 27.165147 16.004951
238 2 -2.883895 28.710430 -2.166093
239 3 -2.184483 27.726587 -3.015550
240 3 -0.496670 27.236758 5.670448
241 2 5.937636 -34.210757 -3.880127
242 3 5.149829 -33.477123 -1.053583
243 3 2.587471 -33.417918 -8.757549
244 2 14.200215 9.412076 0.977839
245 3 17.029236 6.767689 0.907046
246 3 9.863161 3.913643 -0.282126
247 2 27.432318 27.379770 -14.700189
248 3 26.927490 26.821014 -18.769602
249 3 27.595387 28.824387 -19.979975
250 2 64.515577 -2.589514 -5.542542
251 3 65.532227 2.309776 -9.772906
252 3 67.104313 0.004563 -0.314327
253 2 13.657820 -16.595172 -7.930112
254 3 11.875898 -11.976430 -5.614254
255 3 15.760301 -16.112045 -4.572172
256 2 13.623849 7.185435 26.010597
257 3 16.010878 6.820431 28.872161
258 3 8.808301 2.302010 30.467984
259 2 -2.056701 27.374678 1.801184
260 3 -8.025041 28.288360 1.889626
261 3 -5.034134 30.992124 -3.233475
262 2 42.362600 26.161935 -25.536042
263 3 38.043710 23.932798 -23.218723
264 3 40.395952 28.312687 -25.093450
265 2 -23.050985 22.521730 -22.877449
266 3 -26.997492 22.316059 -21.354102
267 3 -24.479659 26.730263 -19.346347
268 2 -25.422596 55.671664 20.506751
269 3 -32.170614 58.179664 16.824896
270 3 -27.201858 54.683948 22.971015
271 2 -12.818980 -6.933469 19.864820
272 3 -9.434260 -3.138077 22.407566
273 3 -12.124432 -3.318596 24.316586
274 2 16.980088 -15.440304 -14.892733
275 3 14.400117 -18.879129 -7.919172
276 3 19.140225 -13.715192 -14.689909
277 2 -1.711409 -2.861285 -23.179051
278 3 -0.552545 0.681382 -21.336864
279 3 -1.861135 -0.385184 -19.786296
280 2 -8.239480 61.963432 -5.449224
281 3 -5.088721 70.277564 -6.497238
282 3 -3.331700 65.625152 -3.768724
283 2 23.336799 9.546166 -8.558529
284 3 23.436378 11.549063 -9.286991
285 3 22.911056 10.278387 -7.206029
286 2 -5.479472 -8.869961 20.603980
287 3 -1.429398 -13.347495 26.454989
288 3 -1.334158 -5.929490 24.293724
289 2 46.103004 -4.762193 16.638352
290 3 49.702749 -6.474178 16.524800
291 3 46.628489 1.297664 7.935185
292 2 32.343515 16.578186 23.785872
293 3 30.510137 18.289326 22.639622
294 3 32.409870 12.995877 18.784643
295 2 35.562984 34.099071 -36.270655
296 3 33.213024 27.956092 -32.011910
297 3 35.476270 33.189033 -36.707273
298 2 -12.882264 39.642048 7.049661
299 3 -15.416739 41.127301 7.792812
300 3 -11.128272 38.949156 7.487025
301 2 -23.726797 4.662738 0.900897
302 3 -22.057700 4.671666 3.643577
303 3 -20.493780 4.148269 3.721084
304 2 14.829122 -23.968151 -6.352510
305 3 12.534201 -27.729284 -6.858980
306 3 8.889728 -25.015917 -1.586900
307 2 -12.754273 21.889946 5.406273
308 3 -10.751295 19.030405 4.462142
309 3 -5.890925 23.587492 6.437181
310 2 13.096032 22.013373 -13.874798
311 3 15.253194 21.803507 -17.537771
312 3 14.089931 18.728080 -19.378204
313 2 25.332213 8.792040 5.633087
314 3 26.744810 8.677050 -1.144712
315 3 25.970114 10.006241 7.242243
316 2 32.784486 -13.166621 7.963980
317 3 29.369117 -13.592474 2.720414
318 3 32.132224 -17.144731 9.885875
319 2 17.020995 14.328206 0.830587
320 3 15.771564 17.418615 -3.574665
321 3 15.248592 12.995329 -4.361315
322 2 15.360695 -0.024614 10.938221
323 3 16.725183 -9.061573 8.384456
324 3 18.282521 -8.502133 15.547048
325 2 11.385723 16.740344 10.205896
326 3 11.248687 18.024631 9.096799
327 3 11.215960 16.075984 17.796995
328 2 10.311159 15.415552 -26.535632
329 3 5.559724 21.383852 -24.922361
330 3 8.459939 18.493990 -24.608728
331 2 3.889011 -18.845714 -17.996179
332 3 0.996728 -24.084023 -20.931950
333 3 1.538609 -23.959918 -23.605328
334 2 25.551930 22.758576 -4.999554
335 3 25.074069 20.755269 -3.391121
336 3 33.193789 19.395545 -5.026221
337 2 -25.616631 34.031137 -15.412693
338 3 -23.676421 29.570238 -16.873761
339 3 -26.037697 36.668264 -12.150184
340 2 -12.753195 24.208788 43.358628
341 3 -11.514834 31.427591 46.268181
342 3 -14.001034 29.957958 48.834633
343 2 30.130573 19.051123 -6.985667
344 3 31.085670 17.015864 -8.500094
345 3 28.741953 19.365910 -8.194289
346 2 13.622696 20.357873 21.998532
347 3 14.503793 21.605910 21.560114
348 3 13.943420 19.545585 19.548016
349 2 37.986956 -10.964515 -6.812691
350 3 42.178734 -9.424794 -1.507258
351 3 42.338082 -9.218221 -7.094325
352 2 42.991165 3.071083 4.351454
353 3 40.998258 1.334140 12.244611
354 3 44.594442 -1.109442 10.550347
355 2 2.091613 33.970879 24.043696
356 3 3.710278 29.041775 26.180148
357 3 3.636625 30.735692 25.649599
358 2 50.320029 3.874714 -8.841410
359 3 50.713200 2.505702 -13.239779
360 3 47.489116 0.577886 -10.720750
361 2 -2.246386 26.258001 20.320548
362 3 -0.672764 21.683796 19.353178
363 3 0.452030 23.757758 20.147468
364 2 8.729640 35.725325 18.526107
365 3 9.590924 33.521218 14.876260
366 3 7.620594 30.339601 15.083746
367 2 47.982238 34.552509 -6.370461
368 3 45.392676 33.682039 -11.077904
369 3 44.441512 31.616028 -10.824684
370 2 57.596967 8.013037 30.916726
371 3 57.988105 11.164942 28.101064
372 3 57.498634 6.837155 32.216696
373 2 40.967120 3.935341 -1.016350
374 3 39.990689 7.811343 2.181746
375 3 41.207526 4.526078 0.886625
376 2 -26.522793 55.277922 -8.921405
377 3 -29.952978 51.425563 -8.915256
378 3 -31.719619 51.546859 -9.978334
379 2 9.413877 6.513443 -0.966683
380 3 10.002529 9.049938 0.877491
381 3 6.202573 10.979758 -6.245794
382 2 27.017653 6.111683 4.389158
383 3 29.153941 9.045701 7.203314
384 3 27.964813 5.493692 7.978604
385 2 14.669954 34.750335 -1.386828
386 3 13.606848 40.746568 0.955820
387 3 14.169085 31.845601 8.123096
388 2 -6.158220 5.260262 12.500247
389 3 -9.479801 5.097175 14.175461
390 3 -8.398727 2.499814 9.091470
391 2 11.480956 19.901542 -6.469761
392 3 13.937678 21.312358 -7.786151
393 3 14.904317 19.826318 -8.428024
394 2 10.858852 59.005724 9.695440
395 3 6.109362 60.702868 10.309606
396 3 8.777025 63.233853 10.065385
397 2 18.862333 58.502078 -12.501674
398 3 18.761287 53.164504 -11.025644
399 3 21.404742 52.560871 -10.793383
400 2 9.963042 36.610661 40.787278
401 3 14.525557 41.011805 36.207819
402 3 14.006537 39.624177 41.557267
403 2 6.664952 16.237040 0.625461
404 3 2.292667 17.917205 -2.694756
405 3 3.651621 14.665563 -0.820607
406 2 45.774638 31.879076 -18.334775
407 3 44.150873 30.172035 -20.083194
408 3 43.189276 33.977333 -19.991890
409 2 5.782758 11.785620 -12.441143
410 3 9.617320 10.686307 -9.697378
411 3 9.226429 11.751441 -11.106435
412 2 39.196704 4.151562 -13.378017
413 3 41.925112 4.091972 -14.308925
414 3 38.744577 5.835015 -15.279174
415 2 -17.640688 -22.710263 4.727769
416 3 -12.496111 -17.253548 6.549138
417 3 -15.398254 -21.375638 9.736130
418 2 -9.463442 33.011804 7.872292
419 3 -9.365867 33.406584 14.294992
420 3 -10.533100 36.082795 6.655598
421 2 -1.957180 43.103004 2.728374
422 3 0.169857 46.344109 7.247941
423 3 4.952405 42.588026 6.524493
424 2 17.495921 -12.387630 23.433360
425 3 20.406566 -15.002923 22.894922
426 3 18.326905 -14.693933 21.908227
427 2 -30.421576 48.561954 2.712194
428 3 -32.782137 50.641174 4.314992
429 3 -32.974437 54.647325 0.563187
430 2 37.307348 1.100307 8.536193
431 3 39.801746 4.392419 8.200898
432 3 34.398961 1.147456 8.835104
433 2 54.586209 2.232502 21.470216
434 3 53.958555 0.877927 24.176696
435 3 50.891379 3.906250 23.002420
436 2 1.378339 22.262024 31.955239
437 3 0.671288 18.982422 32.832799
438 3 -1.053252 21.143086 27.846267
439 2 8.729448 19.774765 -32.635218
440 3 5.678668 16.742460 -33.033351
441 3 5.004653 15.107871 -33.970980
442 2 16.450523 19.985205 27.420477
443 3 18.311580 22.707698 31.731069
444 3 18.764715 17.621384 32.042911
445 2 26.649081 23.826808 3.265448
446 3 27.290371 23.441685 4.962571
447 3 29.300782 21.916547 7.086273
448 2 12.662005 21.855126 -41.467615
449 3 15.646583 25.894718 -42.114163
450 3 19.179168 25.095418 -41.023108
451 2 27.391690 40.957391 9.480729
452 3 26.064147 47.410564 7.560643
453 3 30.007900 46.193771 6.138201
454 2 10.963577 -13.156742 -2.908277
455 3 16.091418 -14.805096 -3.153881
456 3 14.108054 -11.351692 -0.447889
457 2 43.715861 41.720205 0.115811
458 3 44.254997 42.616956 -0.664028
459 3 43.317540 37.730563 2.189130
460 2 -25.683997 29.528195 -4.537050
461 3 -25.273727 28.374047 -8.184076
462 3 -22.469649 29.533029 -4.364611
463 2 -15.979091 29.157795 38.865756
464 3 -13.909693 32.894289 38.199151
465 3 -15.864243 30.415194 33.288421
466 2 20.111997 -24.755767 -23.324852
467 3 19.132449 -28.740970 -16.260490
468 3 17.798831 -28.160231 -15.755981
469 2 13.924660 6.603591 -4.490911
470 3 13.027024 6.006918 -5.492939
471 3 13.025769 7.569839 -4.858868
472 2 -0.011931 9.586998 10.468424
473 3 3.980402 11.397185 9.221413
474 3 -3.332586 3.512883 6.938937
475 2 18.483093 3.785004 38.406244
476 3 18.602690 3.025776 39.988037
477 3 21.544118 7.332798 43.737139
478 2 32.694898 26.791902 1.543091
479 3 38.592856 23.591774 5.606994
480 3 38.323316 24.391874 -3.144101
481 2 10.659886 12.293631 20.851410
482 3 11.006120 12.201135 16.303584
483 3 10.679085 5.958275 20.184220
484 2 27.419838 28.899794 -7.745465
485 3 28.210960 29.469125 -1.034652
486 3 27.312027 32.113725 -6.509686
487 2 17.918012 29.142766 -1.760238
488 3 16.318168 30.007033 -7.349558
489 3 14.638115 29.031172 -6.355944
490 2 43.782617 40.695119 -8.434637
491 3 39.252688 39.952796 -4.410150
492 3 41.704525 38.340745 -6.660914
493 2 33.664561 14.629685 2.218255
494 3 38.539693 10.052594 4.556733
495 3 37.132179 12.384242 2.355596
496 2 -36.853519 21.722407 -5.465716
497 3 -36.703171 24.037128 -4.462161
498 3 -37.648391 25.328009 -1.143992
499 2 -24.957794 31.206297 11.952682
500 3 -26.012887 31.067298 12.813379
501 3 -28.694394 31.642471 4.694053
502 2 12.800477 9.935041 8.686736
503 3 10.868719 11.824460 8.366630
504 3 15.769183 12.498943 1.816707
505 2 7.506597 -1.194810 -0.983441
506 3 7.752680 1.034934 -6.329953
507 3 7.072232 1.477145 -12.875102
508 2 26.864376 43.816171 -8.203227
509 3 27.615698 40.974553 -4.944332
510 3 29.480266 35.290003 -9.062275
511 2 -0.169461 31.521453 34.367712
512 3 -1.140098 31.905508 35.952169
513 3 -3.159798 34.148446 36.221708
514 2 -0.282583 60.977932 -2.144535
515 3 -4.764496 63.485480 -3.700061
516 3 -0.563069 59.309524 -4.605026
517 2 32.653389 37.761606 42.553768
518 3 27.373433 41.154497 44.036657
519 3 28.646397 37.632368 45.201699
520 2 40.111136 7.702661 11.850008
521 3 35.710751 7.966240 10.264663
522 3 37.780726 5.966186 10.839370
523 2 5.261317 19.543372 13.269835
524 3 9.588217 19.204773 17.183423
525 3 6.792481 18.806993 10.040562
526 2 9.419109 11.373699 13.470581
527 3 11.400168 10.396070 10.515287
528 3 6.298979 13.712625 6.056202
529 2 30.914717 18.062987 -18.593180
530 3 28.747329 21.485947 -8.560552
531 3 33.997672 18.065606 -13.211652
532 2 11.603587 53.583473 -10.781166
533 3 8.954804 48.587509 -17.106539
534 3 12.910807 49.101341 -12.114545
535 2 24.779043 59.112785 -24.632572
536 3 22.500003 61.260762 -27.734081
537 3 21.847368 60.479045 -24.517715
538 2 22.199526 4.587179 10.013646
539 3 18.334671 -0.211633 15.312679
540 3 18.911201 -6.894799 10.751236
541 2 35.512648 26.099106 19.143998
542 3 32.512452 27.383554 20.238941
543 3 35.257322 24.025458 17.826710
544 2 -0.177537 40.990677 11.441629
545 3 0.596780 36.613257 9.027375
546 3 5.014773 38.032233 11.344800
547 2 -3.802463 -5.811309 12.399786
548 3 -3.089779 -5.024815 15.778690
549 3 -5.036484 -4.405027 12.699858
550 2 44.255546 39.898034 -14.698044
551 3 41.429810 41.709887 -8.237635
552 3 43.920580 40.163933 -11.985261
553 2 4.677345 21.633688 25.945782
554 3 6.270924 21.281693 16.959518
555 3 2.047503 22.920374 22.955628
556 2 16.716310 34.188864 -25.474704
557 3 13.452794 32.554475 -26.197762
558 3 15.221357 34.438835 -19.797187
559 2 -11.124710 12.709389 7.860432
560 3 -6.853177 11.112453 7.698003
561 3 -5.711297 14.735775 7.841323
562 2 11.755329 24.017419 19.079921
563 3 11.367544 19.430691 14.586855
564 3 8.485060 25.969842 15.263810
565 2 26.806759 72.899729 -6.632692
566 3 31.034760 77.535397 -8.247283
567 3 30.361519 72.451769 1.263142
568 2 2.753645 58.084910 0.296714
569 3 11.391106 54.342672 -1.504389
570 3 6.093394 51.707398 -5.276479
571 2 14.576945 48.089004 -3.930844
572 3 13.671388 45.973389 -2.174184
573 3 13.788630 48.776086 -5.489839
574 2 -3.101023 53.479381 10.807652
575 3 -4.353790 53.927276 12.889294
576 3 -4.104207 50.951460 17.946925
577 2 -14.409714 29.526025 17.549238
578 3 -13.972406 24.132518 21.233023
579 3 -15.296301 24.477234 20.792133
580 2 37.819648 -6.077500 21.999113
581 3 37.311067 -7.218818 25.629274
582 3 36.229804 -3.923610 23.854495
583 2 -8.095082 13.308395 31.159504
584 3 -7.269810 14.934549 36.367093
585 3 -10.234133 14.016993 29.147394
586 2 12.421254 24.726212 -5.201690
587 3 10.676275 27.507563 -1.368771
588 3 15.898023 26.979486 0.285184
589 2 57.202908 57.902125 -1.684874
590 3 55.497350 62.270103 2.528606
591 3 56.454997 51.429572 2.323212
592 2 38.013920 -5.478647 -0.484179
593 3 37.280566 -3.020725 -6.865323
594 3 42.887726 -3.717457 -1.565810
595 2 25.891262 43.259934 -11.240791
596 3 26.470659 43.113672 -8.672999
597 3 26.522384 44.031171 -12.586925
598 2 39.325271 -6.517385 1.077713
599 3 38.897373 -8.244185 -4.450864
600 3 38.026951 -9.019835 0.698202
601 2 15.463658 61.998231 18.671594
602 3 14.023347 62.308588 21.982515
603 3 15.860497 59.138978 16.010127
604 2 35.904605 1.291205 -9.692069
605 3 31.680659 6.638541 -6.773161
606 3 35.698774 4.950027 -15.688360
607 2 25.656082 20.671486 29.726928
608 3 27.223836 18.784031 22.227349
609 3 29.020856 15.028063 25.259495
610 2 -10.178004 17.939030 -46.406906
611 3 -14.548649 14.186034 -42.521190
612 3 -8.225925 15.393601 -51.357014
613 2 -0.121743 39.967178 19.728979
614 3 -0.899656 36.424576 15.073284
615 3 -0.857804 38.500793 19.600157
616 2 35.190269 40.356447 -8.718180
617 3 32.822057 40.734690 -11.929979
618 3 35.152942 37.977961 -13.184018
619 2 20.123940 5.150514 -6.262373
620 3 18.038181 5.509538 -9.160152
621 3 20.715580 4.658121 -8.055964
622 2 38.322028 48.554236 16.378446
623 3 39.301209 50.748366 13.027099
624 3 38.598429 50.917763 16.888561
625 2 17.895131 19.234131 -20.854517
626 3 15.581299 23.356884 -18.786609
627 3 18.978823 23.600728 -15.987492
628 2 17.479290 43.962504 11.539033
629 3 23.566476 48.259592 12.478678
630 3 22.570204 46.650213 4.132153
631 2 -5.241063 42.527275 5.480912
632 3 -4.290100 48.247332 1.470838
633 3 -5.600631 44.847956 1.756942
634 2 31.245793 17.621029 11.573109
635 3 31.988970 11.672542 6.788605
636 3 32.493456 15.506415 9.104938
637 2 20.770179 51.163031 3.793207
638 3 20.352730 54.248030 6.221258
639 3 20.636211 53.532417 9.786089
640 2 11.398700 52.058750 -13.811912
641 3 13.175772 47.373281 -9.782383
642 3 13.293508 49.436387 -11.243227
643 2 68.096646 29.520324 10.884026
644 3 69.290794 30.704779 13.987716
645 3 66.282113 33.476720 18.483998
646 2 17.064414 -2.059048 18.075815
647 3 17.404027 0.763741 22.509536
648 3 16.621521 -4.089312 17.002091
649 2 7.531018 48.115747 5.667782
650 3 10.096330 45.715372 4.855272
651 3 9.470703 46.074575 2.302650
652 2 5.941076 39.549978 -33.463862
653 3 7.635054 38.844855 -31.372156
654 3 6.963834 35.376486 -27.292319
655 2 -14.595056 46.060331 -36.358891
656 3 -19.993007 48.702896 -34.409665
657 3 -18.535871 50.359895 -35.356999
658 2 4.316790 53.307105 2.516251
659 3 4.272518 52.161010 3.040827
660 3 5.832869 50.590823 1.488767
661 2 -13.466666 19.164195 7.506846
662 3 -12.561203 22.189526 9.825867
663 3 -13.263406 20.286821 10.805955
664 2 7.470845 9.006971 -29.811735
665 3 9.287831 10.304476 -31.445677
666 3 6.539178 16.687245 -29.074963
667 2 24.669989 27.970689 -16.765099
668 3 28.524375 32.317493 -22.044787
669 3 26.922207 33.502305 -20.047646
670 2 21.281275 56.833385 32.271589
671 3 25.140108 62.371219 34.395011
672 3 23.159433 59.354229 36.700668
673 2 3.212508 23.608521 -7.914995
674 3 2.988879 26.708039 -8.994243
675 3 1.706818 26.937910 -6.541550
676 2 28.554851 22.259228 25.494897
677 3 29.296485 20.871703 24.380344
678 3 30.271353 22.763577 29.298299
679 2 0.864666 32.534864 5.988382
680 3 4.227208 31.994373 7.224674
681 3 3.353709 31.594776 12.258270
682 2 14.750603 33.352055 -22.114410
683 3 15.108197 32.949436 -21.708163
684 3 9.659701 32.675081 -22.401676
685 2 -8.210812 31.997694 5.828236
686 3 -9.383280 26.926675 2.116532
687 3 -11.799390 28.229732 1.983390
688 2 -17.231318 -12.593344 14.817203
689 3 -13.706270 -11.990821 17.525007
690 3 -14.456919 -15.945504 14.719536
691 2 -11.740877 15.986608 32.047664
692 3 -8.316367 10.601133 29.753466
693 3 -8.643146 16.227683 29.577807
694 2 13.612431 7.762143 2.023153
695 3 18.607289 8.673876 7.151485
696 3 12.394798 11.100769 -1.168920
697 2 -4.401181 39.900997 8.137439
698 3 -2.675194 41.416659 9.679707
699 3 -1.947917 43.393477 6.996080
700 2 -8.343674 9.257347 8.131600
701 3 -6.219550 11.349724 9.021846
702 3 -4.798627 11.532353 5.663056
703 2 12.573211 10.758428 20.115127
704 3 13.401086 10.831475 20.744557
705 3 14.077723 11.660224 19.255653
706 2 -30.050340 5.367397 18.919081
707 3 -28.734081 4.324006 16.037098
708 3 -28.298736 8.562381 11.769315
709 2 9.632971 -7.356089 11.314383
710 3 13.007932 -9.373348 11.392629
711 3 10.787887 -13.509223 13.431449
712 2 22.296797 28.484190 -13.964003
713 3 22.579945 32.095470 -11.260207
714 3 18.056900 33.160830 -21.938215
715 2 38.161475 11.509386 -12.619771
716 3 41.870897 10.343028 -5.746751
717 3 39.358995 7.832104 -11.761637
718 2 18.887009 -17.814464 13.018548
719 3 19.304914 -21.219152 14.190837
720 3 19.519680 -19.660299 15.316046
721 2 39.866164 33.245708 -3.414036
722 3 43.956238 31.460735 -7.396271
723 3 37.928410 32.728186 -7.212439
724 2 -6.713766 53.241723 -22.259362
725 3 -5.619130 50.158368 -18.193696
726 3 -8.127038 51.979395 -18.493640
727 2 -27.653392 3.407356 -3.270819
728 3 -29.423774 4.588783 -3.096844
729 3 -30.340705 4.692638 -4.526477
730 2 15.875557 12.395063 -14.762058
731 3 15.234959 6.618868 -9.259228
732 3 15.252333 10.763975 -13.773313
733 2 24.319658 -3.211293 15.341030
734 3 25.580844 -2.988883 17.748334
735 3 18.935611 -4.372040 16.247806
736 2 5.974854 27.664861 4.676093
737 3 5.364284 25.856909 13.429628
738 3 6.818707 32.642729 13.953253
739 2 3.954607 17.961696 29.924168
740 3 6.104855 24.413648 39.194437
741 3 2.598618 21.677926 32.401245
742 2 43.263729 -32.235169 39.335559
743 3 38.224022 -31.661701 34.431834
744 3 41.134557 -30.336044 36.262964
745 2 65.379494 20.401763 11.766985
746 3 64.814107 21.519395 6.355438
747 3 64.065340 24.127836 5.973381
748 2 -26.603568 -8.598563 28.095933
749 3 -30.120214 -9.757389 31.265824
750 3 -33.283662 -7.553051 26.681662
751 2 14.257303 -1.580161 9.341684
752 3 17.594252 -0.885070 10.901652
753 3 17.668659 -5.791698 4.668706
754 2 14.290205 -18.371819 7.091714
755 3 12.308428 -26.077423 6.739059
756 3 15.132955 -26.268339 5.714968
757 2 16.893262 17.241686 12.838547
758 3 20.061338 14.107878 9.552106
759 3 20.505218 15.176352 14.900652
760 2 18.629878 25.594786 4.872189
761 3 17.242736 28.971773 -3.335492
762 3 17.575290 29.041482 2.494607
763 2 25.706865 -8.618862 3.820039
764 3 21.894408 -5.587523 5.231532
765 3 23.234055 -3.290069 8.485688
766 2 -4.934256 -5.001679 18.951981
767 3 -6.246379 -6.784775 20.200973
768 3 -5.555050 -1.590849 23.891874
769 2 73.128177 11.282268 -8.330604
770 3 69.858391 10.046418 -9.111428
771 3 66.477780 10.444387 -9.059728
772 2 -4.854084 32.618798 -11.259275
773 3 -5.748252 38.390332 -8.948204
774 3 -4.858578 32.568290 -9.732372
775 2 5.731359 22.338466 15.744394
776 3 7.377706 20.307774 15.479841
777 3 6.359663 20.804756 19.349665
778 2 23.264703 11.267957 12.742143
779 3 21.989217 14.882838 13.128087
780 3 23.844628 13.001993 14.214556
781 2 -11.319829 -9.019164 22.440632
782 3 -10.840418 -8.934661 20.696697
783 3 -13.431210 -6.258610 18.064633
784 2 5.337758 6.878809 5.723959
785 3 3.412451 8.702345 4.821892
786 3 9.187027 6.835532 10.349474
787 2 -10.025055 30.175502 27.026246
788 3 -8.412343 27.700370 23.890254
789 3 -13.803367 30.877070 21.934997
790 2 13.558459 -39.976240 -17.747524
791 3 12.655378 -36.244440 -25.572950
792 3 8.257092 -35.788741 -23.795201
793 2 17.021100 7.060443 22.576485
794 3 18.551319 3.794037 19.104384
795 3 17.505063 3.299474 17.926039
796 2 46.303112 4.531462 48.109937
797 3 46.448000 6.722589 44.925513
798 3 43.783731 7.675710 46.834964
799 2 33.340444 12.345684 -8.558220
800 3 33.561292 14.485562 -8.395067
801 3 36.394354 17.692259 -10.298905
802 2 24.594268 35.313876 6.712040
803 3 27.284340 36.542829 3.657995
804 3 24.098850 36.699486 6.978828
805 2 16.111219 -26.843110 10.232228
806 3 18.861116 -23.627959 6.622670
807 3 17.524558 -23.543933 12.280152
808 2 2.831988 50.509880 -6.823868
809 3 1.092011 47.173642 -13.899096
810 3 4.879713 45.843753 -9.912994
811 2 21.587000 9.593449 1.289976
812 3 18.709294 6.834585 6.157016
813 3 15.043888 12.014907 6.431207
814 2 15.785270 9.176671 -11.303760
815 3 16.967762 6.888513 -17.595311
816 3 16.536869 5.555902 -16.062962
817 2 -21.373655 12.694962 32.744040
818 3 -19.320982 19.462342 38.086747
819 3 -20.931153 11.770042 39.698163
820 2 7.844578 33.514357 30.050392
821 3 9.746054 34.442424 30.785306
822 3 8.591831 38.115001 29.470546
823 2 56.413388 -1.346374 -8.146370
824 3 53.145700 -9.901942 -7.258252
825 3 58.192154 -3.917295 1.757011
826 2 26.333749 20.034141 2.117427
827 3 27.223759 23.654635 1.986300
828 3 27.450784 24.564622 1.224155
829 2 60.390482 9.978624 44.126309
830 3 59.588917 9.331846 39.612672
831 3 55.634018 10.715527 37.008798
832 2 0.766752 9.089776 5.448460
833 3 0.731068 13.930212 6.947063
834 3 -1.518408 8.577959 7.982498
835 2 0.949884 10.812923 6.364197
836 3 1.369121 9.794235 4.282987
837 3 -1.471095 12.757883 6.325366
838 2 20.935484 9.377055 -4.212315
839 3 25.818405 10.343067 -3.863790
840 3 21.329145 13.775227 -3.548492
841 2 3.694849 0.074812 12.458314
842 3 0.363839 2.293870 7.347928
843 3 5.656832 2.336815 5.567060
844 2 -23.101931 -11.278755 17.277234
845 3 -25.532160 -16.419905 20.259860
846 3 -22.181657 -12.494314 12.153055
847 2 7.970685 30.110409 43.923047
848 3 6.488907 27.971378 47.240003
849 3 8.374642 26.155077 44.705959
850 2 -17.711209 42.089283 39.830070
851 3 -10.699936 40.245966 41.229444
852 3 -16.624426 43.166631 40.940015
853 2 22.152954 31.181958 -6.636648
854 3 23.538739 30.600840 -4.682438
855 3 23.851380 31.423245 -7.674668
856 2 10.839212 5.268561 4.698038
857 3 11.171619 5.786719 6.466131
858 3 7.949114 8.853600 6.075550
859 2 21.803586 -3.593795 -34.927559
860 3 18.431854 -9.569696 -42.969682
861 3 20.612460 -7.542427 -32.021223
862 2 60.013980 6.627371 -10.603579
863 3 61.175688 2.275043 -13.584204
864 3 60.069163 9.726340 -11.700156
865 2 40.439641 19.264536 24.016976
866 3 38.089606 17.452017 19.774385
867 3 39.378287 23.495188 27.257307
868 2 42.053152 9.834458 -18.332658
869 3 43.463094 9.813531 -13.358537
870 3 42.158852 5.168507 -17.071556
871 2 16.053393 8.224381 4.435655
872 3 14.658023 11.032904 11.138631
873 3 15.361186 10.958207 8.983464
874 2 18.124948 11.636723 0.505991
875 3 17.616428 12.227191 -1.765142
876 3 17.163155 10.170943 -2.297292
877 2 48.420203 39.299710 23.878756
878 3 50.020470 37.770299 18.061771
879 3 50.969834 43.596439 23.570688
880 2 23.725457 29.671111 -14.042748
881 3 26.470531 28.690583 -19.177117
882 3 23.113459 28.372230 -14.597549
883 2 -25.916128 15.299106 4.512373
884 3 -26.415703 18.570748 5.378943
885 3 -29.419993 10.652135 7.335857
886 2 -4.411575 3.434703 26.669097
887 3 -9.457215 4.800355 25.842279
888 3 -2.973756 3.330494 24.340027
889 2 29.850315 23.974018 -11.183150
890 3 31.061484 23.525499 -9.362473
891 3 31.758703 21.162041 -11.389468
892 2 -14.454531 -20.410881 3.156514
893 3 -16.644768 -23.492748 5.602988
894 3 -16.571169 -19.373474 1.667922
895 2 22.555913 51.497658 17.968231
896 3 18.349723 49.687868 16.918076
897 3 20.927243 50.480281 13.510592
898 2 14.278238 47.116489 28.177528
899 3 16.808847 41.931847 24.765766
900 3 17.672368 47.324594 32.732255
901 2 3.695180 24.041052 -10.730460
902 3 0.316640 24.247377 -4.965166
903 3 3.342503 25.484044 -11.224263
904 2 44.540081 33.794142 7.400531
905 3 44.727739 31.518251 7.343070
906 3 44.644371 33.451689 7.494791
907 2 34.413479 1.621326 -24.217731
908 3 30.906725 -3.485295 -19.557712
909 3 36.511958 0.146016 -22.468226
910 2 28.387436 -15.304089 45.934929
911 3 31.460922 -15.164601 42.393007
912 3 28.401796 -13.531254 46.164422
913 2 42.671292 30.032761 23.984286
914 3 39.700177 37.357594 20.248472
915 3 41.219945 31.310741 20.606694
916 2 37.917840 18.821700 -30.213194
917 3 38.864639 17.307568 -30.104384
918 3 42.452877 20.447276 -33.757480
919 2 42.270132 11.885129 7.905067
920 3 45.570817 18.242802 6.346775
921 3 45.735608 13.967026 3.564036
922 2 31.702808 -6.952241 24.594247
923 3 34.112222 -5.958533 25.088148
924 3 33.827853 -3.244079 28.434606
925 2 -24.465041 37.721572 13.146044
926 3 -28.698739 39.651841 12.685047
927 3 -25.684924 41.557991 13.540798
928 2 40.236726 1.683431 -20.546037
929 3 39.270529 0.797029 -19.886434
930 3 37.112009 1.165515 -13.058752
931 2 -7.935545 8.652287 7.286818
932 3 -2.158673 6.647564 7.902813
933 3 -2.681323 7.171459 7.996472
934 2 9.556519 -0.187522 -23.629241
935 3 7.803804 3.350587 -17.285096
936 3 9.476127 3.069515 -24.836934
937 2 6.249286 38.868676 24.170410
938 3 5.387351 36.878878 28.385983
939 3 6.331071 33.760768 27.216713
940 2 -2.913941 15.658536 34.163344
941 3 -3.195789 14.638910 36.536580
942 3 -1.735488 13.514127 37.574170
943 2 4.876957 14.081092 20.845047
944 3 4.470139 12.514446 20.466023
945 3 7.164613 15.716665 25.774969
946 2 49.419999 18.978002 33.592212
947 3 55.451233 18.546398 36.806889
948 3 50.008188 16.167151 33.316387
949 2 -12.475833 15.152696 8.025424
950 3 -16.142676 13.693354 9.150946
951 3 -14.349857 14.078818 5.190953
952 2 42.994771 5.018004 18.707657
953 3 41.636849 6.430975 17.592952
954 3 46.582587 3.767809 19.436360
955 2 28.969109 32.571832 4.732639
956 3 25.082363 36.478800 -1.894410
957 3 28.462267 36.176706 2.589409
958 2 14.285785 23.612470 19.179813
959 3 10.168924 22.394304 23.436438
960 3 12.749626 21.374111 16.061460
961 2 2.692277 -0.853842 27.228548
962 3 4.007274 0.202975 26.502508
963 3 0.492811 3.428315 28.164414
964 2 -7.421532 12.687539 42.224649
965 3 -7.786230 13.376122 45.630517
966 3 -8.454005 16.084576 36.638534
967 2 30.341626 31.175866 -10.173735
968 3 33.134727 33.996668 -13.200320
969 3 28.368845 34.583733 -13.575684
970 2 5.833685 25.268919 -9.895935
971 3 10.266657 26.421065 -4.071746
972 3 10.019893 28.299145 -4.683886
973 2 14.501615 53.409962 -1.714386
974 3 10.510292 51.217565 -2.941783
975 3 14.535457 55.111599 -0.070722
976 2 -4.774412 29.786395 -5.272173
977 3 -2.521510 23.181110 -2.810836
978 3 1.768299 28.723395 -2.184833
979 2 19.454715 53.551404 9.835055
980 3 17.634023 51.869255 16.204968
981 3 20.050408 49.311940 13.922795
982 2 9.631582 16.639125 20.720011
983 3 8.602277 19.457071 19.593443
984 3 9.758120 19.303655 15.052933
985 2 5.754879 16.654521 8.136470
986 3 4.660691 14.866645 7.420442
987 3 3.294891 11.378141 6.879738
988 2 28.841155 -4.950449 4.035396
989 3 28.845800 -5.677419 -3.306248
990 3 29.402670 -5.580448 -3.579048
991 2 39.144517 26.229339 43.632901
992 3 37.971757 24.714468 45.864598
993 3 43.643591 29.808433 45.129103
994 2 30.020488 13.302949 6.990641
995 3 33.454066 10.171593 9.704822
996 3 31.866092 10.936193 8.379483
997 2 -0.285650 15.955002 -1.846336
998 3 3.840914 17.357898 -4.976053
999 3 5.817948 11.661415 -1.524868
1000 2 16.889156 22.640023 6.109296
1001 3 18.819056 26.404063 5.231312
1002 3 19.304856 24.757795 8.836141
1003 2 -8.417119 30.610333 7.089274
1004 3 -7.044805 31.733678 5.240553
1005 3 -4.645368 33.790128 7.594924
1006 2 -9.271629 19.681376 -6.689053
1007 3 -10.744353 21.333908 -2.568557
1008 3 -11.756560 18.956940 2.740298
1009 2 15.599134 26.799597 -7.018027
1010 3 13.947317 31.805306 -7.554460
1011 3 16.531191 33.010894 -4.344508
1012 2 -8.131835 49.907429 24.011308
1013 3 -7.271480 48.051929 28.252345
1014 3 -9.955511 53.352779 26.073626
1015 2 8.479172 56.486781 -15.288322
1016 3 10.476560 60.325041 -11.462343
1017 3 11.519189 56.299175 -14.560058
1018 2 31.184463 31.618757 -4.516236
1019 3 31.520944 30.613780 -5.889351
1020 3 36.742669 26.911453 -6.188566
1021 2 14.389638 -0.446831 37.608330
1022 3 18.291532 2.501245 39.850967
1023 3 16.809498 -2.060977 40.960369
1024 2 -4.467206 41.732642 -27.100960
1025 3 -1.286197 36.762476 -26.946667
1026 3 -1.705904 42.614436 -25.845099
1027 2 45.785207 6.990433 -9.982889
1028 3 43.392098 9.453272 -10.523024
1029 3 42.476327 3.023261 -8.150278
1030 2 31.291441 19.295256 7.876856
1031 3 33.353388 19.089148 9.717776
1032 3 29.461051 18.076553 12.505554
1033 2 49.515971 44.399939 -1.014217
1034 3 50.785740 40.599328 3.923234
1035 3 48.854435 41.636817 2.446233
1036 2 58.411177 10.590997 16.459192
1037 3 56.544290 13.098674 18.325302
1038 3 56.597180 10.697586 17.423449
1039 2 -2.020389 44.957767 -14.521879
1040 3 0.518259 48.724691 -9.607763
1041 3 -1.943531 51.487823 -15.788691
1042 2 17.052197 28.936362 16.075468
1043 3 13.786700 25.931206 9.912857
1044 3 16.530014 30.847524 17.047535
1045 2 35.546537 56.863151 8.282446
1046 3 33.236797 53.518395 3.622520
1047 3 37.282552 48.207780 -0.391393
1048 2 -17.020595 34.684563 23.753320
1049 3 -17.571680 35.542952 27.022818
1050 3 -21.500570 35.175782 26.468180
1051 2 7.725484 21.213795 15.975615
1052 3 10.898920 18.612976 13.021812
1053 3 8.680785 17.157964 10.497044
1054 2 51.433983 5.078189 -6.754804
1055 3 52.458861 1.733862 -8.069597
1056 3 49.745739 0.942703 1.162465
1057 2 12.297028 30.105535 27.245722
1058 3 13.090440 27.117520 33.238779
1059 3 10.401521 24.921602 29.521468
1060 2 -0.496883 -3.806241 33.302669
1061 3 -1.452960 -3.653552 30.633404
1062 3 -0.980518 -1.258881 32.763100
1063 2 18.178898 24.739617 -3.546211
1064 3 16.711578 27.052421 4.828182
1065 3 17.981711 27.521632 4.189153
1066 2 34.342520 45.293727 19.408437
1067 3 35.397660 46.686405 10.675316
1068 3 30.611295 41.144883 15.690371
1069 2 51.951367 19.423094 7.719999
1070 3 50.229729 22.242586 6.528142
1071 3 49.468218 20.799411 4.351752
1072 2 42.083402 29.296386 9.422967
1073 3 45.552453 31.322428 7.073638
1074 3 45.457744 26.148874 6.747034
1075 2 65.863903 -7.279701 23.570660
1076 3 71.254264 -4.288370 20.643992
1077 3 72.593439 -4.578983 21.892069
1078 2 19.646176 36.408803 13.762098
1079 3 20.137288 34.628274 13.447454
1080 3 20.670772 30.725033 18.055291
1081 2 -21.126530 15.057167 -16.739116
1082 3 -18.627820 17.570737 -11.387685
1083 3 -23.941535 15.374624 -10.138354
1084 2 2.179420 20.239089 9.292403
1085 3 3.625397 17.521715 7.386161
1086 3 0.412978 22.330729 5.118154
1087 2 20.458596 17.150618 27.217251
1088 3 23.475818 19.394191 31.499002
1089 3 22.542917 18.785449 29.382174
1090 2 42.883266 27.277099 -12.543402
1091 3 37.730245 23.057241 -9.067437
1092 3 38.081508 28.618178 -2.096945
1093 2 23.257123 46.519553 -17.617771
1094 3 23.626885 46.160552 -20.436438
1095 3 18.263792 41.588673 -21.627575
1096 2 22.739159 29.065689 12.744443
1097 3 19.974758 29.834637 8.646908
1098 3 20.769801 29.166627 9.176331
1099 2 19.663312 37.609828 -3.911086
1100 3 19.807670 40.137544 -2.852059
1101 3 18.799701 40.068638 -0.731543
1102 2 61.087588 19.631477 -19.508215
1103 3 56.353241 14.924973 -22.648260
1104 3 62.215048 18.093931 -27.237858
1105 2 0.720659 49.225517 3.159142
1106 3 -2.567067 51.554494 -2.063751
1107 3 2.958327 46.927671 3.577337
1108 2 26.092181 11.133311 14.529552
1109 3 29.844291 13.556994 9.584726
1110 3 30.705877 7.466626 10.222125
1111 2 48.583769 26.810134 20.024441
1112 3 42.274610 26.064153 21.270444
1113 3 48.531150 26.149686 17.612634
1114 2 35.846290 47.528392 11.455545
1115 3 34.871031 40.022001 6.331951
1116 3 37.646277 46.530559 13.208069
1117 2 4.545956 46.653699 19.512864
1118 3 1.579353 47.619422 18.720302
1119 3 3.363517 47.470813 15.745801
1120 2 4.573399 50.323266 -13.889953
1121 3 3.156694 50.767091 -10.049656
1122 3 5.222581 55.470865 -13.576526
1123 2 3.036912 42.427860 12.218378
1124 3 0.296977 36.769749 18.413302
1125 3 5.076983 38.297964 17.924964
1126 2 -14.031745 61.576430 11.236262
1127 3 -11.307621 60.488316 4.772525
1128 3 -11.585688 62.854456 10.011621
1129 2 42.109961 22.914641 22.293690
1130 3 42.537595 26.947168 26.460172
1131 3 39.318139 23.673978 26.651124
1132 2 22.424250 15.240110 8.144636
1133 3 23.014762 19.517786 0.139567
1134 3 27.286443 15.015982 5.355429
1135 2 23.036621 -4.663513 -13.031383
1136 3 23.883800 -9.651037 -17.807353
1137 3 22.931488 -7.559747 -13.655312
1138 2 -4.335854 29.333855 -5.100496
1139 3 -2.733084 28.765206 -4.129276
1140 3 -3.635164 29.170337 -3.402384
1141 2 29.944512 35.887057 -26.765158
1142 3 32.967111 29.550535 -28.418833
1143 3 32.516131 33.368328 -24.787474
1144 2 4.638225 10.449518 4.781367
1145 3 6.363922 9.804825 6.142918
1146 3 2.036259 9.186057 9.858188
1147 2 11.569520 51.657647 0.289109
1148 3 16.580390 47.437666 -4.710244
1149 3 16.667090 52.896829 0.301684
1150 2 7.826261 30.695615 -11.327858
1151 3 8.850610 36.945553 -10.332653
1152 3 12.088233 29.659866 -10.664643
1153 2 62.041615 28.909896 -25.268801
1154 3 61.686738 29.992799 -23.448977
1155 3 63.547835 34.277598 -27.587680
1156 2 7.224376 25.071157 -3.710212
1157 3 7.236549 24.954555 2.774706
1158 3 2.993298 23.552518 0.389537
1159 2 47.220496 51.952000 37.755474
1160 3 46.219375 54.220042 37.346806
1161 3 50.826200 58.632177 35.252940
1162 2 19.458589 26.384176 1.591944
1163 3 17.328047 28.357093 2.868736
1164 3 22.016527 27.291155 3.607729
1165 2 23.931370 46.054013 35.857506
1166 3 27.514710 44.123360 41.033512
1167 3 25.359698 49.513492 41.213857
1168 2 13.422058 27.007068 36.253804
1169 3 15.695654 23.833568 39.174891
1170 3 13.957129 25.480240 36.815562
1171 2 18.775171 33.688073 -3.074951
1172 3 19.497263 39.253645 -5.739117
1173 3 16.137552 40.503397 -4.185706
1174 2 34.368877 2.879799 14.345293
1175 3 33.068652 5.562739 21.157359
1176 3 39.428261 3.989264 18.702389
1177 2 -12.326545 61.949657 11.154601
1178 3 -8.369526 68.025851 11.841067
1179 3 -13.559788 65.378177 13.828793
1180 2 60.438661 23.397427 -2.115784
1181 3 66.869143 27.711583 -5.156112
1182 3 61.589788 24.538025 -0.603998
1183 2 8.678013 20.492287 -22.088153
1184 3 6.400665 27.155559 -23.478896
1185 3 6.941966 19.545027 -23.440660
1186 2 -3.170131 31.459089 -3.831869
1187 3 -10.661744 30.857864 3.009645
1188 3 -8.549183 32.324338 2.215632
1189 2 56.854252 78.214827 22.034409
1190 3 52.718964 89.756042 15.617236
1191 3 56.096660 84.225089 15.178191
1192 2 11.788416 67.478315 39.320147
1193 3 12.840290 69.098077 39.463257
1194 3 12.960536 73.361156 41.242376
1195 2 -21.745572 -9.018535 -7.681959
1196 3 -26.433130 -7.201141 -4.513231
1197 3 -24.181224 -2.194720 -5.813471
1198 2 26.552616 -0.619493 -12.189371
1199 3 26.277999 2.257338 -6.839852
1200 3 26.702042 -2.229994 -10.393707
1201 2 -27.150333 8.370662 5.108444
1202 3 -32.918527 8.482482 2.672137
1203 3 -29.383091 13.283044 2.518685
1204 2 48.268573 14.358531 22.759036
1205 3 45.958597 15.814347 24.416525
1206 3 48.131382 10.721707 25.093605
1207 2 23.953470 -6.642638 7.688619
1208 3 24.985465 3.616645 2.063956
1209 3 26.280273 -4.442232 2.860607
1210 2 12.881946 34.151305 28.409531
1211 3 16.402489 33.328643 28.559950
1212 3 13.828750 31.305318 30.754140
1213 2 -8.966296 18.755868 -8.731546
1214 3 -9.083865 13.677961 -13.576641
1215 3 -10.111944 16.235557 -8.550242
1216 2 44.305706 9.828443 18.193372
1217 3 46.686217 14.238318 15.579596
1218 3 44.582468 6.616378 17.665722
1219 2 57.401235 -0.532234 -5.159883
1220 3 56.108350 3.597187 -9.860967
1221 3 59.447659 3.122604 -9.168836
1222 2 42.859297 14.496503 8.347056
1223 3 42.681864 14.948216 9.883771
1224 3 42.459590 10.729755 5.799790
1225 2 27.134851 17.703737 49.052940
1226 3 30.559340 16.647084 51.124875
1227 3 32.628198 19.512679 51.519255
1228 2 26.149775 11.334045 11.519399
1229 3 18.833150 10.860678 14.136472
1230 3 21.449767 9.549084 15.253687
1231 2 26.405112 -0.667833 17.154362
1232 3 25.684751 4.247869 14.382540
1233 3 29.459154 4.812901 12.798193
1234 2 1.910489 6.782796 12.745654
1235 3 2.859599 3.400824 14.029011
1236 3 1.564575 3.734168 13.805597
1237 2 31.699277 28.806113 4.120986
1238 3 36.231623 31.845308 12.315148
1239 3 31.524384 29.901533 3.665861
1240 2 50.140378 17.054525 0.021331
1241 3 47.493981 18.749299 7.547684
1242 3 46.473852 16.740377 4.236933
1243 2 16.234673 8.557911 4.243292
1244 3 18.255492 3.528323 2.117260
1245 3 18.130448 4.519506 8.234714
1246 2 31.389471 28.302108 35.137435
1247 3 31.319785 29.029307 36.712523
1248 3 33.939442 24.400700 30.360121
1249 2 -9.273765 19.895070 -16.837787
1250 3 -5.496056 19.624671 -14.279093
1251 3 -11.165284 18.731035 -14.489639
1252 2 10.547134 39.595026 -20.123335
1253 3 9.765176 33.074117 -18.997522
1254 3 7.383728 40.282758 -25.194039
1255 2 29.504322 4.661833 15.421979
1256 3 28.193323 7.330544 15.344270
1257 3 25.934705 2.828654 16.918451
1258 2 31.223151 16.720190 44.025703
1259 3 32.275756 14.216672 47.419266
1260 3 30.172496 17.138895 48.890687
1261 2 21.571204 20.070559 25.572025
1262 3 21.104080 22.409614 24.376219
1263 3 15.805880 18.957557 21.796858
1264 2 35.758388 6.140809 14.847428
1265 3 32.043249 5.579699 17.822459
1266 3 36.122974 0.992986 16.974812
1267 2 36.766910 2.511208 9.327432
1268 3 37.096194 1.365563 12.113515
1269 3 34.046849 4.729195 14.031103
1270 2 40.192851 10.000235 -7.279435
1271 3 40.368498 11.632251 -9.290772
1272 3 41.022731 11.673011 -6.034084
1273 2 -9.731046 -30.484840 41.885038
1274 3 -12.431802 -28.499476 39.148234
1275 3 -9.834444 -24.135250 39.561992
1276 2 44.972155 42.355649 24.057999
1277 3 43.510561 39.229536 23.909666
1278 3 45.369305 35.755796 23.948961
1279 2 -10.970861 -3.699695 15.864127
1280 3 -10.752204 -2.108924 11.186726
1281 3 -12.193511 -4.421790 15.219547
1282 2 23.428733 -14.960943 -22.888026
1283 3 20.970584 -23.462468 -23.231293
1284 3 21.729239 -20.269622 -22.402695
1285 2 0.149521 29.983441 12.860064
1286 3 3.485856 30.743484 15.143167
1287 3 3.007880 30.427329 13.681327
1288 2 43.761479 32.175953 4.508311
1289 3 43.556819 29.130248 4.201591
1290 3 43.501904 23.448158 -1.100181
1291 2 15.350015 -11.034777 7.163785
1292 3 10.209011 -15.459519 9.664042
1293 3 11.081456 -14.259631 3.892689
1294 2 26.462681 5.555461 -14.590547
1295 3 25.366322 11.441459 -14.195037
1296 3 26.544787 6.225254 -28.211966
1297 2 7.843819 3.828832 -0.538063
1298 3 7.897238 2.449997 -3.997805
1299 3 8.002424 6.668344 -2.964511
1300 2 26.269112 -1.068457 40.956834
1301 3 26.565742 0.683839 41.414609
1302 3 23.307190 -0.525337 44.046858
1303 2 -5.374259 18.471076 2.770028
1304 3 -3.040836 13.900765 2.138693
1305 3 -6.356662 15.253667 3.253230
1306 2 48.891913 18.950214 -20.977784
1307 3 49.519000 18.569734 -19.319103
1308 3 50.642728 18.099045 -24.395804
1309 2 65.821313 8.540944 11.786556
1310 3 67.730639 10.437515 11.335223
1311 3 70.625479 8.808341 14.218396
1312 2 -38.542967 37.164483 -0.042883
1313 3 -39.372116 35.039501 -1.544563
1314 3 -42.786836 39.396135 2.682681
1315 2 28.116222 13.494112 53.177027
1316 3 23.744481 9.557006 48.829944
1317 3 26.804142 10.440719 57.178788
1318 2 21.785218 38.767790 19.069101
1319 3 17.584238 36.958607 10.927540
1320 3 22.032211 36.817122 12.539627
1321 2 6.572689 18.890564 -10.881303
1322 3 5.740948 15.993512 -13.241959
1323 3 1.323830 18.732734 -7.360599
1324 2 39.906567 -13.407986 23.403759
1325 3 40.876071 -8.857687 25.485509
1326 3 36.485835 -11.273395 18.044422
1327 2 21.540127 25.679989 13.086300
1328 3 21.551768 23.729393 16.919165
1329 3 20.732031 25.838194 14.871581
1330 2 29.158993 -8.475186 22.340400
1331 3 28.904236 -8.681643 20.366063
1332 3 27.804865 -8.532114 22.423301
1333 2 3.893072 13.806125 19.271905
1334 3 5.900609 12.118122 19.511500
1335 3 4.254322 13.557317 15.860672
1336 2 17.688872 27.867956 10.304216
1337 3 19.831137 29.547665 7.328349
1338 3 20.086380 28.844669 7.826342
1339 2 9.304799 32.907429 10.512092
1340 3 12.568110 37.503407 14.427850
1341 3 9.755434 34.260647 13.808703
1342 2 14.701096 3.873804 -9.672226
1343 3 16.080577 2.019627 -16.629854
1344 3 16.916011 1.838726 -14.543608
1345 2 48.562974 6.180651 -26.577822
1346 3 46.896293 3.605253 -15.077636
1347 3 47.451487 3.391089 -25.904320
1348 2 43.267124 -0.998209 22.570956
1349 3 44.316033 0.720287 25.932291
1350 3 43.076994 0.622121 25.762209
1351 2 22.376261 0.136299 22.872557
1352 3 26.940164 1.564901 20.629636
1353 3 24.352199 2.951003 27.061250
1354 2 18.913022 11.950460 2.192981
1355 3 18.308760 13.526593 3.850240
1356 3 16.368371 10.732724 0.803784
1357 2 7.242944 2.418363 18.084170
1358 3 10.884137 -0.296421 14.389588
1359 3 6.601180 -0.831673 14.962738
1360 2 13.887602 39.864883 11.620691
1361 3 9.046797 33.420976 5.315767
1362 3 8.316447 33.200572 8.520312
1363 2 40.147973 2.952094 -19.706981
1364 3 36.983729 7.959083 -20.548043
1365 3 35.795978 0.721808 -17.709269
1366 2 18.163748 43.632195 45.790159
1367 3 21.650815 42.198667 52.739523
1368 3 16.551063 43.510287 45.320076
1369 2 1.020330 -1.876205 15.480361
1370 3 -0.665307 -8.080309 17.432532
1371 3 -1.554586 -3.404395 10.208255
1372 2 17.687828 -5.192419 -9.135039
1373 3 19.518962 -3.595006 -11.080335
1374 3 17.014904 0.684021 -12.092405
1375 2 -6.898434 18.165382 -0.074530
1376 3 -2.402176 25.150459 -5.876303
1377 3 -8.397661 26.677568 -6.353230
1378 2 66.869553 -5.318801 10.521406
1379 3 62.502473 -7.420434 13.047189
1380 3 64.245419 -6.454072 7.842909
1381 2 19.442866 34.988049 31.526526
1382 3 16.457836 32.843656 27.940693
1383 3 16.855414 29.470809 27.965844
1384 2 33.386657 7.398261 -11.274899
1385 3 32.969849 7.080202 -4.882837
1386 3 31.721969 4.704764 -5.582453
1387 2 37.464928 4.446608 4.989878
1388 3 37.951040 2.623968 -1.354102
1389 3 44.869656 10.798384 0.788766
1390 2 -7.550407 15.752497 3.586723
1391 3 -5.101524 14.723264 6.121910
1392 3 -3.729496 18.442909 9.372467
1393 2 25.254018 24.432035 44.266466
1394 3 23.802766 24.927325 45.756593
1395 3 23.022839 25.897821 46.660400
1396 2 -14.808845 0.707535 52.598365
1397 3 -15.696873 1.018177 51.901558
1398 3 -13.704282 0.833590 52.549438
1399 2 23.923936 6.806335 4.612112
1400 3 20.019814 5.694254 5.478099
1401 3 22.542193 10.508069 9.795255
1402 2 19.174109 8.158517 -2.206267
1403 3 12.754018 15.534224 5.363398
1404 3 18.348695 7.313050 4.735093
1405 2 33.581861 39.282685 29.724301
1406 3 29.691151 37.567767 25.559970
1407 3 36.719306 35.959910 29.416289
1408 2 6.894222 3.886643 -22.524633
1409 3 7.653620 5.326741 -14.277068
1410 3 8.395062 6.440663 -15.474717
1411 2 33.068696 63.391084 19.506517
1412 3 37.345573 63.102944 18.275209
1413 3 36.769161 63.266086 21.171281
1414 2 25.442182 51.679251 8.909890
1415 3 25.576767 49.185421 5.057916
1416 3 24.735599 52.851949 8.676025
1417 2 17.421700 31.876481 -20.754241
1418 3 17.301221 33.564436 -15.842319
1419 3 15.759825 32.575783 -17.679255
1420 2 19.341664 22.091804 32.813492
1421 3 21.462963 24.387194 31.975923
1422 3 18.671787 25.513892 31.124937
1423 2 60.725168 12.917708 27.650588
1424 3 56.954094 12.445831 24.503729
1425 3 59.766652 14.097434 33.924676
1426 2 -13.062978 32.046501 -7.865847
1427 3 -13.608630 32.351282 -6.066453
1428 3 -18.971707 34.903549 0.342921
1429 2 -38.252519 0.310243 -5.659641
1430 3 -38.537741 1.432741 -2.474025
1431 3 -31.720031 2.098392 -8.258801
1432 2 -19.362749 -18.749919 -23.598275
1433 3 -26.437916 -19.425484 -27.602538
1434 3 -26.068060 -20.229125 -26.156754
1435 2 -2.778907 44.156026 1.348573
1436 3 -3.183587 46.853956 0.762158
1437 3 -1.061979 43.062599 3.783103
1438 2 9.436500 26.523634 -13.609185
1439 3 11.054649 22.922445 -9.645003
1440 3 8.520606 24.082242 -13.535773
1441 2 -2.865197 30.149663 7.398352
1442 3 -0.194937 33.520962 8.872959
1443 3 0.850653 28.384332 3.987586
1444 2 -22.246768 23.285698 -10.469152
1445 3 -27.462303 20.593033 -6.378707
1446 3 -25.381985 22.673399 -7.707381
1447 2 15.801465 32.311376 7.029106
1448 3 13.668105 38.190312 8.063137
1449 3 15.848292 29.445612 7.975413
1450 2 7.417784 23.736322 14.489283
1451 3 9.571950 24.488420 13.804474
1452 3 8.683352 23.776931 15.369278
1453 2 21.462429 21.941699 -9.323683
1454 3 16.206093 21.181953 0.387021
1455 3 16.726513 20.885490 -2.917420
1456 2 37.949153 33.115798 25.966573
1457 3 37.291825 34.283836 29.539885
1458 3 34.372801 37.139618 34.849569
1459 2 63.573262 22.982358 23.583926
1460 3 62.168471 17.732645 28.296457
1461 3 60.584569 17.440706 26.658231
1462 2 26.131078 30.947980 37.896811
1463 3 27.623676 25.529882 37.517321
1464 3 23.620686 29.693901 34.877294
1465 2 41.855044 54.826994 24.867804
1466 3 41.195618 47.610124 27.699478
1467 3 40.963228 57.363627 22.891826
1468 2 -30.282582 19.289342 28.290854
1469 3 -27.960654 23.322802 30.515886
1470 3 -28.514805 14.689342 31.269933
1471 2 -24.831720 0.100204 3.935841
1472 3 -21.752927 -0.953421 6.097727
1473 3 -23.833921 -1.749814 2.791082
1474 2 -14.691319 37.601743 29.962098
1475 3 -14.752017 36.816983 34.860978
1476 3 -18.338525 40.811132 31.409020
1477 2 -12.783900 34.316496 -7.197571
1478 3 -10.980937 38.427904 -5.517200
1479 3 -8.886623 43.083073 -10.810216
1480 2 -11.295835 51.942060 -16.061717
1481 3 -11.104888 50.864381 -17.922185
1482 3 -8.895001 53.130340 -15.877961
1483 2 -17.688972 38.439558 19.713994
1484 3 -13.888065 38.328432 17.800289
1485 3 -15.371438 36.480043 19.269151
1486 2 -7.878911 21.762876 9.399366
1487 3 -8.317184 20.640405 4.491128
1488 3 -10.424553 22.507553 6.187477
1489 2 6.246274 -0.629697 -2.992271
1490 3 4.180921 6.708782 -1.622019
1491 3 5.949119 1.784901 -1.976919
1492 2 39.540588 9.280362 -24.744362
1493 3 36.894515 7.831754 -30.012868
1494 3 35.533489 8.829756 -23.330102
1495 2 25.665480 39.641529 42.333028
1496 3 23.250392 35.472927 37.203368
1497 3 25.807598 37.706479 36.889909
1498 2 19.018534 8.161763 11.422047
1499 3 18.702372 1.493361 0.142598
1500 3 18.238293 7.331136 2.065542
1501 2 24.412160 44.322217 -30.544463
1502 3 24.513051 44.730946 -29.560953
1503 3 26.530977 45.630004 -29.946032
1504 2 27.784963 45.518062 17.074025
1505 3 25.045446 45.065463 18.879762
1506 3 30.151311 41.746828 18.699451
1507 2 17.921532 28.382420 25.987473
1508 3 16.588683 27.144565 20.641303
1509 3 20.131073 30.887324 21.478244
1510 2 -4.061549 32.858255 6.724966
1511 3 -6.434554 33.905071 3.366685
1512 3 -4.921403 34.505528 5.998320
1513 2 50.975947 4.054092 35.877862
1514 3 58.676278 5.025433 36.496692
1515 3 55.735558 4.471579 33.689273
1516 2 10.191650 28.468576 13.719007
1517 3 8.141622 30.909735 12.791572
1518 3 7.078160 25.901901 14.564944
1519 2 -17.568028 -9.105289 11.266143
1520 3 -19.687818 -5.845952 16.321250
1521 3 -19.272156 -8.123763 15.943399
1522 2 38.546377 42.938435 38.885379
1523 3 41.136854 45.503307 33.335230
1524 3 38.530579 44.096198 29.954049
1525 2 20.014703 21.947025 -16.645764
1526 3 22.242565 18.249533 -17.180059
1527 3 18.629593 22.404250 -16.178774
1528 2 52.572668 8.422138 27.347518
1529 3 49.857941 6.194245 30.579076
1530 3 53.755819 6.090135 30.091716
1531 2 10.372547 30.979889 -5.658677
1532 3 10.678265 30.646384 -9.000231
1533 3 7.398911 37.805216 -12.343026
1534 2 31.226684 8.196917 6.105140
1535 3 28.251138 9.806916 1.524857
1536 3 30.296882 9.328998 3.837138
1537 2 39.620626 43.442773 6.244849
1538 3 36.422988 46.380964 10.503299
1539 3 40.658945 43.897736 7.841141
1540 2 30.535341 26.990703 -5.027054
1541 3 31.475103 26.175640 -4.485297
1542 3 31.385298 27.752240 -7.859882
1543 2 65.654896 8.744718 15.129566
1544 3 63.303416 10.355954 12.379575
1545 3 65.036073 10.738372 10.991698
1546 2 -0.594398 -3.654690 19.587330
1547 3 2.836334 -4.741950 17.490169
1548 3 1.221619 -5.696987 18.533233
1549 2 17.158747 16.424117 -17.803901
1550 3 18.629501 13.563719 -15.903281
1551 3 17.532258 17.762249 -13.977156
1552 2 14.240811 16.360044 -0.375307
1553 3 14.324815 10.398540 -4.461148
1554 3 17.381913 15.252949 -1.731959
1555 2 19.644531 42.753032 8.992176
1556 3 18.382445 43.999291 10.113880
1557 3 17.644313 44.881102 4.241797
1558 2 -6.560130 40.123064 2.185722
1559 3 -1.487807 36.189991 2.461368
1560 3 -5.062716 37.314429 7.397066
1561 2 47.580769 12.568837 -6.177228
1562 3 52.661899 12.447826 -7.176345
1563 3 52.826640 9.851392 -1.856337
1564 2 25.194675 29.369474 17.691910
1565 3 27.186538 34.776774 14.962704
1566 3 24.965065 29.507469 16.022739
1567 2 39.366910 -12.373497 -1.314869
1568 3 40.632167 -13.121495 4.722650
1569 3 39.752891 -9.800974 -1.428742
1570 2 25.760643 44.674808 26.030876
1571 3 29.429373 45.637435 23.272071
1572 3 25.470565 43.794987 23.033269
1573 2 75.388932 54.908557 0.295699
1574 3 76.754464 54.841175 -9.792363
1575 3 75.807697 53.515913 -5.114379
1576 2 13.265148 -1.658204 -23.621049
1577 3 9.358058 -3.893042 -21.345042
1578 3 8.932568 -0.288262 -18.495773
1579 2 24.592306 37.031234 4.065587
1580 3 20.216364 40.806690 8.288999
1581 3 24.340590 33.719338 11.627652
1582 2 50.677226 8.099807 -10.289349
1583 3 49.040190 10.555617 -14.949394
1584 3 51.424407 11.703194 -10.736247
1585 2 29.186062 4.910922 8.297880
1586 3 33.360113 10.314746 4.816704
1587 3 31.309417 4.723208 11.219433
1588 2 12.654557 38.401787 6.911147
1589 3 10.004757 33.442881 6.929946
1590 3 12.424052 37.175702 2.241403
1591 2 -15.227268 33.202366 -2.677240
1592 3 -10.959420 30.560289 -4.002540
1593 3 -9.896865 31.886481 1.396015
1594 2 9.349622 39.626570 22.492732
1595 3 9.903922 40.082592 24.381019
1596 3 9.052225 39.987135 23.303400
1597 2 -3.347917 30.121996 16.241260
1598 3 -4.776857 28.278977 18.396716
1599 3 -3.755296 30.689179 19.599742
1600 2 -5.156329 35.542313 14.728332
1601 3 -5.213502 35.878123 15.134838
1602 3 -0.896307 32.774644 9.297600
1603 2 21.246819 67.930247 12.944902
1604 3 23.273351 66.501345 18.152465
1605 3 18.663600 65.053832 17.726228
1606 2 19.005657 0.329366 14.944528
1607 3 19.463425 0.169740 8.872704
1608 3 17.903933 -0.240023 11.600093
1609 2 23.455273 51.100243 13.920069
1610 3 21.967870 47.301245 11.036158
1611 3 25.222468 50.750124 20.765063
1612 2 21.001187 32.920111 17.372691
1613 3 20.150830 32.782472 12.933515
1614 3 22.486926 33.222164 12.234858
1615 2 28.399202 19.140888 -15.431512
1616 3 25.555785 19.947713 -21.862858
1617 3 26.986348 18.851017 -17.414269
1618 2 40.979946 22.490363 -2.791750
1619 3 39.707259 24.412647 1.543385
1620 3 39.815503 25.623183 -1.638037
1621 2 23.217753 -2.722339 9.798856
1622 3 22.811264 1.786475 13.468510
1623 3 24.218995 -4.186201 18.377339
1624 2 -1.336475 25.675550 -19.395945
1625 3 -0.055140 20.363956 -21.267088
1626 3 4.631240 21.515129 -21.708610
1627 2 12.347675 33.394072 17.769004
1628 3 15.530339 33.516966 19.566001
1629 3 15.643985 33.047492 14.919459
1630 2 12.682005 39.389913 16.404965
1631 3 14.787169 36.667860 14.254045
1632 3 13.708811 35.761439 21.549347
1633 2 10.040929 41.297807 40.630866
1634 3 3.834617 36.756886 36.309514
1635 3 7.318809 43.874648 41.049964
1636 2 22.003967 44.450452 -11.902751
1637 3 16.614170 45.660042 -11.117400
1638 3 19.977931 44.569938 -13.457367
1639 2 31.057536 40.472082 11.066747
1640 3 30.618135 32.171530 8.205494
1641 3 33.117647 35.364906 16.509628
1642 2 43.820135 22.510784 -0.035304
1643 3 45.307926 21.370152 -4.162316
1644 3 40.871275 24.778362 -3.419373
1645 2 29.853690 16.212220 49.050733
1646 3 30.676810 7.981266 49.251810
1647 3 33.166827 14.387510 47.725938
1648 2 8.371587 63.307476 -22.279115
1649 3 9.585302 65.162220 -22.411912
1650 3 4.546580 64.119920 -24.340532
1651 2 17.220485 58.841438 13.129930
1652 3 14.429992 57.447619 15.420287
1653 3 19.293052 59.138959 9.951748
1654 2 44.683963 7.960808 31.391877
1655 3 45.774382 9.697894 29.169826
1656 3 42.854185 7.098587 35.512793
1657 2 18.512872 -5.609851 -14.464496
1658 3 16.585001 -4.354311 -14.496845
1659 3 21.499905 -2.835958 -17.992284
1660 2 57.302868 6.271004 -7.888000
1661 3 58.936388 8.972524 -0.859531
1662 3 59.329932 8.068763 -7.470200
1663 2 6.580060 10.829358 -17.720997
1664 3 7.056218 11.029299 -15.520853
1665 3 7.601172 14.120635 -13.806715
1666 2 -6.477065 25.242467 42.065014
1667 3 -5.111846 29.137311 40.378028
1668 3 -10.105693 21.105479 41.590475
1669 2 29.651363 74.470590 20.994239
1670 3 29.243147 73.270512 18.595461
1671 3 28.816605 75.480645 20.134817
1672 2 -3.545257 29.130916 4.136716
1673 3 -0.520182 25.185429 -0.628541
1674 3 -3.015579 26.015978 4.344266
1675 2 -2.719141 55.608957 1.850344
1676 3 -1.430190 55.075838 1.080703
1677 3 -1.560744 56.394871 4.261633
1678 2 26.675954 28.712177 12.428677
1679 3 23.618160 31.187724 13.659554
1680 3 22.673330 33.443750 8.346706
1681 2 -21.941835 26.427314 27.457280
1682 3 -21.354739 30.579594 23.246507
1683 3 -20.857233 21.992336 29.416081
1684 2 -3.879784 64.014209 57.703541
1685 3 -5.752498 61.593003 57.754777
1686 3 -5.924432 57.390098 54.134489
1687 2 36.040189 64.916838 -8.626743
1688 3 32.709915 65.930618 -5.673798
1689 3 34.399499 68.331370 -9.964815
1690 2 16.119737 7.579465 -10.799195
1691 3 14.422234 12.074774 -12.625037
1692 3 14.457291 5.637431 -15.458375
1693 2 11.131512 -13.451447 23.417091
1694 3 13.306558 -5.217653 20.275304
1695 3 11.048763 -13.151466 19.193281
1696 2 14.949561 33.291451 -0.576987
1697 3 19.008862 30.859158 -1.669497
1698 3 15.274200 33.409098 -3.357249
1699 2 38.848871 23.842282 4.809245
1700 3 36.716059 25.154735 6.529304
1701 3 39.099944 23.559951 4.857965
1702 2 32.600213 34.077662 13.590101
1703 3 31.556914 32.710848 10.918095
1704 3 29.956709 28.767660 9.659737
1705 2 -16.507990 4.236577 32.266064
1706 3 -17.540864 4.560653 29.306582
1707 3 -15.969413 5.106480 28.029062
1708 2 1.097474 -0.780410 24.649295
1709 3 4.096686 -3.311499 25.370009
1710 3 3.677594 -4.472603 23.144833
1711 2 23.086157 6.122787 -15.752025
1712 3 22.820854 4.624649 -6.989489
1713 3 23.422996 4.601016 -7.805915
1714 2 30.913710 17.530605 43.331091
1715 3 27.479375 17.993214 44.005134
1716 3 27.367195 16.800624 38.910365
1717 2 8.344478 33.218457 39.428468
1718 3 11.524381 33.167514 40.860087
1719 3 10.873855 38.611437 44.135814
1720 2 -23.369180 31.574746 10.434228
1721 3 -16.204148 30.926031 7.365298
1722 3 -17.935709 30.513152 14.009361
1723 2 37.492090 10.041408 12.863783
1724 3 42.206298 12.732272 10.155451
1725 3 41.992453 15.982427 14.038881
1726 2 12.895995 -23.896885 -1.438925
1727 3 19.160116 -27.799661 -7.313151
1728 3 14.833024 -22.242849 -5.892550
1729 2 20.275793 1.885335 -2.958927
1730 3 17.531604 -4.092505 -2.172747
1731 3 22.101434 -0.297480 -2.030109
1732 2 46.138840 11.173341 16.957747
1733 3 44.085917 13.500667 20.498034
1734 3 44.991992 10.633285 18.217597
1735 2 24.709573 8.288412 7.214908
1736 3 27.615860 10.147473 4.646536
1737 3 23.217401 9.041150 2.813132
1738 2 21.811564 10.840876 -9.485852
1739 3 22.260062 13.550229 -1.444700
1740 3 22.230300 12.634266 -5.579503
1741 2 4.657794 -1.032035 -17.400228
1742 3 7.028767 -5.287292 -20.648411
1743 3 3.512029 -4.571256 -20.049990
1744 2 24.673911 3.100161 15.369133
1745 3 23.034458 4.711018 11.624067
1746 3 23.799658 5.624980 14.299922
1747 2 9.585265 -1.871119 15.243447
1748 3 6.759464 -1.060381 18.174721
1749 3 8.403929 -0.706196 11.608485
1750 2 27.655516 6.098994 30.151373
1751 3 28.978498 8.516822 25.554288
1752 3 25.784365 11.039659 31.347191
1753 2 1.999885 -2.353534 2.482014
1754 3 -2.202733 -1.970439 2.892295
1755 3 1.973389 1.550519 -1.770103
1756 2 -7.134489 5.689259 0.630320
1757 3 -4.439245 0.810616 -0.732129
1758 3 -4.099623 5.885441 -2.540264
1759 2 15.810551 6.356134 2.114402
1760 3 13.509862 9.536704 5.839652
1761 3 14.788436 11.084377 1.568216
1762 2 54.919930 17.109566 12.254637
1763 3 52.891189 16.333125 12.314753
1764 3 53.190749 12.604617 10.710394
1765 2 12.653347 -10.486627 53.907118
1766 3 14.275947 -6.369523 48.258750
1767 3 16.630480 -7.938930 42.927171
1768 2 20.743140 12.348796 5.387993
1769 3 19.170968 14.242272 3.378863
1770 3 23.437003 11.023326 4.267415
1771 2 22.409627 8.702231 14.395959
1772 3 20.281460 -0.883941 20.297770
1773 3 20.940664 7.270400 16.125452
1774 2 17.376325 17.068837 -6.886286
1775 3 21.010794 18.471292 -9.185850
1776 3 18.034169 18.468759 -7.463590
1777 2 45.688301 20.776701 0.265417
1778 3 44.489113 18.100778 1.760549
1779 3 44.320028 22.028226 2.939925
1780 2 4.045228 11.440954 -7.300576
1781 3 6.547331 11.621227 -9.564623
1782 3 6.187866 15.862231 -8.806049
1783 2 -16.370355 37.872539 -5.587937
1784 3 -21.372109 41.117473 -3.214977
1785 3 -16.268932 35.286634 -10.632671
1786 2 36.519084 2.783041 14.809261
1787 3 35.607681 5.921006 9.614135
1788 3 34.922094 4.705914 8.167339
1789 2 15.364237 25.125940 6.443970
1790 3 16.041540 26.239387 7.315530
1791 3 18.146224 31.069358 6.881762
1792 2 51.709259 4.802039 -6.540298
1793 3 48.873037 7.691211 -7.277354
1794 3 55.276841 1.997970 -6.974031
1795 2 5.684727 35.003831 -18.596181
1796 3 7.036242 29.538197 -20.977793
1797 3 3.896351 32.227565 -20.553141
1798 2 8.108410 4.010784 39.268486
1799 3 9.490189 7.615391 39.692884
1800 3 10.045499 6.905694 37.163665
1801 2 25.417198 35.920189 34.598276
1802 3 26.540783 35.292316 33.052659
1803 3 26.271699 35.888640 33.391617
1804 2 40.481465 -11.109269 17.360499
1805 3 43.878867 -12.737271 18.496040
1806 3 40.236386 -12.262175 14.856338
1807 2 16.752505 4.506763 3.027271
1808 3 17.048324 3.741652 6.463695
1809 3 14.490502 11.096938 5.536878
1810 2 63.855227 6.600298 22.119348
1811 3 67.291932 10.539018 15.241980
1812 3 63.106099 9.118868 19.130990
1813 2 9.371888 -19.900325 34.631296
1814 3 6.879331 -17.805616 29.734158
1815 3 7.635122 -19.272692 32.342601
1816 2 17.063958 -1.202625 20.043249
1817 3 22.087560 -5.199941 21.182134
1818 3 18.986483 -4.406344 21.053982
1819 2 -9.705643 13.574799 28.878704
1820 3 -10.711710 8.049899 28.435082
1821 3 -9.903274 12.752980 22.932952
1822 2 12.455131 19.989515 46.186276
1823 3 13.773436 19.447514 36.083019
1824 3 10.444429 20.031675 41.280096
1825 2 -16.959571 -15.822080 21.053978
1826 3 -14.653351 -12.413568 15.440471
1827 3 -15.040391 -14.293928 22.239420
1828 2 56.539067 -14.556000 12.551174
1829 3 55.545021 -9.291061 16.384033
1830 3 55.026826 -7.834346 11.211949
1831 2 2.687018 17.205387 4.335922
1832 3 5.721226 18.044915 3.516106
1833 3 2.104111 16.151077 -2.910786
1834 2 54.900139 14.529303 25.949504
1835 3 53.824732 17.992423 28.482224
1836 3 55.077486 14.027587 25.226003
1837 2 41.363134 13.141471 2.705879
1838 3 39.689685 11.702500 3.253632
1839 3 40.083474 10.497952 2.364097
1840 2 -6.145089 3.318310 49.695364
1841 3 -6.840852 5.802118 52.548619
1842 3 -6.262082 3.653796 54.787007
1843 2 42.316843 11.298142 4.055741
1844 3 41.732096 16.297157 3.274886
1845 3 41.867128 12.868216 -0.402519
1846 2 66.040272 20.519781 -5.632821
1847 3 64.716036 21.832221 5.167112
1848 3 63.170646 23.774164 0.866261
1849 2 10.224218 15.625210 45.494641
1850 3 8.112048 14.067399 40.435487
1851 3 10.167293 13.348777 42.997700
1852 2 39.240284 25.640773 19.653571
1853 3 42.867692 18.563656 26.074327
1854 3 40.472465 22.030808 21.182180
1855 2 -3.676044 -29.196517 12.608188
1856 3 0.595285 -32.193038 13.796178
1857 3 -4.385920 -30.892426 19.526718
1858 2 12.291884 51.156619 12.041422
1859 3 13.860749 53.153595 13.054688
1860 3 12.679874 54.263401 10.870922
1861 2 -34.258056 26.300023 28.444464
1862 3 -30.183935 24.953021 29.168248
1863 3 -33.611720 30.902628 27.332448
1864 2 7.849458 -10.319887 8.262836
1865 3 8.204438 -13.482274 16.533413
1866 3 7.690395 -9.692712 7.892361
1867 2 8.735592 -0.121697 -4.671069
1868 3 8.452712 0.618257 -5.583345
1869 3 9.965319 4.873814 -5.483854
1870 2 -1.556533 64.174587 8.157248
1871 3 4.123045 60.996622 7.197015
1872 3 7.146257 64.891576 5.076612
1873 2 35.041715 16.895020 -3.195113
1874 3 31.638623 13.259917 -8.407695
1875 3 32.598599 17.567253 1.104985
1876 2 -14.294323 33.065683 43.056372
1877 3 -15.183784 29.533657 40.210120
1878 3 -15.147444 32.523051 43.727459
1879 2 18.006229 33.752047 52.963165
1880 3 18.164589 36.598471 57.117090
1881 3 17.168939 29.729490 55.122920
1882 2 -2.752701 3.822047 51.971636
1883 3 -2.284548 2.300208 52.395214
1884 3 -4.817559 1.298200 52.286088
1885 2 15.050580 32.955037 32.225875
1886 3 14.767582 33.601909 27.523025
1887 3 14.838846 33.500518 31.586818
1888 2 37.601098 11.078478 -4.386790
1889 3 37.689951 11.818446 -5.280188
1890 3 37.993080 8.134373 -6.511458
1891 2 27.836440 -6.245597 26.166852
1892 3 29.951668 -7.664993 21.077235
1893 3 27.247470 -10.246779 27.308994
1894 2 66.520783 6.016588 -11.734453
1895 3 69.789989 1.769761 -6.491980
1896 3 67.117867 1.384226 -11.335038
1897 2 -25.074571 10.517841 34.495144
1898 3 -28.185579 9.929824 28.341149
1899 3 -23.844822 7.869096 27.553284
1900 2 4.579990 3.446474 -9.422219
1901 3 5.752497 4.647126 -12.146697
1902 3 3.353021 7.430179 -12.037548
1903 2 8.922519 4.219543 5.146719
1904 3 11.538221 6.262241 0.148537
1905 3 14.875725 6.415083 6.087345
1906 2 71.378125 -1.853587 27.280033
1907 3 64.601110 -1.158337 29.585120
1908 3 69.407063 -0.742939 26.613002
1909 2 40.151401 -12.297111 -2.876362
1910 3 38.569488 -12.251380 -7.028076
1911 3 41.153961 -15.614477 -8.741858
1912 2 22.744291 35.373567 5.388846
1913 3 20.699450 32.265250 1.593647
1914 3 27.286477 34.049729 3.849887
1915 2 57.630846 20.498446 -7.161187
1916 3 57.013649 22.503302 -4.719772
1917 3 57.226061 24.422092 -3.681955
1918 2 15.265721 -12.572932 9.395864
1919 3 12.339382 -7.114944 12.622526
1920 3 15.639625 -6.587625 7.879553
1921 2 48.546094 41.966237 32.903127
1922 3 49.468458 43.036579 25.506177
1923 3 48.447327 42.348220 33.238846
1924 2 12.761453 21.363911 39.935865
1925 3 9.743136 21.387857 41.087659
1926 3 9.636542 18.291735 41.441800
1927 2 -17.633413 6.547563 14.485280
1928 3 -12.003106 8.920694 10.045795
1929 3 -17.247526 9.126575 12.028566
1930 2 0.070672 19.773210 16.816404
1931 3 0.095792 21.331569 19.588176
1932 3 -1.865436 22.134334 15.902364
1933 2 2.651696 8.607635 -18.996590
1934 3 2.216864 11.916423 -18.687113
1935 3 3.582970 14.192989 -13.000188
1936 2 17.388472 19.737609 -7.412774
1937 3 16.040066 20.476744 -10.165300
1938 3 13.982987 22.638987 -10.596067
1939 2 48.694181 -2.060536 6.953809
1940 3 43.759136 0.074695 0.264831
1941 3 46.604360 -1.100281 5.738322
1942 2 57.699971 27.059628 -8.423125
1943 3 57.975715 28.762043 -8.407303
1944 3 59.609568 28.060668 -10.963164
1945 2 26.249784 52.464198 35.141653
1946 3 23.002779 51.679832 34.149460
1947 3 16.513630 52.426385 33.762363
1948 2 4.858973 32.273113 21.295355
1949 3 4.812732 29.819781 21.298319
1950 3 -1.772069 29.050325 20.550774
1951 2 17.206325 38.117413 39.840592
1952 3 16.951735 37.209569 38.588176
1953 3 16.999696 38.651703 40.285463
1954 2 0.155073 29.407719 19.761604
1955 3 -0.164240 24.674220 21.201490
1956 3 3.408775 27.620105 16.634540
1957 2 49.120603 27.407606 27.351526
1958 3 47.386087 28.766685 26.150408
1959 3 50.047764 24.468083 26.820330
1960 2 -10.779634 31.805420 -4.200206
1961 3 -11.214868 38.105801 2.877010
1962 3 -12.994666 35.158358 -0.566163
1963 2 28.656205 33.944735 -16.052346
1964 3 32.827589 36.412547 -6.323146
1965 3 30.853620 34.203387 -12.934795
1966 2 36.752717 -20.616454 18.374472
1967 3 35.064951 -26.250957 17.339232
1968 3 38.351097 -27.103423 19.142481
1969 2 -23.249109 -2.968272 23.629849
1970 3 -30.095333 1.773353 21.877290
1971 3 -24.519158 3.216797 24.058086
1972 2 27.014384 11.338667 24.625098
1973 3 27.575603 12.383080 16.084031
1974 3 26.270931 10.350156 21.169220
1975 2 17.556111 7.000777 51.449314
1976 3 15.338023 7.780495 47.512530
1977 3 14.622672 4.530166 47.122124
1978 2 -28.976205 -12.065772 10.560424
1979 3 -29.057884 -15.285737 7.320543
1980 3 -29.959214 -11.615741 4.501090
1981 2 6.531149 18.630284 54.354300
1982 3 6.689404 19.468763 56.971831
1983 3 5.838287 21.574211 54.320725
1984 2 3.525870 49.054212 21.086840
1985 3 5.143511 52.192897 17.559648
1986 3 2.684618 48.060954 16.855059
1987 2 27.462021 3.016066 20.463729
1988 3 27.455545 3.602026 25.014161
1989 3 26.990610 3.201969 22.474438
1990 2 20.691377 38.353399 27.042375
1991 3 23.269879 39.073820 24.442316
1992 3 19.805576 38.667523 27.160089
1993 2 34.623599 16.060335 35.259308
1994 3 35.501024 14.746077 37.118573
1995 3 38.160105 16.269998 29.073690
1996 2 20.405087 33.932047 29.581551
1997 3 19.495279 35.835581 30.481457
1998 3 19.194163 29.911519 33.333541
1999 2 60.383213 -9.644553 14.647353
2000 3 62.936142 -10.644280 12.996062
2001 3 61.794003 -8.507116 10.944310
2002 2 20.757872 15.556093 54.338962
2003 3 18.527264 20.235977 56.723148
2004 3 19.707804 18.614193 59.108253
2005 2 16.711629 18.073562 39.109733
2006 3 18.283166 13.100924 38.742713
2007 3 17.273301 13.945110 39.971731
2008 2 46.515557 5.726093 -8.462589
2009 3 44.175007 2.679135 -7.687054
2010 3 43.777801 3.885401 -2.889781
2011 2 57.219245 10.653575 20.020036
2012 3 60.294007 10.984298 16.978417
2013 3 59.415697 7.472404 14.153556
2014 2 -11.484563 8.888365 22.038039
2015 3 -14.837599 6.144058 17.549478
2016 3 -15.730130 7.486839 25.764864
2017 2 18.063385 10.311180 15.531167
2018 3 21.027664 10.903007 15.139059
2019 3 21.670862 7.091606 19.307236
2020 2 -10.559793 0.945657 17.299254
2021 3 -9.005847 6.023009 23.957396
2022 3 -9.946178 0.556931 14.399513
2023 2 26.108504 30.799563 27.826698
2024 3 28.603276 30.628432 27.196300
2025 3 26.543899 31.708350 22.615368
2026 2 -11.133476 36.530880 16.996280
2027 3 -7.155987 34.056859 14.055201
2028 3 -6.858770 39.371122 21.200723
2029 2 11.096208 49.268440 39.289682
2030 3 12.520185 53.761333 39.929280
2031 3 11.616488 48.861203 43.640210
2032 2 -0.673200 14.363749 29.974936
2033 3 -5.498672 15.725498 31.033513
2034 3 -4.414051 15.643870 29.933799
2035 2 13.781763 37.706749 18.605627
2036 3 13.848438 37.480743 19.644102
2037 3 16.399151 33.956284 21.415420
2038 2 -24.765383 23.051458 6.914911
2039 3 -28.664034 19.945478 4.383951
2040 3 -25.098140 16.038352 7.445220
2041 2 24.734841 37.736780 9.369116
2042 3 24.086141 37.835541 11.255292
2043 3 26.640921 37.004384 7.578325
2044 2 26.877929 8.581071 24.827741
2045 3 23.537608 2.820430 24.187414
2046 3 25.126404 8.115148 20.857790
2047 2 14.509203 41.503495 0.420772
2048 3 16.296066 42.668928 4.248530
2049 3 18.046862 39.725299 6.081208
2050 2 60.009401 5.488532 4.493299
2051 3 57.062589 6.039578 6.020527
2052 3 56.961536 6.712380 6.670439
2053 2 -7.042078 42.371232 24.566459
2054 3 -9.119630 35.011665 25.828793
2055 3 -8.080893 36.537044 20.061801
2056 2 -33.283416 9.338555 26.187424
2057 3 -32.444647 3.704510 26.546668
2058 3 -31.334954 6.013053 19.786591
2059 2 -6.453399 36.630195 12.585852
2060 3 -5.113887 41.237577 5.795884
2061 3 -9.690126 39.790816 -1.596615
2062 2 -24.474741 25.851796 5.996180
2063 3 -21.602475 25.052120 5.891500
2064 3 -23.334941 26.976087 5.104340
2065 2 20.163545 50.929590 -9.027525
2066 3 24.161843 50.369746 -14.044634
2067 3 19.035317 50.010700 -13.478268
2068 2 0.591500 7.650588 11.971790
2069 3 1.027652 14.024014 8.957846
2070 3 4.658150 8.132122 11.452451
2071 2 22.785532 43.985269 30.556217
2072 3 20.621793 47.321456 30.494967
2073 3 26.166768 44.700576 27.945263
2074 2 23.589896 34.671309 4.523177
2075 3 27.511449 36.333267 9.666689
2076 3 26.187126 34.530550 5.417063
2077 2 30.066400 58.979937 28.108628
2078 3 30.156613 59.734412 28.465836
2079 3 27.926720 51.041359 36.134529
2080 2 2.439480 40.107200 60.103026
2081 3 -2.169961 40.135396 57.189808
2082 3 3.782616 40.286149 59.617266
2083 2 40.502726 57.718917 -16.852368
2084 3 45.307836 51.967748 -11.954068
2085 3 41.933334 53.890980 -15.641177
2086 2 -4.665792 27.374803 -5.769143
2087 3 -1.132601 25.175454 -2.198109
2088 3 -1.071934 28.225339 -5.071988
2089 2 27.245512 -1.552407 13.728913
2090 3 27.314020 0.475301 10.747200
2091 3 30.115207 0.729573 17.901209
2092 2 25.280834 35.837086 9.948985
2093 3 24.777241 32.717058 2.964681
2094 3 24.412722 33.717299 5.811946
2095 2 36.830953 32.772529 24.846948
2096 3 35.578564 33.957993 17.504642
2097 3 36.752607 32.187336 19.996834
2098 2 -11.606795 19.411643 7.080047
2099 3 -12.720121 20.370456 3.335488
2100 3 -9.350144 17.599662 3.502326
2101 2 0.168677 29.351112 -3.504899
2102 3 -1.881798 31.751758 -6.570261
2103 3 0.144031 26.004188 -7.585821
2104 2 43.004430 39.797350 18.183259
2105 3 42.301984 37.904240 23.724925
2106 3 43.842653 35.540813 20.418834
2107 2 22.424049 6.166941 9.591956
2108 3 25.410859 11.837229 11.554869
2109 3 22.082277 6.457722 6.408477
2110 2 -39.194233 33.897218 0.226789
2111 3 -39.097309 37.634877 3.830984
2112 3 -39.210108 35.672489 4.274528
2113 2 35.778971 22.562523 14.081144
2114 3 35.592581 22.602372 20.818056
2115 3 37.449982 23.366822 16.160012
2116 2 29.798565 2.470626 -6.073984
2117 3 34.851241 5.975916 -3.176242
2118 3 32.181406 3.214814 -5.043480
2119 2 12.365014 23.768237 37.408680
2120 3 11.779344 21.577855 39.994918
2121 3 11.333506 23.374451 37.029630
2122 2 60.304462 52.469585 -0.776039
2123 3 64.534847 56.364040 1.954140
2124 3 66.015030 54.358329 1.487673
2125 2 15.521384 62.803419 -12.454234
2126 3 15.584676 62.223174 -13.803514
2127 3 11.853072 56.729342 -12.161532
2128 2 56.521251 25.567461 -7.227131
2129 3 56.378686 24.038355 -15.640005
2130 3 56.751189 23.127169 -14.151410
2131 2 49.943644 51.029414 25.368450
2132 3 48.985344 51.290492 25.728923
2133 3 50.109186 50.880644 30.386415
2134 2 3.958978 9.089671 7.812742
2135 3 5.022683 6.991659 4.487693
2136 3 2.350136 12.213751 7.719187
2137 2 -35.944060 61.015247 2.887262
2138 3 -32.867883 62.089434 0.187281
2139 3 -35.922688 55.835003 -1.559751
2140 2 27.041706 54.799675 3.786713
2141 3 26.175509 50.835909 3.367714
2142 3 28.780652 53.634119 -4.136361
2143 2 24.931073 51.589131 65.946521
2144 3 26.283909 51.460258 65.778979
2145 3 24.611070 52.065006 66.290973
2146 2 -8.004221 35.670713 -13.960444
2147 3 -10.197561 36.555318 -8.353283
2148 3 -7.600900 40.428455 -14.003291
2149 2 27.612773 26.304897 14.197599
2150 3 27.882256 26.468085 10.105017
2151 3 22.279470 22.800333 13.340550
2152 2 46.272056 60.575072 46.577309
2153 3 48.371306 69.270968 46.044047
2154 3 48.526984 66.598755 47.744985
2155 2 2.909006 59.264945 17.476599
2156 3 6.854961 60.998055 17.081686
2157 3 3.925950 59.108413 14.919845
2158 2 28.243688 73.340342 16.823587
2159 3 23.438347 77.259250 15.674983
2160 3 29.445716 76.970501 18.103264
2161 2 29.970814 70.979941 -13.334354
2162 3 30.117359 72.219410 -15.904330
2163 3 32.894351 71.533601 -12.570884
2164 2 42.523409 35.986303 38.414397
2165 3 43.664917 39.787600 33.322177
2166 3 43.366912 42.222171 27.401394
2167 2 63.832352 13.070570 -14.654429
2168 3 60.439089 6.571139 -14.756931
2169 3 60.281349 10.954644 -20.154855
2170 2 13.979545 11.187806 -13.687328
2171 3 15.648337 9.983508 -13.589862
2172 3 17.735773 17.010199 -17.177227
2173 2 3.136670 -9.930078 9.156326
2174 3 0.680433 -9.267815 -2.679761
2175 3 1.147901 -10.209629 4.090609
2176 2 -7.753226 -7.402928 33.112009
2177 3 -9.051993 -6.326393 38.872502
2178 3 -5.970906 -10.432038 40.509036
2179 2 11.149747 29.181835 -10.623703
2180 3 10.355795 27.146993 -11.742637
2181 3 10.105320 22.190598 -9.165692
2182 2 36.116393 12.985859 12.318038
2183 3 32.304005 8.197629 9.390634
2184 3 33.788401 11.891301 16.727488
2185 2 -26.538335 -4.082932 3.621013
2186 3 -22.414454 -4.986297 -7.104588
2187 3 -21.870195 -6.822617 1.872913
2188 2 8.429690 -10.532821 1.946231
2189 3 10.104946 -11.672833 1.062853
2190 3 10.347659 -15.641058 2.533124
2191 2 38.671144 6.112732 -2.100811
2192 3 39.030611 4.827402 3.327898
2193 3 39.872132 10.554976 1.659860
2194 2 48.441180 5.482358 27.259195
2195 3 46.987936 2.086662 24.966465
2196 3 47.495023 1.145513 33.307901
2197 2 46.675944 -17.362110 15.953803
2198 3 45.950216 -18.641923 15.500599
2199 3 46.270324 -22.635884 12.447474
2200 2 32.925189 -11.477824 14.190858
2201 3 30.144830 -14.453098 8.690554
2202 3 30.723792 -9.171933 16.889992
2203 2 27.805406 29.312611 6.215762
2204 3 32.850173 28.715559 6.119032
2205 3 27.541426 27.721662 0.274682
2206 2 80.125196 4.284804 25.739009
2207 3 81.713714 10.465007 33.530154
2208 3 78.657242 11.929678 31.562658
2209 2 67.647564 11.097365 15.277339
2210 3 70.511632 8.217218 15.422924
2211 3 69.905587 8.635335 19.304289
2212 2 3.509829 26.664578 12.326812
2213 3 4.033797 28.528049 17.379484
2214 3 6.147452 27.661902 21.096515
2215 2 6.793460 6.105259 -10.045606
2216 3 12.415768 8.715670 -8.783084
2217 3 12.708960 6.776008 -6.404691
2218 2 -8.479124 -10.124871 5.213223
2219 3 -4.959561 -10.165708 6.189847
2220 3 -4.700567 -8.200725 0.223852
2221 2 34.046383 0.440396 5.099309
2222 3 33.273856 -0.473834 2.251453
2223 3 32.065474 0.132446 9.767599
2224 2 3.491618 6.114249 48.752689
2225 3 1.184522 6.783081 54.341813
2226 3 -0.136507 3.710375 54.060159
2227 2 18.826307 -26.461916 30.853515
2228 3 20.758080 -22.979364 34.137776
2229 3 18.802884 -30.468792 30.626342
2230 2 21.952828 29.064354 18.087040
2231 3 21.486696 28.068610 7.811874
2232 3 21.755494 30.942875 16.208929
2233 2 -4.925536 -7.770820 34.610927
2234 3 -3.409322 -4.284769 42.911072
2235 3 -9.205847 -8.309149 41.193380
2236 2 33.553608 1.039156 7.754010
2237 3 38.551205 1.145956 7.092148
2238 3 38.690593 1.393305 10.436871
2239 2 26.472215 -6.456471 15.804162
2240 3 24.524612 -12.797131 14.050982
2241 3 27.985696 -14.017879 12.558452
2242 2 43.421042 13.331957 -14.545767
2243 3 45.265940 14.606058 -17.069294
2244 3 48.470236 13.070803 -13.464270
2245 2 54.353698 -4.576030 10.914396
2246 3 51.305358 -4.225653 13.318592
2247 3 54.596423 0.745462 17.640299
2248 2 0.358016 -0.338088 0.566628
2249 3 -0.719366 3.179060 1.742648
2250 3 -3.960614 -0.375489 3.301039
2251 2 -26.223427 0.252345 24.276006
2252 3 -24.247136 -3.043596 28.161301
2253 3 -26.231389 -1.500844 27.865114
2254 2 9.865444 16.580681 9.096215
2255 3 8.960035 16.077345 9.864845
2256 3 12.256367 19.095704 3.421668
2257 2 -0.256626 36.706608 4.907088
2258 3 -1.450862 37.240183 4.234443
2259 3 3.162664 35.266104 11.423183
2260 2 26.098988 25.087278 18.981161
2261 3 24.692993 26.165448 14.797957
2262 3 27.534306 24.323949 18.534155
2263 2 -13.211095 33.678758 15.041277
2264 3 -10.958062 30.159853 13.487576
2265 3 -14.099857 30.412234 12.327122
2266 2 5.985450 24.611943 6.411370
2267 3 6.590059 22.786876 7.526529
2268 3 3.995970 26.080958 6.216963
2269 2 22.354016 19.831062 36.282933
2270 3 21.832777 21.112890 33.339717
2271 3 19.109673 20.541081 43.073223
2272 2 24.619674 22.465393 6.792908
2273 3 25.806894 24.114630 11.483052
2274 3 24.747794 21.312790 6.235340
2275 2 15.610684 12.604692 17.479628
2276 3 15.618567 14.177427 18.277344
2277 3 11.673658 5.196411 21.674552
2278 2 0.417968 36.733417 -19.635513
2279 3 3.475597 41.384776 -22.494354
2280 3 3.643040 36.451854 -26.638219
2281 2 27.307777 5.030931 -1.004283
2282 3 26.017241 7.770773 4.618349
2283 3 23.628314 4.620386 0.346206
2284 2 33.268551 16.488528 -1.777484
2285 3 32.471467 13.478374 -2.479348
2286 3 35.863048 17.363690 3.105074
2287 2 50.131571 30.570824 8.923957
2288 3 52.128939 27.586452 7.990450
2289 3 52.656679 28.721777 8.924239
2290 2 -21.259294 48.230718 -17.826998
2291 3 -19.701591 49.889112 -19.952011
2292 3 -19.568311 47.558985 -19.156193
2293 2 19.074861 -5.550491 37.055241
2294 3 21.529879 -2.529109 35.444039
2295 3 18.061300 -3.802953 36.430153
2296 2 -3.176594 -5.488205 48.568061
2297 3 -1.134613 -6.038581 48.108170
2298 3 -0.869763 -3.258008 47.707821
2299 2 -34.854833 -17.614220 19.285653
2300 3 -35.484653 -16.650725 24.335181
2301 3 -31.029011 -18.183621 22.227114
2302 2 15.946409 16.838733 -15.830646
2303 3 16.799692 18.901042 -11.804586
2304 3 17.496773 16.844385 -14.986454
2305 2 16.512911 21.994732 48.617698
2306 3 16.348319 22.444975 48.797958
2307 3 22.143378 20.463471 51.783530
2308 2 46.630754 52.285556 11.535974
2309 3 47.894277 55.200559 21.876963
2310 3 48.546181 49.707593 19.293655
2311 2 14.319404 2.788047 19.877285
2312 3 17.354579 5.953428 21.556060
2313 3 18.662809 7.257739 24.672411
2314 2 16.162600 -6.659617 28.060805
2315 3 13.533264 -10.004337 23.363423
2316 3 14.763004 -7.224301 26.583758
2317 2 32.270851 16.631117 -27.717580
2318 3 34.800480 18.788232 -28.182407
2319 3 31.391822 15.195849 -30.678021
2320 2 12.288652 1.193196 -15.854492
2321 3 15.634551 -1.497233 -14.329847
2322 3 14.039395 2.938822 -11.730701
2323 2 20.241647 19.906791 24.643714
2324 3 16.676655 20.023921 22.953501
2325 3 17.785751 20.334270 19.357413
2326 2 41.853944 29.230049 6.248918
2327 3 43.868552 29.185328 5.853810
2328 3 45.574456 32.359623 8.612481
2329 2 -10.694239 50.873547 -9.869228
2330 3 -13.570570 45.371090 -9.147715
2331 3 -11.337016 48.268392 -6.782403
2332 2 13.295804 35.106025 46.880605
2333 3 9.145744 37.410853 49.127953
2334 3 8.607433 33.146814 44.112558
2335 2 32.275110 -28.019291 5.980459
2336 3 31.388829 -22.920808 8.695326
2337 3 29.479727 -22.593950 8.354991
2338 2 51.390337 46.707628 24.941992
2339 3 55.678508 41.886869 29.174559
2340 3 53.785556 42.005962 22.423111
2341 2 11.305115 24.790500 29.158363
2342 3 9.486211 20.021569 26.913809
2343 3 11.239632 23.152003 30.371019
2344 2 12.598848 51.879761 20.514432
2345 3 12.106719 51.823699 21.085557
2346 3 12.899773 47.876091 31.426039
2347 2 -3.657410 38.370413 -3.976198
2348 3 -5.321972 36.782928 -6.211407
2349 3 -5.745784 37.449204 -6.049798
2350 2 39.049689 11.471299 15.628742
2351 3 44.373417 12.328360 16.105482
2352 3 41.624018 10.045396 18.792842
2353 2 16.132716 64.542086 32.213504
2354 3 12.572492 59.501247 28.114338
2355 3 13.079737 64.821807 32.488779
2356 2 10.935181 -15.959162 42.300740
2357 3 9.672673 -14.508019 40.404239
2358 3 11.211343 -16.665260 41.019249
2359 2 4.540926 16.382459 14.358148
2360 3 4.101048 8.979618 21.066149
2361 3 2.875537 12.369957 15.247976
2362 2 6.786979 22.583439 10.210374
2363 3 2.687157 18.987730 8.633683
2364 3 2.047766 22.836308 5.975246
2365 2 22.319210 1.769590 4.488411
2366 3 22.391208 1.766960 0.145956
2367 3 23.444865 -3.391187 5.840181
2368 2 47.921556 26.141356 47.387165
2369 3 41.828999 23.679573 53.775617
2370 3 48.161905 30.798002 50.419802
2371 2 3.312972 14.708605 32.850399
2372 3 4.138162 12.199003 36.665064
2373 3 1.543277 15.306454 31.583610
2374 2 3.233681 4.048830 12.933769
2375 3 5.229334 -1.581979 12.683968
2376 3 6.372776 -0.231510 16.170660
2377 2 25.457491 56.866310 63.948573
2378 3 26.276394 57.492951 56.613856
2379 3 23.842265 61.047849 60.337050
2380 2 43.866426 30.319477 -4.284971
2381 3 45.341934 28.902464 -3.674561
2382 3 45.463164 31.117800 -6.022113
2383 2 31.857512 31.663365 12.191560
2384 3 32.944129 37.519263 13.165083
2385 3 29.379790 34.537036 17.706417
2386 2 -13.498505 18.383304 66.080720
2387 3 -14.873345 24.739619 64.127647
2388 3 -15.384015 18.862483 65.910960
2389 2 -16.680804 -1.894473 30.642838
2390 3 -13.277990 -0.355353 23.632722
2391 3 -14.207264 4.869654 31.916392
2392 2 -29.361609 12.676766 17.459588
2393 3 -23.620816 11.457219 11.286027
2394 3 -28.190752 9.554781 5.413830
2395 2 22.689703 24.642141 22.697874
2396 3 20.894156 22.238718 21.903273
2397 3 18.249932 21.452617 18.291762
2398 2 9.326556 12.433653 6.387927
2399 3 11.248815 11.556377 9.231880
2400 3 10.359733 13.596534 13.865254
2401 2 38.266427 61.870732 13.269136
2402 3 36.916093 60.768375 10.502688
2403 3 42.705829 56.770082 12.752275
2404 2 3.978678 35.598406 7.973589
2405 3 8.589982 35.368838 7.722304
2406 3 8.010940 35.275244 4.142970
2407 2 62.051124 67.399028 6.602694
2408 3 61.933616 70.594357 -1.309117
2409 3 56.189221 65.666310 2.818292
2410 2 40.409992 14.093545 7.408968
2411 3 41.309748 7.220922 8.522651
2412 3 45.118042 3.851684 10.411238
2413 2 37.041740 23.137828 2.997277
2414 3 36.352325 26.206758 6.315526
2415 3 35.575102 24.773352 5.737142
2416 2 -16.915949 58.156652 14.005079
2417 3 -20.116933 51.036756 21.323487
2418 3 -21.346667 55.588656 21.527712
2419 2 -5.301728 42.150447 36.445239
2420 3 -4.886834 43.037293 36.149730
2421 3 -2.038637 44.593853 34.854450
2422 2 17.762379 30.751628 40.977393
2423 3 21.120690 31.425492 37.862466
2424 3 16.213833 32.428440 37.766272
2425 2 11.478887 66.895744 3.255301
2426 3 9.336728 62.368144 -2.089018
2427 3 11.409529 60.710987 4.260865
2428 2 6.389591 9.727817 26.286540
2429 3 9.047469 10.715303 30.668069
2430 3 7.400105 9.033387 27.670888
2431 2 5.775250 4.867673 41.561522
2432 3 3.807060 0.187944 42.346527
2433 3 9.564857 7.697042 42.140283
2434 2 11.427458 57.583420 0.468871
2435 3 15.980678 60.021301 2.361167
2436 3 8.164014 61.939584 3.262775
2437 2 18.423174 18.815117 40.781157
2438 3 20.882411 12.313647 39.700788
2439 3 22.025461 19.192896 38.997557
2440 2 55.979161 36.889261 38.688236
2441 3 56.976480 34.319309 31.399123
2442 3 54.439186 33.612453 40.011591
2443 2 64.891564 21.392672 -8.487760
2444 3 62.292268 19.728803 -8.831504
2445 3 61.495806 18.840178 -4.165155
2446 2 53.162734 16.253072 14.678144
2447 3 53.740301 15.432475 12.217652
2448 3 52.852165 17.285434 12.810498
2449 2 -0.167873 -7.149507 -19.352805
2450 3 1.962415 -6.127823 -21.753158
2451 3 0.277491 -7.336366 -19.894308
2452 2 23.219048 43.461407 33.762362
2453 3 18.271678 44.004250 33.042202
2454 3 20.384614 44.056478 34.537799
2455 2 48.976198 11.483879 33.760535
2456 3 46.221643 13.778387 28.379216
2457 3 49.586027 8.982930 29.391288
2458 2 54.276599 13.086685 42.034537
2459 3 56.571424 12.458725 47.294399
2460 3 50.639804 12.191439 50.070160
2461 2 64.290205 40.214352 51.699775
2462 3 63.150190 40.904980 51.247117
2463 3 58.410940 40.407397 50.556679
2464 2 0.554289 45.064251 11.892927
2465 3 2.268383 47.509945 11.948979
2466 3 0.016831 41.485231 17.403425
2467 2 -27.508707 30.529351 20.520805
2468 3 -22.261093 37.419822 15.402885
2469 3 -28.082035 31.596803 19.711460
2470 2 8.001639 41.617381 0.940560
2471 3 6.054819 43.122036 -4.555284
2472 3 6.754333 43.889142 -0.508263
2473 2 33.349940 30.948524 14.017423
2474 3 35.256171 26.949899 15.766799
2475 3 34.253331 33.287709 5.461888
2476 2 1.062930 -5.395041 -2.506456
2477 3 0.588046 -0.274379 -10.316162
2478 3 4.915890 -6.359869 -3.638308
2479 2 11.189302 25.169410 14.323863
2480 3 7.242395 28.366984 9.923265
2481 3 7.502784 25.144414 8.987448
2482 2 31.217292 28.334293 10.158384
2483 3 29.381350 25.974947 4.556520
2484 3 34.241821 28.450617 6.699533
2485 2 42.716011 77.027297 -14.359564
2486 3 38.611578 70.441310 -17.983775
2487 3 37.894428 74.302146 -19.160631
2488 2 -2.291775 30.469270 2.004174
2489 3 -4.077329 32.926308 2.703204
2490 3 0.914372 33.134917 1.348706
2491 2 37.705002 43.696918 -13.830334
2492 3 38.700203 46.051718 -12.892652
2493 3 35.869415 44.572054 -12.206707
2494 2 16.431749 59.167763 26.411972
2495 3 16.595297 60.554402 25.604839
2496 3 14.464123 60.013414 23.780982
2497 2 23.057306 21.683596 6.048389
2498 3 25.314967 23.627855 5.393645
2499 3 23.374945 23.516179 2.400995
2500 2 6.098837 12.823982 28.547284
2501 3 7.839483 10.628046 36.549380
2502 3 5.835201 11.621061 41.254727
2503 2 0.323049 17.133078 14.897781
2504 3 -0.079856 18.857971 10.333600
2505 3 -1.366444 19.931253 9.401148
2506 2 19.629279 41.615727 40.081060
2507 3 22.060577 49.188580 44.603791
2508 3 18.700155 45.140477 37.926693
2509 2 -6.771878 43.439441 -4.030381
2510 3 -9.124156 44.985002 -4.468635
2511 3 -10.671126 39.516226 -7.991733
2512 2 -6.822814 51.981067 23.819145
2513 3 -3.898913 63.260365 22.992520
2514 3 -3.558012 55.996264 20.581020
2515 2 10.674909 33.572087 23.868932
2516 3 12.178334 32.794901 24.208020
2517 3 8.215610 33.180206 20.989129
2518 2 36.503909 20.557854 15.429937
2519 3 37.748055 20.593978 14.744620
2520 3 36.812875 20.562198 19.429652
2521 2 -1.451951 63.723989 45.314609
2522 3 0.440697 64.178282 42.468406
2523 3 -2.477909 67.717281 42.216803
2524 2 25.954322 45.392676 16.829711
2525 3 29.064886 45.676991 17.801228
2526 3 27.754585 42.916703 16.200943
2527 2 20.465677 54.984559 22.454348
2528 3 24.956931 55.579355 18.555021
2529 3 24.588602 58.308904 20.561056
2530 2 50.245231 45.137216 24.633078
2531 3 51.634907 44.383840 20.620512
2532 3 53.349946 42.693910 23.903541
2533 2 39.724648 19.551092 -1.051570
2534 3 41.986112 19.825700 -0.423819
2535 3 39.528335 19.707939 1.247299
2536 2 41.315906 68.414663 -5.407487
2537 3 42.324257 64.352090 -6.505396
2538 3 45.998959 64.333187 -1.260559
2539 2 11.386678 46.693895 28.078877
2540 3 15.804659 54.591673 29.888014
2541 3 13.375500 47.141104 30.215973
2542 2 13.695330 1.363586 7.459639
2543 3 15.483079 6.008222 2.413949
2544 3 17.851707 0.949199 10.242948
2545 2 19.888024 16.134506 11.183675
2546 3 20.688026 13.275061 11.197768
2547 3 20.153882 14.151677 9.226061
2548 2 2.425273 -14.215797 52.644639
2549 3 1.773897 -13.390041 48.095798
2550 3 0.935158 -12.569914 50.386476
2551 2 21.662115 5.534493 6.721808
2552 3 21.522593 4.154682 6.825967
2553 3 21.533251 1.831546 7.344198
2554 2 17.555090 -9.421698 18.227485
2555 3 15.730041 -8.644958 9.622204
2556 3 17.928493 -13.488500 16.377270
2557 2 -9.539291 -14.994336 32.206942
2558 3 -10.112194 -11.751496 36.089125
2559 3 -13.863390 -10.386049 38.634869
2560 2 66.501700 18.501417 11.814192
2561 3 63.940172 16.608485 12.857849
2562 3 66.429309 19.099217 10.940878
2563 2 51.560849 -2.734152 -6.586289
2564 3 51.596749 -3.231496 -2.266351
2565 3 48.542921 -3.842421 -8.915929
2566 2 23.800737 10.418235 27.792282
2567 3 22.027325 12.564917 27.270558
2568 3 29.741340 9.343249 28.756609
2569 2 54.758647 13.311237 49.740428
2570 3 53.020908 12.721716 47.531690
2571 3 52.628421 9.525752 43.946672
2572 2 46.166802 33.159808 12.751300
2573 3 48.908934 37.415167 10.197038
2574 3 50.179609 30.588471 10.377385
2575 2 58.025432 50.933923 26.814576
2576 3 58.816375 44.284854 25.698890
2577 3 59.640421 50.693331 25.155023
2578 2 55.003005 -5.839283 16.945006
2579 3 55.040421 -8.199336 13.307810
2580 3 58.354177 -5.120902 11.630671
2581 2 30.859294 27.974391 56.361225
2582 3 30.401478 32.002045 60.570169
2583 3 30.361344 29.787160 58.345675
2584 2 16.521247 4.447705 -15.621615
2585 3 11.727162 7.566709 -11.239497
2586 3 13.753248 -1.980571 -11.516137
2587 2 -22.132011 22.157205 51.838913
2588 3 -23.983853 16.897164 55.743230
2589 3 -18.721482 17.338084 51.217694
2590 2 11.777632 16.579548 5.873474
2591 3 14.116555 13.976877 3.746584
2592 3 12.603313 13.283611 9.185328
2593 2 -31.197671 23.099279 7.680353
2594 3 -32.044700 18.589354 7.405190
2595 3 -30.316748 20.639768 7.227218
2596 2 21.089456 -1.046076 30.506173
2597 3 22.676667 -3.465606 33.574054
2598 3 20.314820 -4.067676 36.957947
2599 2 30.421886 23.886473 25.661853
2600 3 25.772173 26.387354 16.943043
2601 3 25.339872 24.319570 21.894684
2602 2 8.081304 6.103129 -8.596650
2603 3 8.297039 6.976482 -2.150716
2604 3 7.578008 6.042370 -6.398252
2605 2 29.438761 1.087235 20.361946
2606 3 27.858957 -1.008825 29.762099
2607 3 31.904535 2.127376 20.741986
2608 2 25.904740 13.005195 37.514140
2609 3 27.193917 16.674926 36.048716
2610 3 27.283690 15.604210 36.254241
2611 2 10.392794 17.559531 7.713160
2612 3 8.123625 16.308381 5.473183
2613 3 12.647304 16.810747 6.700681
2614 2 27.200454 26.884219 7.022560
2615 3 24.492585 20.392394 7.897023
2616 3 28.589358 22.185108 2.190414
2617 2 21.782670 15.033530 0.697025
2618 3 21.264318 12.921368 -4.521093
2619 3 19.439688 13.074462 -7.118810
2620 2 -5.790851 -1.078801 28.752091
2621 3 -6.960842 -0.963454 29.197416
2622 3 -4.681782 -4.126394 31.125096
2623 2 -7.543674 6.760011 30.376608
2624 3 -7.440389 6.592782 35.297854
2625 3 -5.515887 5.602619 32.832238
2626 2 9.360238 -10.732484 0.415642
2627 3 3.969628 -12.172060 8.496617
2628 3 6.645581 -12.577311 0.709465
2629 2 15.992053 28.759937 18.666171
2630 3 13.136414 29.436234 18.655629
2631 3 16.313200 32.568868 23.429347
2632 2 58.463953 20.472087 7.623097
2633 3 60.712337 20.451844 11.093975
2634 3 59.619290 23.907383 11.982587
2635 2 33.478485 -6.968694 16.182515
2636 3 32.852700 -4.076143 17.946623
2637 3 34.399625 -4.217509 18.212061
2638 2 8.844427 -15.569240 66.227361
2639 3 10.087232 -11.338027 63.853514
2640 3 10.342659 -9.417302 65.189839
2641 2 7.418644 17.404794 17.095828
2642 3 8.382598 14.005302 22.183010
2643 3 6.795126 19.126173 21.743082
2644 2 41.705811 28.281464 43.763521
2645 3 41.712567 25.214540 49.850087
2646 3 41.830584 27.723293 43.087602
2647 2 25.800251 22.250010 23.630653
2648 3 23.051609 21.413915 21.178302
2649 3 25.021401 22.760295 27.232928
2650 2 -14.133449 16.274770 9.902749
2651 3 -12.659216 18.388719 12.576940
2652 3 -11.807941 19.220726 10.048510
2653 2 37.790538 25.952449 42.367048
2654 3 35.326303 25.966016 44.920022
2655 3 35.559724 27.723646 39.594188
2656 2 34.574437 3.316362 32.761274
2657 3 37.032493 8.751319 27.832127
2658 3 32.470818 14.200938 26.562902
2659 2 -5.760601 -3.544514 -3.397900
2660 3 -6.820115 -6.691107 -7.263015
2661 3 -7.962020 1.419460 -8.325366
2662 2 34.153865 9.689835 8.190624
2663 3 32.782969 4.920669 12.455104
2664 3 34.287676 9.840275 16.295369
2665 2 -3.491942 -23.088367 29.002160
2666 3 -1.077149 -18.342289 32.415749
2667 3 -0.011906 -16.735204 36.259088
2668 2 16.605162 27.555787 32.116895
2669 3 13.944799 29.112889 31.319910
2670 3 11.094093 23.416800 26.039101
2671 2 9.107129 7.087643 6.670368
2672 3 8.826561 8.782677 0.633644
2673 3 11.748373 5.258308 3.936911
2674 2 21.498235 19.433091 -16.101886
2675 3 21.093909 14.995620 -15.754558
2676 3 23.613259 18.591623 -9.956482
2677 2 53.235908 17.394565 14.349064
2678 3 51.278009 22.667047 16.776909
2679 3 52.010087 23.671839 13.775364
2680 2 57.925145 18.889793 31.862410
2681 3 51.577537 20.966212 34.055381
2682 3 58.595071 15.789639 37.031258
2683 2 25.720645 15.756155 17.411218
2684 3 24.904986 14.581260 21.464230
2685 3 23.758319 14.962197 16.201643
2686 2 19.979372 -10.444167 33.409179
2687 3 20.211474 -11.862341 33.772173
2688 3 22.050305 -9.525653 27.927998
2689 2 51.624520 12.008134 -10.140017
2690 3 54.139916 13.277152 -13.915186
2691 3 51.560538 13.877530 -12.444782
2692 2 49.647095 -9.208342 8.518642
2693 3 46.582634 -9.394992 10.040506
2694 3 47.120669 -11.457907 13.018372
2695 2 -12.767665 -5.783896 27.136668
2696 3 -14.573281 -3.696939 19.474683
2697 3 -11.919138 -2.625305 25.199055
2698 2 56.604190 23.704982 13.275001
2699 3 55.037734 21.972505 13.681008
2700 3 55.837795 21.557731 17.133905
2701 2 28.123776 35.909489 26.218463
2702 3 28.987703 38.969345 25.750620
2703 3 27.431639 40.295298 22.770730
2704 2 22.082802 34.185644 43.530519
2705 3 21.199361 36.311589 42.837050
2706 3 18.351613 36.117299 39.298269
2707 2 11.965131 8.468964 19.272450
2708 3 5.642475 7.842776 23.381037
2709 3 8.512041 12.438175 24.621850
2710 2 31.970803 10.918038 43.731472
2711 3 27.800905 13.173996 39.574341
2712 3 30.193112 13.023041 40.618046
2713 2 -37.418558 3.494222 29.428389
2714 3 -36.845846 1.706357 27.388714
2715 3 -35.325418 3.797334 27.624486
2716 2 13.366541 14.685541 37.839376
2717 3 15.194974 10.823990 33.508466
2718 3 10.208318 13.803567 41.214127
2719 2 26.575007 22.589062 6.447906
2720 3 25.099552 24.305072 3.765542
2721 3 28.725086 23.839815 7.477335
2722 2 -29.408518 36.983702 -1.943519
2723 3 -29.678774 36.971098 -2.445711
2724 3 -24.775089 34.064072 0.013295
2725 2 0.065845 54.068904 21.641340
2726 3 -1.726242 55.178163 22.567859
2727 3 1.527858 52.037783 24.010892
2728 2 4.182996 27.800987 55.733091
2729 3 6.360828 23.601129 52.796917
2730 3 5.259408 24.277984 48.157455
2731 2 3.731439 54.469298 -2.604702
2732 3 4.083318 52.562334 -3.906088
2733 3 7.989824 50.394559 -5.260449
2734 2 -5.468717 56.060046 -17.225017
2735 3 -0.484569 58.487820 -22.501213
2736 3 -6.626185 55.613256 -22.037277
2737 2 37.505373 32.056307 40.567281
2738 3 41.329747 31.688995 42.246097
2739 3 38.743985 30.113563 39.019767
2740 2 -28.161992 -1.287220 28.563096
2741 3 -23.937332 -0.192808 31.902535
2742 3 -27.193052 -1.253829 29.891895
2743 2 30.610643 8.712133 7.533719
2744 3 32.408162 12.924255 11.247589
2745 3 27.125951 9.669711 3.770778
2746 2 43.277005 41.169268 47.426693
2747 3 45.206416 46.072610 49.949537
2748 3 42.760719 43.186461 54.034495
2749 2 -2.713251 24.026019 17.173949
2750 3 -3.990492 24.337427 17.156078
2751 3 -0.313536 23.606435 15.478252
2752 2 20.449112 47.757551 5.772719
2753 3 18.600747 41.899697 4.268258
2754 3 20.003267 46.195303 2.775201
2755 2 36.761092 26.297849 37.840822
2756 3 34.793698 26.789573 41.738135
2757 3 35.758418 30.576803 36.383579
2758 2 10.422074 14.307942 30.390714
2759 3 12.398457 14.228329 31.997096
2760 3 13.196222 12.328902 30.234243
2761 2 0.647890 16.353254 44.356181
2762 3 2.415485 15.347533 38.697493
2763 3 0.098410 15.213632 40.127659
2764 2 34.917640 33.037093 20.751362
2765 3 30.601238 28.349515 19.017212
2766 3 33.887043 30.007289 24.523438
2767 2 14.166755 59.470838 -6.394322
2768 3 9.179083 59.468934 -9.800016
2769 3 15.731146 60.653682 -1.762935
2770 2 23.845848 28.883561 20.625507
2771 3 21.430953 27.553776 19.988543
2772 3 25.208321 28.607263 15.453522
2773 2 23.075583 29.546914 20.957815
2774 3 17.544522 26.042012 21.546755
2775 3 22.880313 24.365839 18.689096
2776 2 9.078329 19.390981 19.720521
2777 3 6.192787 20.528022 19.769723
2778 3 7.283572 20.710609 21.766636
2779 2 17.821808 28.560538 3.372848
2780 3 16.491329 31.931318 -6.411959
2781 3 15.672288 26.095999 -2.775989
2782 2 -5.331108 48.686430 36.035823
2783 3 -9.746483 44.118048 37.950039
2784 3 -8.587708 44.446318 36.819327
2785 2 75.066340 6.968602 38.858676
2786 3 79.033793 6.718965 37.193269
2787 3 79.062461 9.778678 38.975205
2788 2 24.666628 34.829536 16.234392
2789 3 25.441002 40.087780 10.932163
2790 3 27.891314 40.800553 10.831738
2791 2 -18.416543 42.445927 25.514890
2792 3 -15.175339 34.859782 21.183891
2793 3 -18.597297 34.350975 22.360208
2794 2 -5.839307 2.548154 27.602448
2795 3 -11.066886 7.707391 29.556913
2796 3 -5.685089 8.113377 20.479280
2797 2 38.162054 2.455849 21.358353
2798 3 38.432774 1.099775 13.005301
2799 3 38.543691 7.754505 16.464822
2800 2 3.953109 58.564438 -15.143545
2801 3 -0.394356 58.758578 -13.041606
2802 3 3.522719 59.178080 -16.838197
2803 2 8.019245 23.650369 1.436117
2804 3 13.148597 16.880361 -1.389165
2805 3 10.155895 24.392025 -3.524175
2806 2 49.554487 15.537331 9.808728
2807 3 50.082228 14.545128 11.169104
2808 3 46.019699 16.567618 14.317091
2809 2 77.596683 22.116710 9.583420
2810 3 78.403233 21.935968 9.076237
2811 3 75.840303 22.131090 10.627948
2812 2 16.761049 21.623232 44.283156
2813 3 18.075135 20.015906 38.001501
2814 3 17.429361 20.801111 36.095414
2815 2 41.429582 28.383778 20.231263
2816 3 38.571543 31.424205 23.669440
2817 3 39.465599 29.480517 22.823353
2818 2 9.450210 33.747347 23.295306
2819 3 4.407184 31.275602 17.544497
2820 3 8.333685 32.607723 13.281621
2821 2 54.190369 41.413134 44.893984
2822 3 49.953741 45.514866 46.597636
2823 3 47.014223 41.641688 45.245881
2824 2 33.242901 17.830414 1.446671
2825 3 33.403020 21.181335 2.009376
2826 3 32.065864 18.505449 1.195903
2827 2 41.350268 40.433702 9.273322
2828 3 40.888302 40.539347 10.901009
2829 3 42.689002 42.186887 4.852303
2830 2 27.409256 33.806794 55.624690
2831 3 27.774291 35.817020 48.791165
2832 3 32.166229 33.556540 52.439214
2833 2 4.707917 44.275937 28.948925
2834 3 6.230572 48.820539 31.259427
2835 3 3.011191 48.474393 30.755067
2836 2 31.406975 8.677565 34.660335
2837 3 34.216593 3.236214 36.873457
2838 3 34.968980 7.402394 38.185461
2839 2 18.062081 46.073807 11.674814
2840 3 21.172198 46.093408 17.039625
2841 3 21.920150 47.188496 13.994642
2842 2 18.724801 46.438231 17.652660
2843 3 19.775732 48.137508 16.803571
2844 3 18.333409 42.514036 18.869298
2845 2 31.987636 40.219436 -0.268504
2846 3 31.947094 37.109303 3.937741
2847 3 33.048465 34.811380 1.432695
2848 2 25.905605 31.408579 -18.255827
2849 3 28.985632 32.827723 -24.998557
2850 3 30.660237 33.984219 -23.675587
2851 2 8.179702 32.800392 41.552478
2852 3 9.966370 36.060471 40.285666
2853 3 10.264384 35.758881 42.984579
2854 2 42.977310 9.937339 4.241478
2855 3 42.586358 7.333220 13.079051
2856 3 43.324312 8.098456 8.258648
2857 2 9.315011 43.560351 1.575024
2858 3 11.027248 48.502595 6.540205
2859 3 9.944223 46.253273 2.806080
2860 2 35.175144 38.256451 23.834123
2861 3 31.550642 37.829241 17.003889
2862 3 36.291855 39.041838 22.999556
2863 2 53.523247 18.798936 44.461185
2864 3 53.245142 19.612491 41.822452
2865 3 55.880323 19.757003 46.063971
2866 2 12.045942 -20.490875 16.442579
2867 3 9.409123 -18.044049 12.706959
2868 3 7.708056 -23.545632 11.313394
2869 2 17.861398 36.560038 11.828345
2870 3 21.213809 37.307012 15.551233
2871 3 22.023726 34.853656 10.211030
2872 2 53.436395 -4.602063 8.398657
2873 3 54.923686 -7.446125 4.439019
2874 3 56.498333 -4.220677 5.046336
2875 2 -7.041407 9.707802 38.315608
2876 3 -7.280822 10.389016 37.177251
2877 3 -7.516057 11.592487 35.264023
2878 2 12.670570 16.723448 -9.484646
2879 3 15.501027 19.772869 -16.224576
2880 3 11.937133 15.620302 -8.511304
2881 2 41.742085 14.575844 -4.889048
2882 3 38.758813 12.290223 -8.238378
2883 3 36.464117 10.439077 -7.162264
2884 2 13.828210 -26.851902 15.854642
2885 3 17.370124 -23.199461 7.230367
2886 3 15.940549 -25.665067 5.435779
2887 2 31.110047 4.183733 35.050408
2888 3 36.842307 0.566184 30.114262
2889 3 36.166493 2.218856 31.806452
2890 2 40.563683 -23.881206 -14.216964
2891 3 37.672217 -20.850616 -11.254773
2892 3 35.405022 -23.139738 -19.331775
2893 2 59.285895 0.728078 14.678931
2894 3 59.198325 -1.042663 18.775501
2895 3 53.736410 1.125885 14.304171
2896 2 61.516472 18.633538 11.638557
2897 3 59.296100 17.030302 10.022911
2898 3 60.082986 16.554877 7.515784
2899 2 23.260944 -22.912320 19.644829
2900 3 26.496527 -24.354804 23.736922
2901 3 22.227534 -27.438043 24.544715
2902 2 32.631867 -5.585655 21.793979
2903 3 33.564559 -12.096405 22.384169
2904 3 30.513371 -8.605353 18.700470
2905 2 7.043827 -0.805177 75.626475
2906 3 3.516634 -2.631100 70.581718
2907 3 5.091033 -0.484515 71.277113
2908 2 8.337887 19.008076 16.245852
2909 3 11.885295 22.227295 23.377879
2910 3 7.108912 15.519967 19.389797
2911 2 46.378536 2.921535 23.010902
2912 3 47.239683 0.269212 17.421864
2913 3 47.763181 2.895848 17.578914
2914 2 11.640655 -9.613143 9.865985
2915 3 9.349200 -8.932120 9.573713
2916 3 11.267945 -9.587563 2.747533
2917 2 13.650885 28.058651 9.327161
2918 3 10.449532 25.431647 5.109879
2919 3 14.280516 29.078607 5.189705
2920 2 45.468420 12.976335 11.574366
2921 3 41.036060 15.535847 19.380182
2922 3 40.561960 10.728422 19.601713
2923 2 18.252036 -11.981077 14.747399
2924 3 19.294401 -15.839732 13.052929
2925 3 19.102452 -9.207909 10.068382
2926 2 27.378488 15.746174 27.998802
2927 3 23.929618 13.371966 24.629258
2928 3 25.580263 13.699205 24.458305
2929 2 -9.957597 -4.047569 54.450182
2930 3 -8.215850 -3.496018 56.953569
2931 3 -11.781436 -5.726582 48.388286
2932 2 35.585371 18.351028 27.137954
2933 3 37.028141 13.099252 27.829982
2934 3 38.272444 20.924351 26.381833
2935 2 56.034332 -2.416273 24.999246
2936 3 51.855044 -1.089824 25.837978
2937 3 52.524714 -3.158156 25.593041
2938 2 17.602588 14.514703 2.795485
2939 3 16.862764 12.209971 -1.888761
2940 3 17.870698 11.416904 -2.104617
2941 2 52.771124 -19.486426 35.742702
2942 3 55.033731 -17.979674 36.704064
2943 3 51.909490 -19.545795 34.453556
2944 2 18.306230 8.324043 6.941128
2945 3 21.092490 14.500173 4.013027
2946 3 20.230184 11.022467 1.140115
2947 2 13.343870 26.538414 23.281407
2948 3 11.963761 23.393577 20.220402
2949 3 14.465947 27.735791 23.515128
2950 2 12.204688 39.936414 -9.010654
2951 3 9.966190 42.857455 -10.701274
2952 3 10.453446 44.823922 -13.376490
2953 2 6.092393 18.987080 28.703980
2954 3 2.966598 19.000395 26.187281
2955 3 3.947571 20.012028 30.252426
2956 2 17.243574 22.682886 19.506554
2957 3 22.103327 28.439030 19.302649
2958 3 20.699017 27.236583 24.302896
2959 2 27.447855 21.364436 30.244705
2960 3 25.246970 26.183700 28.016795
2961 3 25.108759 23.257893 27.735504
2962 2 31.709943 45.714724 31.321932
2963 3 30.151340 42.851178 28.723928
2964 3 29.525088 41.181776 28.307821
2965 2 23.691694 29.748869 40.627452
2966 3 25.904293 35.116659 43.448951
2967 3 22.511992 32.500021 40.575580
2968 2 16.370824 4.691601 36.372556
2969 3 16.323355 4.695814 35.599731
2970 3 16.379792 8.927344 43.588012
2971 2 0.188231 13.431231 29.808157
2972 3 1.917454 5.396742 23.421202
2973 3 3.715533 7.480142 34.607020
2974 2 3.552309 -8.108023 15.144015
2975 3 3.689292 -7.420459 14.990159
2976 3 3.480849 -5.820244 18.148073
2977 2 43.906429 9.032813 -3.822050
2978 3 44.306577 13.293632 -3.951318
2979 3 43.579522 8.132963 1.481847
2980 2 55.454616 5.129595 25.945595
2981 3 51.708230 4.074613 26.528828
2982 3 52.635116 6.322154 19.032056
2983 2 37.612794 -18.522262 17.778055
2984 3 35.894537 -10.061783 17.239187
2985 3 34.681695 -11.588010 21.038219
2986 2 -5.382079 11.155322 38.210181
2987 3 -3.751586 16.179843 33.434081
2988 3 -2.653537 10.398347 31.604988
2989 2 26.742098 13.651908 20.452962
2990 3 26.912759 17.044640 20.895747
2991 3 26.543921 18.177347 17.672740
2992 2 31.294242 22.009686 8.480642
2993 3 29.619027 28.147453 8.323003
2994 3 32.576623 23.425271 9.513345
2995 2 27.110413 40.068360 10.251650
2996 3 29.126759 40.863166 8.511231
2997 3 30.353280 38.134092 12.141875
2998 2 31.691700 9.628358 19.932369
2999 3 37.548978 2.969239 19.011657
3000 3 36.148953 5.314676 18.068334
3001 2 25.264628 23.045266 14.054216
3002 3 31.516080 19.302669 17.824360
3003 3 27.892003 21.411202 15.611288
3004 2 4.927248 15.645998 36.191206
3005 3 1.138065 11.173026 30.998939
3006 3 -0.477397 9.973948 29.285587
3007 2 20.649045 -3.613030 40.798656
3008 3 24.848375 -5.425415 34.955844
3009 3 24.763927 -4.263996 36.763049
3010 2 11.121322 9.768117 10.796107
3011 3 5.849112 8.727238 6.448151
3012 3 9.143421 11.525540 6.488926
3013 2 24.076888 3.831947 34.001407
3014 3 24.609469 7.637561 31.176331
3015 3 23.814027 10.198857 37.593541
3016 2 -20.635423 33.541499 -15.107913
3017 3 -19.943155 35.502326 -9.484655
3018 3 -21.099902 33.447547 -7.506372
3019 2 53.854509 14.862065 34.618133
3020 3 59.676503 15.681523 38.421961
3021 3 57.679086 14.620685 39.885820
3022 2 -22.268540 22.951982 29.157997
3023 3 -18.490413 20.517569 32.155820
3024 3 -17.147282 23.802370 33.759943
3025 2 28.425416 22.214884 13.028241
3026 3 29.424219 19.592814 18.042722
3027 3 29.491129 23.155853 13.235779
3028 2 15.671196 11.335203 28.844341
3029 3 14.392543 16.021013 24.624200
3030 3 22.546754 14.766539 25.555942
3031 2 44.942824 26.454744 42.024014
3032 3 44.738862 25.133056 44.250321
3033 3 42.635756 22.943068 42.614813
3034 2 4.944699 24.959179 24.300378
3035 3 1.339483 25.546865 25.802578
3036 3 3.395793 24.223387 28.213207
3037 2 -34.520557 -0.428501 47.540245
3038 3 -31.313493 -2.083094 44.321298
3039 3 -29.249376 0.974062 47.345840
3040 2 23.257432 20.292831 35.479297
3041 3 22.669962 23.544796 38.340626
3042 3 21.000208 23.979151 37.793192
3043 2 15.361667 13.635162 49.541643
3044 3 12.465244 14.131541 47.420726
3045 3 12.728268 13.655506 47.468214
3046 2 46.660907 48.611724 1.804201
3047 3 46.432591 45.665331 4.406047
3048 3 46.089006 41.227643 8.297033
3049 2 53.630802 -3.920345 0.553550
3050 3 52.593932 -2.214559 3.177308
3051 3 55.466722 -4.992589 5.140623
3052 2 -25.228238 51.146629 14.392966
3053 3 -25.287781 49.896567 10.769872
3054 3 -23.219177 49.097647 12.326243
3055 2 -5.326875 15.086608 41.157724
3056 3 -1.285830 18.789378 36.808554
3057 3 -2.202319 18.118458 43.568486
3058 2 46.403620 54.050218 20.347881
3059 3 45.938997 52.941773 24.958026
3060 3 48.588120 52.383365 19.109831
3061 2 13.063773 41.250227 24.552970
3062 3 14.387807 40.926627 20.904753
3063 3 13.806623 44.588815 29.201974
3064 2 38.920457 16.841341 21.095329
3065 3 46.993082 25.700165 10.032825
3066 3 43.273363 21.968826 13.685546
3067 2 32.937961 12.455982 40.114217
3068 3 28.846159 10.740702 41.881941
3069 3 30.879800 15.952592 41.894396
3070 2 27.076033 17.211793 3.412966
3071 3 28.123183 18.395095 3.238104
3072 3 26.081337 18.933037 2.059110
3073 2 7.020423 58.708146 14.552292
3074 3 10.617482 53.412007 21.066753
3075 3 7.889036 56.575969 18.114470
3076 2 34.900144 43.287476 34.512445
3077 3 41.925466 45.910000 40.186541
3078 3 40.684038 46.136599 37.821325
3079 2 37.821426 35.343501 50.512418
3080 3 34.656808 36.582125 53.903199
3081 3 32.327669 39.655866 53.326502
3082 2 35.669084 33.941390 13.327668
3083 3 35.254191 34.084897 8.877008
3084 3 37.049312 33.883846 11.849962
3085 2 35.370773 -2.349703 33.812596
3086 3 36.556696 -5.374774 32.417215
3087 3 34.459831 -3.035823 34.827628
3088 2 6.670510 26.031330 35.051262
3089 3 6.664995 26.084510 36.955138
3090 3 6.101746 25.862346 36.511032
3091 2 -8.587326 20.018491 -10.933026
3092 3 -9.207992 18.633198 -5.655259
3093 3 -6.186113 15.871211 -5.635347
3094 2 18.957842 51.487633 49.479431
3095 3 22.398635 49.396014 51.070970
3096 3 19.538162 46.821949 52.539485
3097 2 3.796158 35.357013 40.199893
3098 3 0.361900 38.091479 47.539426
3099 3 1.647039 43.155780 42.263527
3100 2 20.924373 58.175152 -19.537027
3101 3 20.617498 54.327088 -27.653659
3102 3 17.708488 55.698195 -16.255326
3103 2 30.073243 38.550270 30.572316
3104 3 27.107295 39.989275 32.843439
3105 3 26.788986 40.298225 34.611255
3106 2 41.203445 -0.922670 27.316986
3107 3 40.143496 -4.687268 24.035886
3108 3 38.624646 -5.493568 20.578632
3109 2 37.178751 35.286613 -4.942441
3110 3 38.907244 33.105071 -7.091924
3111 3 37.692599 35.567679 -6.565858
3112 2 40.803511 26.791397 7.565091
3113 3 37.624172 24.847135 7.823616
3114 3 41.113393 24.821649 9.044895
3115 2 -7.733700 0.581212 47.820526
3116 3 -12.398549 0.705106 47.863397
3117 3 -12.415631 -3.965966 49.694398
3118 2 29.690906 16.349374 24.660936
3119 3 37.053729 12.607776 23.843372
3120 3 31.869879 12.807224 24.199008
3121 2 35.617402 53.352824 13.742154
3122 3 33.359327 53.963250 11.507264
3123 3 34.194523 54.244932 12.069791
3124 2 52.560069 50.295946 3.838485
3125 3 54.061608 47.425972 -1.387442
3126 3 52.514709 50.494493 2.224302
3127 2 60.075122 44.473146 27.513708
3128 3 59.352891 45.048520 21.842540
3129 3 60.298586 43.077562 19.054357
3130 2 9.663186 19.843863 11.408969
3131 3 9.981153 19.085379 12.945403
3132 3 11.967570 18.530500 15.174645
3133 2 26.787111 65.545812 52.558980
3134 3 26.686937 65.570580 49.704826
3135 3 28.952201 69.527453 51.157091
3136 2 24.233890 25.584717 35.361926
3137 3 25.596755 26.176349 34.453998
3138 3 21.698083 21.479212 35.905867
3139 2 26.718690 15.503247 32.365752
3140 3 26.031264 19.738391 44.277650
3141 3 28.155984 19.883253 32.985523
3142 2 45.040954 15.501026 0.645628
3143 3 46.106554 25.344337 1.608508
3144 3 40.905454 20.276239 -3.468164
3145 2 42.871942 44.541518 -5.926843
3146 3 43.287541 47.740205 -5.412189
3147 3 41.441839 49.143347 -0.340217
3148 2 29.126202 30.193346 45.813698
3149 3 30.941261 28.464646 40.821301
3150 3 31.537567 28.505076 45.788719
3151 2 29.815106 41.125168 -3.094434
3152 3 28.420696 38.300851 -5.674568
3153 3 32.356553 41.363794 -3.847147
3154 2 0.615660 33.518423 35.951367
3155 3 4.695914 36.615939 35.895574
3156 3 0.994123 28.722712 36.303024
3157 2 31.144948 14.764425 29.978289
3158 3 31.797301 17.614971 30.027158
3159 3 30.936984 17.444089 26.870328
3160 2 33.990571 51.496801 9.975642
3161 3 37.633283 53.493616 20.197901
3162 3 32.887380 50.203211 19.070182
3163 2 12.751991 52.019576 24.557173
3164 3 15.687061 51.400014 21.208252
3165 3 14.697491 46.343741 25.452100
3166 2 14.181413 43.345688 14.104383
3167 3 14.095015 39.851865 12.326315
3168 3 15.794276 40.027172 8.057296
3169 2 21.973277 -2.013566 17.013146
3170 3 22.785012 0.947358 12.232540
3171 3 22.976398 -3.022382 13.245662
3172 2 -22.485718 -9.608503 27.247592
3173 3 -26.935256 -3.791519 28.358683
3174 3 -26.240153 -6.560750 30.210976
3175 2 17.740686 16.332303 16.969504
3176 3 12.789935 20.074445 19.165578
3177 3 15.484874 21.551346 19.622134
3178 2 13.959525 15.376287 36.861609
3179 3 13.873634 11.778028 40.518402
3180 3 12.788457 16.070642 36.161786
3181 2 34.840617 -18.651977 14.078138
3182 3 35.176620 -20.086144 15.289870
3183 3 35.199089 -19.069228 17.620981
3184 2 21.417503 10.661136 21.615022
3185 3 18.448988 13.291108 22.493919
3186 3 24.040800 11.125090 22.505599
3187 2 6.695670 1.536210 11.260517
3188 3 1.639313 4.092864 7.898205
3189 3 2.241998 2.511875 12.830831
3190 2 -2.350086 4.339042 20.382814
3191 3 -5.588471 3.863510 23.514354
3192 3 -5.357324 3.399159 27.151698
3193 2 16.174656 15.690756 34.162792
3194 3 16.031201 10.490546 34.928863
3195 3 15.895591 17.364289 34.661321
3196 2 61.326890 -0.153748 13.149762
3197 3 63.012053 0.878361 15.422855
3198 3 63.255230 1.892241 15.583639
3199 2 75.274814 23.113551 39.560197
3200 3 71.169707 25.355371 31.815142
3201 3 71.080603 22.484994 36.981469
3202 2 18.507302 9.364462 37.490457
3203 3 17.311834 3.109521 41.184673
3204 3 20.340606 2.997338 38.758545
3205 2 3.130672 11.030118 47.768349
3206 3 2.004534 10.011298 48.661443
3207 3 6.272921 13.255068 49.311460
3208 2 8.748160 19.201485 15.628880
3209 3 7.310457 13.813261 14.351344
3210 3 7.035329 15.104550 12.533830
3211 2 14.434750 22.694042 23.576822
3212 3 11.101448 21.682462 23.939497
3213 3 15.409763 22.554375 21.291955
3214 2 32.786123 -1.698876 44.489310
3215 3 30.408789 -1.717364 50.172676
3216 3 32.109780 0.178386 54.620706
3217 2 0.429145 18.477242 32.140781
3218 3 -1.028883 17.269655 28.321353
3219 3 3.781730 16.280766 31.396960
3220 2 14.426015 10.246588 35.083739
3221 3 15.494758 7.425517 33.890219
3222 3 12.105935 4.900246 32.049369
3223 2 10.618973 -1.651459 8.075916
3224 3 12.991692 -3.083824 4.797812
3225 3 9.123035 -3.047017 -0.747873
3226 2 44.375927 28.506766 -15.404888
3227 3 46.267018 31.238760 -16.983140
3228 3 39.618737 26.015601 -15.495443
3229 2 37.082082 6.538671 15.586765
3230 3 33.270331 7.406776 16.982214
3231 3 34.625583 6.714790 11.358330
3232 2 27.594385 -13.883233 27.907972
3233 3 27.444553 -7.306461 30.096096
3234 3 28.450001 -12.099159 32.211470
3235 2 22.818158 -10.483575 31.769604
3236 3 23.057627 -14.493488 35.649230
3237 3 19.976794 -10.416358 32.844539
3238 2 5.847718 24.194722 24.475899
3239 3 5.604549 24.635323 25.536739
3240 3 1.623255 24.720813 25.969376
3241 2 35.443131 29.699847 2.145347
3242 3 34.171308 27.128188 -4.412318
3243 3 34.840820 29.063779 -4.769168
3244 2 38.590986 4.987053 47.503145
3245 3 42.023924 10.823929 43.006421
3246 3 37.573747 5.716479 50.889479
3247 2 7.391054 12.932122 7.373059
3248 3 3.786922 14.536928 9.567895
3249 3 0.006933 14.849007 5.567897
3250 2 12.317946 -6.587965 -4.793745
3251 3 12.444004 -3.792390 -0.630947
3252 3 12.268313 -5.321832 0.436857
3253 2 26.917386 30.817396 48.967958
3254 3 28.025454 38.842401 52.108582
3255 3 28.198086 38.136943 44.231122
3256 2 21.985046 5.874896 30.219622
3257 3 27.534738 7.588557 31.956119
3258 3 20.497508 5.394055 27.497841
3259 2 13.165941 16.630454 40.440354
3260 3 15.563538 12.804805 39.577756
3261 3 13.645540 14.861233 35.331618
3262 2 26.332317 -3.964647 12.365266
3263 3 27.383408 -7.129589 15.798223
3264 3 24.444240 -1.669062 11.164105
3265 2 38.900422 19.526942 23.151571
3266 3 34.575756 18.856359 15.404356
3267 3 36.093791 19.171052 18.653652
3268 2 7.252920 8.635536 39.341355
3269 3 7.437129 3.754757 37.312436
3270 3 9.561776 3.630992 38.850653
3271 2 37.396177 10.291221 44.224615
3272 3 36.256874 6.574331 46.513086
3273 3 40.208890 10.778236 48.529617
3274 2 44.734721 -11.054837 22.396538
3275 3 44.342181 -2.658886 25.439527
3276 3 43.350962 -1.276466 23.090143
3277 2 44.017833 -2.096817 40.395189
3278 3 39.092762 -3.167438 42.488128
3279 3 42.883650 -9.110799 41.260464
3280 2 25.412824 -7.127928 15.827852
3281 3 26.966864 -7.993445 10.546629
3282 3 27.052332 -7.604052 12.342729
3283 2 33.715824 32.967795 10.954434
3284 3 37.351102 28.169649 11.979476
3285 3 33.523435 27.730175 13.004688
3286 2 14.148067 13.677577 35.257081
3287 3 11.297610 21.120522 33.151920
3288 3 16.286815 17.362490 33.800905
3289 2 -12.958347 20.480691 4.307098
3290 3 -13.994246 15.262334 14.231496
3291 3 -12.220885 15.150118 12.409538
3292 2 24.268634 0.978905 45.994378
3293 3 26.485379 0.188609 46.587935
3294 3 27.482325 2.715173 41.900817
3295 2 10.104732 18.709568 40.722995
3296 3 8.492918 11.903800 44.822361
3297 3 13.802926 13.595757 35.248109
3298 2 35.513831 -6.888128 25.148250
3299 3 35.296742 -2.188028 24.655129
3300 3 33.085123 -6.984288 27.861736
3301 2 1.101452 25.579174 1.011267
3302 3 5.617392 21.573778 3.763667
3303 3 4.047927 24.088043 6.665533
3304 2 5.345017 37.242595 24.417673
3305 3 4.071925 39.403844 18.720069
3306 3 5.788029 36.968298 16.718737
3307 2 12.020578 28.887412 10.602363
3308 3 10.796534 30.062477 10.140061
3309 3 15.644106 27.902384 15.042743
3310 2 39.289647 18.396924 30.159573
3311 3 35.724178 18.944980 31.455592
3312 3 41.405517 24.586711 28.974917
3313 2 -9.703388 6.244590 19.285984
3314 3 -10.997872 8.201808 16.770248
3315 3 -12.269055 7.143048 18.017912
3316 2 44.440580 18.889403 15.856573
3317 3 44.851350 15.099613 21.208535
3318 3 42.225925 19.719964 24.295575
3319 2 11.141736 24.794711 32.348082
3320 3 12.104675 26.496503 32.440650
3321 3 10.635627 24.685557 34.963074
3322 2 62.538993 35.465673 10.149687
3323 3 60.752385 39.567526 15.054424
3324 3 60.587130 34.914263 11.732966
3325 2 -13.028471 27.508040 10.794058
3326 3 -12.152296 24.541442 16.799027
3327 3 -11.610714 29.704080 15.415631
3328 2 76.241017 34.422189 32.550693
3329 3 74.378851 37.464728 40.699559
3330 3 74.819117 38.151824 34.569253
3331 2 -19.237298 33.138773 7.306181
3332 3 -21.533639 29.429936 10.209058
3333 3 -19.816160 31.216549 8.303970
3334 2 14.944720 40.511501 -8.378777
3335 3 15.058354 39.243600 -11.828785
3336 3 12.028006 42.460981 -1.775440
3337 2 11.893592 41.198869 -16.103032
3338 3 12.121416 42.931798 -12.349315
3339 3 8.178669 39.632193 -16.788888
3340 2 18.383975 20.865604 15.886606
3341 3 16.214870 22.916597 16.289190
3342 3 19.049993 16.648671 13.596801
3343 2 21.249152 31.180042 34.752999
3344 3 21.537698 32.305981 37.657471
3345 3 21.570210 29.629550 38.371716
3346 2 6.972634 19.524071 -8.160015
3347 3 8.503389 19.591097 -0.236970
3348 3 9.861722 19.329777 -0.939157
3349 2 16.937500 25.858549 28.084849
3350 3 17.556047 21.416476 30.457103
3351 3 19.585870 22.090518 29.777900
3352 2 30.125181 45.550976 15.251492
3353 3 32.523121 46.322595 9.622344
3354 3 35.584693 51.413409 15.243047
3355 2 13.402295 26.811704 56.817137
3356 3 12.590885 25.658087 60.298758
3357 3 13.675666 24.662545 53.625990
3358 2 -19.117611 33.667113 -11.538155
3359 3 -16.482178 29.237875 -14.103931
3360 3 -19.491556 29.220633 -13.848451
3361 2 2.324384 -0.573863 17.073736
3362 3 1.607049 -7.255855 8.810267
3363 3 3.607071 -6.607292 17.230942
3364 2 -6.451785 34.064006 42.334460
3365 3 -3.154498 33.692978 42.903783
3366 3 -3.717757 36.958600 43.213357
3367 2 29.843254 7.166121 29.591204
3368 3 30.046999 13.032640 31.046779
3369 3 27.156609 12.161949 28.488665
3370 2 49.151887 32.406960 34.132367
3371 3 41.719304 30.692223 36.297992
3372 3 42.835495 31.349327 30.838940
3373 2 -17.921698 41.146164 -5.770600
3374 3 -17.619637 43.413531 -2.776753
3375 3 -15.820082 40.796864 -11.746864
3376 2 15.795766 43.016076 49.544148
3377 3 17.648381 46.948993 46.516751
3378 3 14.681516 42.346046 47.368738
3379 2 -10.282537 30.157458 12.523110
3380 3 -11.236449 28.727279 19.246416
3381 3 -14.772973 27.334252 16.756183
3382 2 -8.114334 43.073613 -9.655177
3383 3 -7.372195 38.852109 -10.757942
3384 3 -5.916427 41.422768 -4.733738
3385 2 13.355288 24.949585 19.519006
3386 3 16.246205 30.472230 21.513409
3387 3 17.148404 27.170113 21.454867
3388 2 36.031378 54.459932 12.692631
3389 3 40.822595 51.327511 7.390504
3390 3 36.437037 55.152088 9.207680
3391 2 37.703618 34.950169 17.633549
3392 3 42.457125 35.544926 17.459121
3393 3 37.525266 33.831865 14.071426
3394 2 3.746728 56.495067 8.884177
3395 3 5.101494 56.995603 4.316801
3396 3 -0.530634 58.653843 2.891600
3397 2 -13.531897 53.002213 34.130690
3398 3 -17.433669 46.753199 39.329585
3399 3 -11.825298 49.792066 39.739670
3400 2 40.108899 51.418942 33.641800
3401 3 38.846648 48.064896 35.246811
3402 3 40.816075 50.846873 29.193020
3403 2 29.673347 44.165913 46.046919
3404 3 31.660938 46.222456 51.064051
3405 3 31.270853 43.843415 40.868436
3406 2 52.901327 55.483480 26.345599
3407 3 49.764600 52.831184 25.730109
3408 3 50.500315 56.378834 26.743282
3409 2 48.426658 35.428893 11.003261
3410 3 46.113890 33.330580 8.438945
3411 3 44.510269 34.644903 10.169977
3412 2 -8.851380 37.808686 12.089682
3413 3 -12.268503 34.723424 9.065668
3414 3 -10.200303 36.716584 9.594762
3415 2 21.189785 -2.471118 26.136550
3416 3 24.967242 0.043790 26.832138
3417 3 26.221172 -6.508004 21.141958
3418 2 0.532318 47.401943 40.469895
3419 3 3.456763 51.614553 42.972089
3420 3 4.551595 43.433091 42.437854
3421 2 32.425331 41.430672 38.507811
3422 3 29.903897 40.178607 37.093049
3423 3 29.692378 39.172366 35.837618
3424 2 -4.737068 32.630451 -2.729784
3425 3 -1.481111 30.544097 -1.060212
3426 3 -3.436129 30.324731 -3.126201
3427 2 -5.217948 33.052785 22.759403
3428 3 -4.159597 33.147972 25.511898
3429 3 -6.474247 32.791355 19.943426
3430 2 41.545375 38.563020 57.105922
3431 3 41.567617 36.499858 62.124224
3432 3 40.855963 36.730606 52.465863
3433 2 46.090975 40.247184 9.423525
3434 3 48.001154 33.947357 12.213700
3435 3 42.827607 32.865084 18.321063
3436 2 27.731540 15.247376 40.936659
3437 3 30.129171 19.685465 39.013740
3438 3 30.125589 17.101766 35.291493
3439 2 52.445993 65.006216 24.271176
3440 3 49.814628 67.891100 17.173583
3441 3 51.311043 59.624169 17.894366
3442 2 6.610050 9.534411 31.763060
3443 3 2.734982 12.149666 29.908738
3444 3 5.181515 9.041523 31.658186
3445 2 16.842395 1.645730 6.034321
3446 3 11.326204 6.336586 4.468348
3447 3 11.419000 3.458492 7.125926
3448 2 39.838988 39.839986 30.500770
3449 3 41.758016 36.283737 34.055894
3450 3 39.116933 39.869072 34.438774
3451 2 20.843934 3.644531 41.159411
3452 3 17.548393 3.651027 40.734707
3453 3 18.284300 5.100796 39.313680
3454 2 6.014504 36.565942 17.716076
3455 3 8.388152 30.403967 13.103426
3456 3 9.051972 29.682840 11.163346
3457 2 -18.219723 27.200355 6.085276
3458 3 -19.407893 26.538425 10.234545
3459 3 -21.562298 24.672905 4.296509
3460 2 3.284625 29.055698 -1.514436
3461 3 2.034296 30.878905 0.976083
3462 3 2.629982 34.181373 -3.937085
3463 2 -21.515841 -0.298362 48.132134
3464 3 -23.948994 -4.354144 53.650736
3465 3 -23.108399 -7.949993 48.398312
3466 2 45.761916 43.735427 -5.196053
3467 3 42.766054 42.223106 -11.946016
3468 3 44.507903 45.765250 -6.348105
3469 2 17.382031 59.589458 16.404839
3470 3 20.876433 51.412474 16.819472
3471 3 19.839134 57.960790 16.503163
3472 2 -3.633636 27.010439 35.761285
3473 3 -7.725257 27.457593 35.692946
3474 3 -3.606338 30.480350 37.143243
3475 2 16.802721 56.461367 21.939100
3476 3 16.273518 56.101998 23.825453
3477 3 13.403220 55.442083 21.087953
3478 2 12.604978 40.307855 29.155177
3479 3 14.226985 43.841657 29.387314
3480 3 13.248916 42.616483 37.014769
3481 2 28.863676 33.906808 1.345909
3482 3 29.529629 43.301692 6.398464
3483 3 30.204372 42.596702 6.022052
3484 2 39.789152 45.558679 31.884271
3485 3 43.029790 43.670054 23.579597
3486 3 37.580034 46.143468 25.440249
3487 2 64.798540 42.930067 -2.183931
3488 3 65.033103 49.357243 1.817880
3489 3 63.424368 53.533596 -0.251960
3490 2 36.501232 -4.514945 45.188561
3491 3 36.862719 -7.082036 48.308743
3492 3 33.771341 -9.137053 42.794222
3493 2 41.790344 -19.178646 33.628090
3494 3 44.959858 -16.828231 25.235708
3495 3 41.114721 -19.588211 27.405546
3496 2 2.053744 24.540239 11.563714
3497 3 0.053979 20.661731 12.456955
3498 3 0.737469 27.990208 13.984540
3499 2 6.985413 -1.661874 14.616805
3500 3 4.543050 1.680575 17.272984
3501 3 -0.079086 0.972549 20.786162
3502 2 19.532971 4.994013 32.745713
3503 3 18.892464 3.310136 29.376591
3504 3 17.182906 2.889253 32.075872
3505 2 11.490194 -2.877255 24.931603
3506 3 6.559401 -6.135358 22.052552
3507 3 7.367753 -3.319274 30.611398
3508 2 -13.632276 27.073244 30.357659
3509 3 -14.461852 25.878439 31.095546
3510 3 -14.041066 28.461007 31.535104
3511 2 20.633996 12.257270 -12.988315
3512 3 23.637577 10.696494 -11.589019
3513 3 23.532122 9.388445 -16.529092
3514 2 50.166892 1.382286 43.766325
3515 3 51.040947 4.849171 41.477938
3516 3 46.471063 0.126688 39.605293
3517 2 24.371889 -2.968481 33.948007
3518 3 25.144183 -7.946287 29.401988
3519 3 29.033965 -4.234650 40.772017
3520 2 57.078708 16.826813 32.273512
3521 3 60.382998 13.157196 28.023941
3522 3 56.864013 15.164038 28.622172
3523 2 31.045093 -17.988504 29.859686
3524 3 34.382182 -20.410254 29.832500
3525 3 32.392270 -15.180843 32.025547
3526 2 71.219852 -1.481625 9.094197
3527 3 74.341968 -1.772951 9.069625
3528 3 74.744131 -4.578396 7.780014
3529 2 22.845129 -9.233505 7.966175
3530 3 23.767505 -14.093357 10.113219
3531 3 23.094998 -11.936585 2.195171
3532 2 21.506747 -33.421251 49.685241
3533 3 16.158141 -28.583780 50.449173
3534 3 16.612010 -32.778315 54.853710
3535 2 17.987937 10.696013 27.823177
3536 3 18.294231 9.811171 22.697108
3537 3 19.889043 13.258354 26.253079
3538 2 3.074112 -3.224141 6.160752
3539 3 0.969239 -3.297878 12.456858
3540 3 -0.494537 -6.936394 7.815979
3541 2 36.587229 18.701560 49.600015
3542 3 37.605562 22.415209 52.040525
3543 3 37.840137 20.707437 49.396792
3544 2 -5.764026 29.455955 55.844789
3545 3 -5.717440 32.928558 57.013096
3546 3 -6.687192 28.848791 55.670948
3547 2 32.012565 3.229659 31.197811
3548 3 34.389103 3.244259 31.414110
3549 3 37.195818 4.643917 32.883265
3550 2 37.716456 -9.101821 48.270232
3551 3 35.576469 -5.352689 45.143096
3552 3 34.443848 -6.353563 44.284118
3553 2 23.034356 0.867064 36.544901
3554 3 20.346840 -2.017953 39.023398
3555 3 20.008408 -3.754989 34.314936
3556 2 26.204231 21.373774 -1.876722
3557 3 28.786810 23.205344 0.892981
3558 3 27.586340 23.528175 -6.072648
3559 2 13.838551 -1.457578 18.544301
3560 3 14.580454 0.985794 21.139407
3561 3 10.866970 0.743974 23.805217
3562 2 23.478723 -11.010838 20.288704
3563 3 23.361281 -14.049431 17.111834
3564 3 22.408854 -10.127101 18.735599
3565 2 35.540342 4.688806 26.601987
3566 3 35.660152 3.170477 27.218132
3567 3 35.858312 -0.661780 36.337693
3568 2 4.800052 -0.415632 26.041043
3569 3 5.693784 -1.652560 25.843774
3570 3 7.749323 1.419652 25.933905
3571 2 11.563342 -1.379519 36.405145
3572 3 12.377422 3.403334 38.008402
3573 3 11.684070 2.325341 34.392339
3574 2 32.539874 3.541374 13.725067
3575 3 35.705209 5.662813 12.625927
3576 3 32.500429 5.901345 17.462499
3577 2 -9.587091 1.072128 44.727466
3578 3 -12.213823 0.911901 38.228542
3579 3 -10.834884 -0.918377 42.952540
3580 2 27.997121 29.886505 16.963178
3581 3 23.524669 26.390428 17.758806
3582 3 28.675969 30.589507 15.106300
3583 2 37.991641 22.434452 21.149187
3584 3 35.353261 21.963621 22.983637
3585 3 35.755317 22.545688 30.055947
3586 2 22.174157 31.193248 14.590592
3587 3 22.315047 31.112859 8.711135
3588 3 21.844928 29.087676 9.934218
3589 2 24.222165 15.032083 22.617815
3590 3 21.899405 6.811394 26.247162
3591 3 22.898435 12.057335 26.859940
3592 2 34.269709 -0.248047 24.993949
3593 3 32.967938 -2.386029 27.492405
3594 3 32.097870 3.265200 24.626036
3595 2 9.982108 11.735174 46.978178
3596 3 8.736685 13.849036 50.700769
3597 3 8.561720 13.505168 46.653679
3598 2 39.259724 16.388862 42.654759
3599 3 41.712889 18.682342 41.566841
3600 3 40.503851 19.011413 40.452264
3601 2 5.988055 26.136249 48.046415
3602 3 3.832408 22.299458 46.099887
3603 3 5.983933 23.749514 44.019257
3604 2 54.941980 6.437214 45.032413
3605 3 53.787907 7.890584 47.947698
3606 3 48.846667 9.473053 42.174534
3607 2 -27.969824 -5.162588 25.732432
3608 3 -26.148481 -3.440642 20.125490
3609 3 -27.619701 -5.081981 25.609202
3610 2 9.813530 40.048907 2.603422
3611 3 12.399252 36.674515 3.998389
3612 3 10.064527 39.496411 1.815210
3613 2 -9.224683 11.178451 38.089878
3614 3 -7.635792 10.826633 41.714125
3615 3 -5.229143 12.949655 41.289594
3616 2 30.174932 12.825157 -11.643945
3617 3 34.124716 11.763986 -3.963748
3618 3 36.612058 13.809452 -7.630103
3619 2 21.171405 1.986152 39.667222
3620 3 22.941858 3.672963 37.878865
3621 3 20.850309 1.664911 38.687958
3622 2 -9.065393 15.683958 4.295742
3623 3 -7.314417 17.473276 4.051357
3624 3 -9.330288 15.344727 0.935736
3625 2 11.157871 14.746374 19.155227
3626 3 12.441683 17.743562 20.139607
3627 3 13.533666 16.738398 20.852914
3628 2 29.493258 44.414914 13.580176
3629 3 33.235843 48.430213 15.484710
3630 3 31.426245 52.115610 22.657731
3631 2 2.641341 23.792122 52.291035
3632 3 7.059571 21.829435 47.772282
3633 3 6.572761 24.303804 47.182420
3634 2 46.306967 29.209323 17.874198
3635 3 43.350151 31.992384 20.641481
3636 3 46.797334 35.251260 18.724601
3637 2 21.370115 22.775326 15.360112
3638 3 18.549891 24.099725 17.491867
3639 3 23.996377 25.401578 16.359864
3640 2 75.204468 0.346690 48.837964
3641 3 68.337741 2.370988 49.512503
3642 3 72.881502 1.162310 49.200328
3643 2 42.597553 13.551764 62.773295
3644 3 49.338659 11.799907 55.974031
3645 3 45.808387 11.654138 53.621033
3646 2 3.510976 33.752681 35.813790
3647 3 1.060189 35.744979 36.096944
3648 3 4.410879 31.711290 35.370265
3649 2 51.856837 51.307542 7.093107
3650 3 58.885800 47.216890 12.732122
3651 3 53.158321 50.774524 10.339606
3652 2 49.468153 9.282149 58.219871
3653 3 47.954679 4.562443 67.649108
3654 3 43.783779 6.417153 59.981199
3655 2 -0.267264 -10.338839 32.068574
3656 3 3.817100 -12.912600 36.498924
3657 3 2.564534 -13.265917 36.361525
3658 2 15.976092 26.351378 12.519712
3659 3 17.326568 21.121750 6.710820
3660 3 19.881570 25.012798 12.000902
3661 2 17.972168 -3.943146 39.870223
3662 3 15.919189 -3.827795 36.971956
3663 3 16.823049 -4.993473 39.781217
3664 2 -23.896754 8.257778 38.535543
3665 3 -24.366049 7.661356 36.828932
3666 3 -22.102182 9.971640 34.595887
3667 2 51.224721 38.422497 9.601697
3668 3 49.113599 35.652797 3.209145
3669 3 51.373525 41.086059 4.932452
3670 2 18.252079 55.563637 -9.353906
3671 3 16.337464 53.971148 -4.423922
3672 3 17.469829 57.088437 -3.370795
3673 2 26.649656 0.662916 48.393651
3674 3 32.620470 4.765313 52.336509
3675 3 27.616459 6.966303 51.343991
3676 2 9.732986 21.801565 31.232529
3677 3 10.907685 23.368834 39.187895
3678 3 9.107086 20.408391 30.258273
3679 2 -17.334634 48.668761 40.779570
3680 3 -19.827964 46.162144 42.483582
3681 3 -20.986197 52.286487 39.554450
3682 2 35.040238 -11.220942 22.729189
3683 3 37.618606 -14.836557 20.210420
3684 3 39.853384 -14.505427 24.715029
3685 2 31.036537 31.881320 15.635341
3686 3 30.535655 32.971941 14.959419
3687 3 30.544329 30.088886 12.651263
3688 2 7.550563 -4.252673 0.086982
3689 3 9.472493 -6.940617 4.818066
3690 3 7.753014 -4.221029 8.012621
3691 2 -24.989808 44.848373 8.372419
3692 3 -20.760175 44.717559 9.088769
3693 3 -18.726677 48.000709 8.792620
3694 2 30.561166 27.838286 -6.608980
3695 3 27.187429 24.532324 -4.830243
3696 3 23.519265 30.170882 -0.725904
3697 2 5.938926 -13.352790 35.472120
3698 3 4.872067 -16.326577 25.020335
3699 3 7.453776 -16.007796 32.659875
3700 2 13.936733 45.519931 7.236065
3701 3 15.979596 41.871539 8.865612
3702 3 13.365975 39.132345 9.176903
3703 2 22.893306 29.978705 21.540304
3704 3 24.557557 30.911249 20.300933
3705 3 23.101039 29.574819 22.976299
3706 2 25.967975 7.645101 -7.063997
3707 3 27.285136 1.865307 -3.259897
3708 3 25.373999 5.484122 -0.411761
3709 2 6.987730 38.582260 -10.598727
3710 3 5.808632 40.776247 -8.510070
3711 3 8.220817 42.331938 -14.324349
3712 2 67.205724 46.849733 49.393536
3713 3 69.702407 50.020807 45.706026
3714 3 71.855379 45.219827 52.430539
3715 2 20.245715 26.642387 36.570906
3716 3 23.313106 24.801041 39.232391
3717 3 19.830534 28.765619 34.557086
3718 2 29.513517 4.761376 45.483712
3719 3 35.398543 7.133690 40.701049
3720 3 32.380094 5.654144 52.296824
3721 2 15.107359 31.152840 40.449577
3722 3 21.335462 34.605127 38.003979
3723 3 18.190471 32.701594 39.316319
3724 2 20.000754 32.094212 26.659464
3725 3 22.365973 32.376460 15.291918
3726 3 21.951889 32.145337 28.029264
3727 2 15.360254 51.815359 43.531047
3728 3 17.123271 56.170037 39.309015
3729 3 22.140901 52.139549 42.416203
3730 2 -13.556978 57.529848 33.980007
3731 3 -10.313759 58.429318 33.936415
3732 3 -14.452424 56.568344 30.015776
3733 2 -0.640984 6.493677 40.403808
3734 3 6.216163 4.486572 39.823199
3735 3 6.243494 4.408193 41.164697
3736 2 7.361800 27.681740 58.555467
3737 3 3.928316 27.572778 60.164199
3738 3 5.009569 26.120674 61.169495
3739 2 43.251544 45.823549 14.434734
3740 3 42.969587 39.618435 18.865750
3741 3 40.879528 40.173297 20.924903
3742 2 -7.082765 7.735152 20.376022
3743 3 -9.245100 10.036668 21.729298
3744 3 -5.341936 10.795515 18.855151
3745 2 -1.378230 45.603976 18.563185
3746 3 0.148072 46.203232 21.147335
3747 3 1.473059 51.628778 21.427594
3748 2 12.302562 23.636395 21.111145
3749 3 9.404318 16.245128 20.175929
3750 3 8.992157 15.927712 23.088146
3751 2 24.019791 23.827315 20.036264
3752 3 28.112458 24.621373 24.331747
3753 3 23.313683 25.317879 17.083044
3754 2 33.018038 28.641481 -7.968380
3755 3 33.476995 27.247015 -18.097039
3756 3 34.656424 28.512786 -5.941689
3757 2 -2.299401 24.514076 53.753955
3758 3 0.065357 19.484320 56.773925
3759 3 1.257499 21.551427 58.619238
3760 2 13.148543 7.366606 21.284166
3761 3 14.178615 12.631930 16.928050
3762 3 17.665199 4.976787 15.785047
3763 2 23.803213 34.935913 64.316039
3764 3 20.769268 39.249882 65.180733
3765 3 22.247125 35.314675 62.973303
3766 2 2.231295 30.719394 37.513955
3767 3 -0.176519 22.656455 34.642121
3768 3 -0.006616 23.277826 33.906330
3769 2 13.694763 48.726750 -7.886911
3770 3 14.322754 43.450190 -9.423594
3771 3 14.977184 43.100942 -6.602672
3772 2 3.920050 59.744496 28.075161
3773 3 3.058199 61.070215 25.940464
3774 3 4.558571 57.228696 28.589059
3775 2 2.338836 26.570240 22.314192
3776 3 5.878612 25.850255 24.078276
3777 3 1.995631 29.411482 23.213067
3778 2 -5.093586 61.523359 27.073199
3779 3 -3.700032 68.353344 23.749919
3780 3 -3.001861 65.660825 24.989885
3781 2 28.349824 48.840103 39.167138
3782 3 26.904662 46.727365 38.912417
3783 3 25.418155 45.963504 36.315751
3784 2 -9.324446 13.296030 32.240864
3785 3 -5.678643 5.059047 28.248252
3786 3 -7.771593 10.746161 26.095864
3787 2 33.403183 9.269330 13.866117
3788 3 35.011355 5.573991 19.966718
3789 3 34.540230 7.863939 13.606441
3790 2 33.470300 17.333885 57.065181
3791 3 29.513471 24.040263 55.731917
3792 3 31.899314 23.564082 56.303508
3793 2 7.742057 40.229011 7.761057
3794 3 7.287786 38.966903 7.740214
3795 3 6.788757 39.130252 9.885365
3796 2 34.978902 15.844428 14.958314
3797 3 33.717158 6.985445 11.803349
3798 3 32.967455 9.018174 8.210650
3799 2 42.407248 29.145721 48.866804
3800 3 45.501261 29.507517 51.899946
3801 3 44.836807 27.495047 54.752525
3802 2 -2.037614 20.640425 22.666332
3803 3 -2.464068 22.747072 21.146112
3804 3 -1.724460 18.902037 23.990672
3805 2 -3.196717 16.106721 42.491452
3806 3 0.731898 13.642755 43.373518
3807 3 -1.832950 22.120514 46.386163
3808 2 17.259749 2.990471 31.287517
3809 3 15.022334 1.505268 27.602514
3810 3 11.417687 2.519724 31.194094
3811 2 -20.427277 -5.972712 27.800463
3812 3 -20.207313 -1.267418 20.045817
3813 3 -20.119361 -6.070911 24.782700
3814 2 27.123767 35.967887 3.567843
3815 3 27.134962 34.326988 -2.727874
3816 3 25.609724 32.192138 -5.891429
3817 2 33.969451 25.056592 29.437889
3818 3 31.324972 24.926320 28.026844
3819 3 31.182892 24.061382 27.150736
3820 2 34.226909 31.903813 42.646320
3821 3 38.295167 33.426377 39.286207
3822 3 36.652939 33.450603 39.266214
3823 2 1.618904 8.284447 40.153909
3824 3 -0.540821 5.809439 32.492633
3825 3 -1.744513 8.647493 34.441448
3826 2 38.916426 28.691303 3.804322
3827 3 45.923911 30.550157 6.844658
3828 3 38.758577 32.956698 4.421214
3829 2 11.777846 7.228424 6.913967
3830 3 14.344834 11.998625 8.700913
3831 3 13.204040 11.073701 13.633787
3832 2 31.927334 33.107743 37.722496
3833 3 27.187258 35.811473 42.895695
3834 3 28.564432 34.959335 41.359300
3835 2 19.779796 20.829166 27.092284
3836 3 20.468224 26.333201 33.002848
3837 3 21.307340 22.394164 28.038860
3838 2 54.134157 22.739770 5.192897
3839 3 55.556123 26.302492 11.567051
3840 3 54.372534 23.853900 9.698886
3841 2 20.842499 -2.979901 62.131069
3842 3 22.068680 -7.008609 60.095221
3843 3 17.172213 -2.238206 64.441682
3844 2 27.814995 -8.210844 54.738802
3845 3 28.252421 -6.243767 54.125395
3846 3 24.425256 -1.530005 55.936263
3847 2 8.405330 31.066091 28.204816
3848 3 6.810437 31.359117 29.699342
3849 3 7.425036 28.462624 31.021949
3850 2 -8.108254 11.511027 42.842701
3851 3 -9.387868 12.217551 44.334906
3852 3 -9.140955 11.712683 39.937443
3853 2 1.399560 1.643986 16.587480
3854 3 -0.677083 3.752769 23.626339
3855 3 1.378783 2.986153 23.123248
3856 2 16.913545 -8.299740 45.320371
3857 3 18.051787 -5.263186 47.489380
3858 3 15.591882 -5.125781 52.825143
3859 2 34.455336 10.481948 51.901219
3860 3 38.318197 12.956846 48.697089
3861 3 36.605064 11.292131 52.481505
3862 2 23.629044 32.280225 53.663594
3863 3 23.832088 25.279188 49.324102
3864 3 24.384021 29.659593 57.506555
3865 2 32.683046 5.822055 42.806547
3866 3 29.355931 1.846723 39.636232
3867 3 31.094428 -0.834064 44.526230
3868 2 36.471831 -0.859147 26.785788
3869 3 35.821782 0.231200 26.930623
3870 3 36.368355 0.789997 27.252976
3871 2 51.161635 -1.629278 51.039798
3872 3 50.523517 -1.792412 45.217546
3873 3 49.775381 0.025509 48.725593
3874 2 19.921925 -3.984138 48.274769
3875 3 23.188204 -5.971158 41.723175
3876 3 24.951062 -5.139588 44.917498
3877 2 53.528639 13.500584 43.246988
3878 3 52.696483 7.746528 43.711406
3879 3 53.658607 9.226363 41.596382
3880 2 -7.915739 26.771930 60.566008
3881 3 -7.708094 24.137070 59.864012
3882 3 -4.102396 31.353904 61.127886
3883 2 -12.045123 13.057245 18.351958
3884 3 -14.324594 12.121522 16.302810
3885 3 -12.063259 12.169844 17.703552
3886 2 10.085733 4.043340 19.158830
3887 3 9.267473 7.493556 13.951596
3888 3 9.456323 2.761172 21.663911
3889 2 -9.538653 19.957425 51.926660
3890 3 -8.635191 17.003450 52.262038
3891 3 -6.600460 16.101991 55.559763
3892 2 3.674993 39.461291 4.305065
3893 3 2.091664 39.861238 8.959926
3894 3 2.119853 39.231393 9.012634
3895 2 2.700816 -8.840852 34.650271
3896 3 0.037462 -6.406958 31.694015
3897 3 2.719971 -8.464257 37.909141
3898 2 28.863557 13.139269 19.683685
3899 3 25.608377 11.701322 27.607080
3900 3 28.535100 14.232688 25.404617
3901 2 60.755056 17.646707 0.963339
3902 3 59.080672 14.829891 -3.261922
3903 3 58.271401 17.486854 -8.092247
3904 2 -14.543765 -6.370304 -22.146295
3905 3 -10.893330 -7.510806 -24.245459
3906 3 -13.296006 -6.509429 -19.666309
3907 2 35.877978 36.701509 4.223177
3908 3 35.291028 35.495928 6.808493
3909 3 32.043182 35.382571 6.938586
3910 2 32.121569 11.719429 27.790894
3911 3 30.790317 17.186979 29.814083
3912 3 32.568114 12.362276 27.729706
3913 2 28.544329 -5.448060 4.079719
3914 3 25.526664 -4.027518 0.216898
3915 3 27.086907 5.552818 2.619424
3916 2 64.593764 10.423259 12.909130
3917 3 67.049112 5.466007 12.983745
3918 3 64.633759 9.641104 13.422921
3919 2 5.788652 -18.041366 29.906898
3920 3 4.988582 -18.937605 27.599064
3921 3 10.820883 -13.294295 30.844371
3922 2 -17.663499 18.654766 6.751486
3923 3 -17.874453 18.553652 2.957668
3924 3 -19.324550 19.662064 6.351162
3925 2 35.111255 42.101778 6.888915
3926 3 34.907048 47.634850 8.196497
3927 3 34.650263 42.501930 8.925133
3928 2 13.949714 7.625601 43.156886
3929 3 16.388193 3.496487 51.205656
3930 3 14.556126 5.012658 50.079142
3931 2 36.365550 11.899146 34.179335
3932 3 39.472177 13.663013 37.133377
3933 3 37.613055 15.055538 39.137910
3934 2 47.228057 10.601779 48.502274
3935 3 47.203934 13.291518 52.526059
3936 3 47.228797 9.864858 48.198678
3937 2 16.348102 31.231139 21.248940
3938 3 14.481121 38.500143 20.659213
3939 3 13.620008 37.408263 22.459652
3940 2 51.292768 4.539156 47.362121
3941 3 46.662870 5.753320 51.552514
3942 3 46.880791 4.293640 45.376460
3943 2 16.432847 -40.465309 7.581467
3944 3 19.742401 -34.650088 4.467819
3945 3 15.927274 -37.834093 13.152594
3946 2 65.477815 24.199897 34.522710
3947 3 70.345440 23.068132 35.398426
3948 3 68.549194 22.067976 36.943329
3949 2 46.959884 24.685425 32.179843
3950 3 47.631323 17.955032 33.986662
3951 3 47.366647 24.198917 35.207715
3952 2 36.968651 -26.156637 7.428179
3953 3 42.888379 -24.757330 7.813524
3954 3 41.734436 -25.713398 10.803372
3955 2 47.895448 3.926135 39.189742
3956 3 47.125482 0.634298 37.965553
3957 3 47.948135 2.931566 36.474179
3958 2 29.484975 16.387518 -21.106033
3959 3 29.170577 13.528537 -21.061213
3960 3 32.241968 13.285245 -20.002975
3961 2 -28.434220 39.144687 34.739346
3962 3 -26.097878 37.831312 35.107012
3963 3 -28.156439 41.949951 37.082472
3964 2 -11.653553 32.985998 29.156038
3965 3 -12.631669 32.185377 30.962956
3966 3 -7.729537 31.325759 32.329811
3967 2 28.256086 20.423520 62.530138
3968 3 32.962392 25.023754 63.099457
3969 3 30.816672 21.116145 58.964108
3970 2 38.279114 23.012599 31.307148
3971 3 33.876732 22.680790 30.300919
3972 3 37.832081 22.324147 29.891574
3973 2 59.194313 -8.007760 15.187873
3974 3 60.498358 -7.474525 10.719200
3975 3 54.065981 -8.026184 10.495270
3976 2 22.833727 24.073474 48.263534
3977 3 19.274133 21.392575 55.017123
3978 3 17.396351 26.804225 52.295604
3979 2 37.336956 4.074745 22.425726
3980 3 39.764659 3.222044 19.270435
3981 3 38.403119 2.052076 19.665550
3982 2 26.431371 -13.758957 46.270810
3983 3 26.632394 -15.363572 46.447487
3984 3 26.361759 -12.835084 47.471890
3985 2 46.581370 45.335181 0.618977
3986 3 52.739378 41.453661 4.193993
3987 3 49.332940 43.084073 4.259632
3988 2 31.566951 39.704267 42.741341
3989 3 27.250221 36.397356 38.696471
3990 3 31.094306 37.932411 37.534430
3991 2 34.993452 2.156613 43.881722
3992 3 32.088528 1.085962 45.200405
3993 3 33.620366 0.475058 46.051892
3994 2 35.244485 24.509083 32.251415
3995 3 37.144751 25.189538 31.756801
3996 3 35.947193 24.322594 37.886301
3997 2 21.070937 58.859500 9.029176
3998 3 16.429975 60.941936 9.561771
3999 3 18.734712 63.556450 9.794571
4000 2 18.373916 19.104656 35.955393
4001 3 21.046746 17.852891 31.638535
4002 3 17.652162 18.595084 33.330321
4003 2 21.899848 -3.561220 26.828206
4004 3 21.414940 -4.335145 27.208892
4005 3 23.467984 1.666228 24.319564
4006 2 56.981228 2.288818 49.364737
4007 3 55.759327 2.277417 59.142965
4008 3 55.874083 2.558843 57.209919
4009 2 52.593186 35.551481 3.341692
4010 3 55.283762 39.729717 9.826568
4011 3 53.098094 39.376948 2.034092
4012 2 1.530581 22.178886 45.635965
4013 3 0.343504 23.756040 48.822261
4014 3 -1.330747 23.456999 43.921832
4015 2 2.961598 56.080267 39.534882
4016 3 2.833361 53.704484 38.884412
4017 3 6.155753 51.854712 37.760956
4018 2 38.122586 39.531338 29.716731
4019 3 41.605974 38.073062 31.348951
4020 3 42.533282 39.376554 35.084369
4021 2 20.469048 -18.478295 45.573183
4022 3 18.440300 -17.044896 42.818610
4023 3 22.107223 -19.466729 44.720381
4024 2 19.022287 17.131695 39.842435
4025 3 18.227927 14.011967 35.912119
4026 3 22.118466 19.249895 37.436044
4027 2 61.084954 8.602891 3.333185
4028 3 56.651972 1.465086 4.174867
4029 3 55.817234 5.478424 6.334339
4030 2 4.545423 67.800402 -14.424770
4031 3 4.796778 62.172286 -9.825143
4032 3 5.932816 58.653536 -10.169242
4033 2 -1.325625 45.565608 31.028686
4034 3 -3.082754 41.846222 30.420495
4035 3 -2.695669 48.447804 26.662976
4036 2 0.317615 6.337299 24.741337
4037 3 -4.125703 5.954381 23.063336
4038 3 0.316498 2.403841 27.093434
4039 2 50.941317 -4.936426 45.931501
4040 3 54.630734 -4.780204 43.112272
4041 3 47.920271 -7.430123 41.791283
4042 2 46.531617 11.199069 49.598509
4043 3 46.058997 7.546846 55.839816
4044 3 47.232735 7.173265 53.216435
4045 2 -14.940086 21.081810 33.367850
4046 3 -13.967898 19.217395 39.182717
4047 3 -13.800532 16.139417 38.583046
4048 2 39.627491 37.669295 32.764701
4049 3 43.215550 38.964301 35.487831
4050 3 43.551732 44.952902 35.450462
4051 2 -33.484106 15.319498 1.344563
4052 3 -29.996861 20.234796 3.215706
4053 3 -29.099727 21.404627 2.000402
4054 2 20.007630 3.648469 46.779515
4055 3 23.070078 3.975410 55.888595
4056 3 21.461861 1.023318 55.248971
4057 2 40.712304 -12.430791 40.149578
4058 3 44.717721 -11.632243 35.913477
4059 3 44.313594 -7.540751 36.543446
4060 2 40.354154 2.467853 20.882291
4061 3 37.525498 6.205887 16.981208
4062 3 41.856176 1.444034 15.632410
4063 2 36.679659 18.609469 27.185872
4064 3 40.228130 18.163934 25.507581
4065 3 35.648961 21.979434 24.235411
4066 2 49.151366 -5.547481 6.543190
4067 3 50.891138 -9.646256 5.482828
4068 3 50.573966 -8.181756 7.839361
4069 2 27.695266 42.177485 49.991911
4070 3 30.950458 43.981588 52.282591
4071 3 30.422813 43.092086 51.158754
4072 2 -1.990857 20.012480 -2.736025
4073 3 -3.289278 22.591335 -10.044264
4074 3 0.380527 22.530648 -3.087171
4075 2 45.651991 42.984635 8.113677
4076 3 44.453195 42.717561 10.442958
4077 3 46.392950 37.533297 8.158062
4078 2 16.347991 21.407354 31.751428
4079 3 18.655495 23.668004 32.065305
4080 3 15.950063 25.304634 30.414994
4081 2 24.275196 35.298034 35.863876
4082 3 25.000937 38.646902 44.021990
4083 3 21.988303 37.890987 47.258014
4084 2 3.073380 35.540672 36.107123
4085 3 3.257185 36.746625 39.543835
4086 3 4.463223 34.569007 36.455798
4087 2 8.647600 28.492585 12.680410
4088 3 12.760152 28.469489 12.979916
4089 3 9.704101 27.042596 7.784486
4090 2 -16.860624 45.437208 36.074101
4091 3 -17.264356 46.479013 39.323448
4092 3 -12.546801 45.962672 35.157293
4093 2 6.502607 17.946582 -6.645862
4094 3 8.491455 16.922183 -3.152414
4095 3 5.761804 19.239580 -7.214729
4096 2 -6.501250 17.480461 2.660825
4097 3 -1.928573 14.617565 -0.063669
4098 3 -0.448814 19.442870 5.406995
4099 2 30.605812 44.118020 26.268745
4100 3 29.106915 47.415338 28.809611
4101 3 27.424152 46.343758 32.085480
4102 2 25.406955 31.068549 2.820432
4103 3 27.128827 32.622339 1.497851
4104 3 28.659233 30.427433 4.364180
4105 2 22.900202 4.866775 30.972432
4106 3 21.752334 10.270805 26.030545
4107 3 23.128347 9.584633 29.799342
4108 2 47.826603 23.646178 53.330640
4109 3 53.205486 19.545422 54.998722
4110 3 53.318332 20.943048 49.072333
4111 2 7.660337 -6.848819 19.243886
4112 3 5.288511 -5.853549 16.157394
4113 3 12.537395 -6.517820 16.978477
4114 2 35.327606 51.139911 42.719513
4115 3 34.450930 47.980404 38.457819
4116 3 35.921893 47.988654 40.857353
4117 2 -35.127089 29.043290 43.564636
4118 3 -36.724998 27.463201 45.089482
4119 3 -34.837485 27.458304 46.648602
4120 2 26.040362 42.212480 36.332249
4121 3 24.465878 43.932050 35.558555
4122 3 26.767805 44.577001 34.369090
4123 2 0.581033 49.512271 12.588484
4124 3 0.757069 51.733853 6.624362
4125 3 5.145932 46.486241 10.912082
4126 2 10.879025 31.214820 23.155040
4127 3 7.379579 25.794341 20.317489
4128 3 6.622401 29.899430 21.712670
4129 2 19.503738 12.876250 42.321076
4130 3 17.951139 16.184640 51.027507
4131 3 17.367890 12.026105 44.810068
4132 2 17.987000 29.385071 27.444561
4133 3 12.799636 26.932687 26.560862
4134 3 17.533594 33.030459 29.611626
4135 2 21.408464 16.663873 38.231105
4136 3 21.080653 13.793547 33.888429
4137 3 22.957690 12.496406 40.469118
4138 2 11.364513 29.359639 15.825932
4139 3 9.833405 33.424241 17.343678
4140 3 9.271690 29.831941 20.267518
4141 2 28.690354 13.604678 11.241471
4142 3 31.135191 17.398338 11.173575
4143 3 26.983372 15.501027 17.076348
4144 2 -0.770515 37.368612 33.570671
4145 3 -2.501739 37.950637 24.786951
4146 3 -0.859869 37.123625 29.338663
4147 2 15.893620 37.955185 21.998173
4148 3 18.984138 45.308449 17.823427
4149 3 13.259964 45.187320 21.669882
4150 2 -0.224028 10.926302 2.303874
4151 3 3.304178 8.509863 1.895600
4152 3 2.744780 8.090060 4.361077
4153 2 37.873349 54.822482 36.244257
4154 3 40.614678 47.002586 36.631355
4155 3 38.893979 48.927684 33.451891
4156 2 -17.843933 10.833705 60.663465
4157 3 -15.414760 12.259775 55.958769
4158 3 -15.430121 10.322852 60.498774
4159 2 18.630421 15.431897 24.196636
4160 3 20.409731 18.043274 21.732913
4161 3 14.704940 18.603963 21.745593
4162 2 -5.087173 24.741832 24.058823
4163 3 -5.729372 26.081475 22.570679
4164 3 -7.326240 27.328184 22.694072
4165 2 25.497691 28.819270 29.561381
4166 3 29.443010 33.909734 35.359937
4167 3 30.246612 31.416565 31.429360
4168 2 7.481608 44.473279 -7.472391
4169 3 5.522766 45.803907 -6.519157
4170 3 3.118906 46.316658 -3.364115
4171 2 39.989444 44.430777 48.866278
4172 3 39.973828 41.357184 54.931500
4173 3 40.778300 42.871979 55.959291
4174 2 1.464718 28.466336 36.623453
4175 3 -2.978059 26.819923 32.193565
4176 3 1.991944 26.503095 36.624617
4177 2 6.630992 23.219916 46.679301
4178 3 10.294338 26.027922 40.451552
4179 3 11.374490 21.920080 45.863749
4180 2 27.869060 27.586138 49.624734
4181 3 27.740692 24.552136 47.326283
4182 3 24.932948 27.565719 50.969795
4183 2 -5.427670 60.623627 35.759066
4184 3 -7.894518 56.549377 37.062825
4185 3 -9.796954 59.629533 34.570377
4186 2 35.527405 18.702278 9.926072
4187 3 37.164982 21.256848 9.454983
4188 3 38.072745 19.437903 10.353012
4189 2 -0.464249 17.032855 52.860942
4190 3 1.448149 17.702885 51.482838
4191 3 2.849810 21.819125 45.496024
4192 2 48.791275 15.832428 39.735533
4193 3 51.068223 12.899869 40.918722
4194 3 50.713314 11.091300 37.260513
4195 2 17.483375 40.849410 35.010915
4196 3 14.611626 37.438510 35.786936
4197 3 18.062441 40.004166 34.644051
4198 2 -27.575423 12.243454 24.514476
4199 3 -27.757998 12.014482 21.053268
4200 3 -25.973557 16.654109 20.279622
4201 2 7.477476 -0.566919 2.986476
4202 3 3.343026 0.551562 3.700315
4203 3 9.345315 -4.703402 3.205207
4204 2 11.925230 21.912200 56.023775
4205 3 12.940065 19.298816 46.654668
4206 3 14.572845 20.074976 62.159863
4207 2 40.351045 44.610167 50.065838
4208 3 40.265087 52.332389 49.271028
4209 3 37.630003 51.614777 46.812661
4210 2 2.322643 39.699335 61.359616
4211 3 1.570654 36.783239 57.089505
4212 3 3.395880 37.169322 59.374022
4213 2 37.980368 30.101458 23.705462
4214 3 41.383812 34.689921 27.711233
4215 3 39.386125 37.922033 33.091756
4216 2 30.474984 22.932420 27.362326
4217 3 31.339710 28.355786 26.546604
4218 3 31.179906 23.165586 24.756792
4219 2 31.598289 33.606548 7.632353
4220 3 33.084345 35.805017 7.433131
4221 3 30.463581 30.102877 6.012000
4222 2 9.002432 46.718971 35.841761
4223 3 8.084257 45.727387 40.397343
4224 3 7.982806 44.573004 39.788706
4225 2 -30.719903 56.260552 23.145393
4226 3 -31.694263 56.038288 22.135320
4227 3 -29.172578 53.391515 22.266904
4228 2 73.680897 38.739631 30.879125
4229 3 72.547065 41.300206 23.456067
4230 3 70.181244 39.779489 22.695827
4231 2 42.889784 15.873066 4.902130
4232 3 48.648202 16.736757 5.634129
4233 3 47.302621 13.120220 6.151410
4234 2 -5.490418 1.692736 32.760162
4235 3 -8.640497 -1.958529 36.719168
4236 3 -8.401198 -5.246662 30.818058
4237 2 15.915821 -22.093281 59.408656
4238 3 21.414414 -19.229793 62.547723
4239 3 18.971781 -26.949582 65.991068
4240 2 12.582260 1.331184 32.289387
4241 3 11.355463 -2.826663 34.280436
4242 3 12.262504 0.288792 38.024940
4243 2 31.374148 15.007239 4.067350
4244 3 34.589583 9.418937 5.447479
4245 3 30.633794 4.340731 4.195986
4246 2 -6.783899 -9.490562 40.935471
4247 3 -5.519045 -11.623521 42.201919
4248 3 -8.239794 -8.880279 42.077557
4249 2 14.738665 20.168869 66.708130
4250 3 9.939278 20.729028 70.458756
4251 3 14.077619 16.562864 72.718068
4252 2 17.563340 -21.308489 10.232775
4253 3 15.018662 -20.572807 5.388973
4254 3 16.389238 -24.737785 3.361152
4255 2 -14.120653 6.022006 14.973479
4256 3 -12.318688 3.896040 15.702273
4257 3 -11.140563 2.311372 11.071204
4258 2 44.046572 -32.378321 60.705660
4259 3 45.814100 -32.949812 61.943673
4260 3 44.283884 -29.044618 65.616641
4261 2 6.643812 8.502810 59.295150
4262 3 4.683095 9.670690 52.688993
4263 3 7.642777 13.836755 59.329978
4264 2 11.684394 3.621476 51.717925
4265 3 13.786022 2.830230 52.632016
4266 3 12.933917 3.288504 53.433012
4267 2 6.324071 14.871391 32.344222
4268 3 8.397969 14.713478 36.751131
4269 3 7.059175 9.910807 38.486011
4270 2 17.292666 17.156521 45.225707
4271 3 20.323581 16.357925 40.725112
4272 3 21.543039 17.356511 46.239073
4273 2 21.726812 24.736030 25.254862
4274 3 24.881582 24.023579 25.420243
4275 3 25.236677 25.905762 27.761613
4276 2 17.981729 45.467795 44.324508
4277 3 21.695569 51.535156 46.031915
4278 3 23.240640 50.138827 45.666373
4279 2 -7.949778 -9.178557 20.098666
4280 3 -6.173791 -9.559523 19.827707
4281 3 -4.363717 -7.618989 17.922871
4282 2 -15.210336 30.094440 40.564896
4283 3 -13.691991 27.983580 43.685910
4284 3 -17.032270 27.272084 44.993944
4285 2 6.662799 29.356425 23.107776
4286 3 8.048998 26.341056 25.445644
4287 3 9.380399 31.709930 23.979777
4288 2 8.041634 40.276728 36.728395
4289 3 11.689711 40.071759 33.567093
4290 3 6.862684 36.813475 41.084806
4291 2 27.411547 14.484444 21.254973
4292 3 28.693773 11.434427 25.271345
4293 3 27.951906 11.393740 21.521511
4294 2 20.555655 10.284472 64.625484
4295 3 20.000806 13.247014 59.767805
4296 3 19.661310 14.426541 63.083930
4297 2 6.733535 -4.977316 48.687061
4298 3 8.346742 -3.462333 55.158564
4299 3 3.204037 -4.692892 46.799565
4300 2 36.915217 -2.548903 24.407223
4301 3 35.223953 -1.022361 23.425097
4302 3 39.207726 -4.947351 25.308640
4303 2 47.502147 -10.096892 33.043433
4304 3 50.554826 -6.837625 33.240429
4305 3 52.941220 -7.380310 39.318461
4306 2 49.356863 57.394682 33.505680
4307 3 49.423872 53.093876 26.005298
4308 3 47.103503 57.245037 23.760327
4309 2 72.211785 -0.794107 6.793846
4310 3 70.966571 -0.730083 0.436928
4311 3 69.113771 1.224579 -0.108659
4312 2 3.448150 26.022419 23.571042
4313 3 0.302227 30.295814 24.321056
4314 3 1.719924 26.050759 20.120582
4315 2 3.280039 34.213809 9.181223
4316 3 -5.114447 27.852638 14.645888
4317 3 0.046276 29.613013 7.236003
4318 2 -0.334256 20.023886 32.866118
4319 3 3.361502 14.537051 32.641302
4320 3 0.994411 22.382756 28.583529
4321 2 3.314236 26.684332 19.897538
4322 3 1.873845 25.323768 21.582781
4323 3 4.982946 24.811304 18.902016
4324 2 32.549985 43.187802 52.942512
4325 3 29.268414 41.859007 50.247129
4326 3 29.167529 41.156111 48.857481
4327 2 28.484240 -3.723467 12.714381
4328 3 26.059809 -3.282062 5.014197
4329 3 29.917645 -3.112433 4.441558
4330 2 38.383539 -0.951952 42.037669
4331 3 37.154155 -1.429239 40.465845
4332 3 32.189771 -0.736946 37.810800
4333 2 48.593830 -1.080344 32.415641
4334 3 50.814510 1.213442 30.761967
4335 3 52.007539 -0.723150 29.902758
4336 2 60.031889 25.159052 17.412992
4337 3 59.347215 28.196551 18.987888
4338 3 61.140965 27.927717 15.678591
4339 2 24.894801 -10.869689 45.444899
4340 3 20.424177 -14.227356 43.748210
4341 3 23.526806 -9.095562 47.332773
4342 2 61.889156 18.588330 22.734286
4343 3 62.438364 20.998455 27.885054
4344 3 62.203521 23.589695 21.235295
4345 2 10.942036 -0.997907 76.477482
4346 3 14.001752 4.209951 73.450182
4347 3 13.719610 0.648497 67.955365
4348 2 44.235510 48.790235 -4.040018
4349 3 46.372253 44.608831 -5.955053
4350 3 48.574476 44.582284 -2.133865
4351 2 -14.031363 24.342351 2.022619
4352 3 -16.444815 18.231599 6.191120
4353 3 -19.005786 19.144919 6.122988
4354 2 -2.067536 -24.271439 57.550408
4355 3 0.642369 -17.624160 52.985115
4356 3 0.466273 -23.790094 58.722911
4357 2 -20.999455 59.947629 35.204793
4358 3 -21.077600 63.247153 35.756677
4359 3 -21.088224 59.250072 30.407935
4360 2 44.195523 -22.879597 49.512697
4361 3 46.152912 -24.522169 45.873936
4362 3 43.764428 -28.870320 47.448950
4363 2 -22.122882 -2.858079 49.331773
4364 3 -20.545361 -1.256155 48.245283
4365 3 -19.507455 -3.313038 50.389329
4366 2 1.798031 20.601349 -6.822397
4367 3 0.325356 14.693501 -7.969767
4368 3 2.861847 18.731924 -7.659632
4369 2 11.015305 40.803699 -1.414884
4370 3 10.943201 39.253886 -6.542044
4371 3 6.054918 41.485155 0.585001
4372 2 60.872373 -11.803132 33.633436
4373 3 64.923347 -8.034647 32.134421
4374 3 62.761738 -10.433495 31.954210
4375 2 3.999931 16.312003 59.395126
4376 3 9.356537 16.849510 66.814352
4377 3 5.509091 19.657227 62.168286
4378 2 41.084098 19.692688 31.094432
4379 3 40.174207 21.898792 29.192984
4380 3 37.359081 20.949728 24.890200
4381 2 19.877140 8.386255 64.926565
4382 3 21.437761 9.536994 70.213145
4383 3 21.055457 3.014998 68.942712
4384 2 15.888803 -11.910725 39.624073
4385 3 16.226326 -6.654760 38.414769
4386 3 14.506227 -7.558525 38.395881
4387 2 -6.435824 8.437538 31.922537
4388 3 -8.882541 8.243636 30.218017
4389 3 -5.869786 7.875551 35.848060
4390 2 41.848607 41.259428 -13.373287
4391 3 40.739131 35.730994 -10.210590
4392 3 39.471695 33.611093 -9.848191
4393 2 1.966251 23.672781 45.516527
4394 3 0.098103 19.987130 46.668073
4395 3 0.180266 28.186040 53.403137
4396 2 51.445258 6.352048 25.981382
4397 3 55.143382 9.054623 26.951377
4398 3 49.329141 3.877414 27.660118
4399 2 46.968743 15.878498 11.952076
4400 3 47.368062 15.329968 9.083861
4401 3 45.400373 15.386497 9.403679
4402 2 41.240981 -12.519664 36.604384
4403 3 41.574914 -9.530313 33.822631
4404 3 41.402621 -8.832140 38.365291
4405 2 71.731253 -28.197706 42.632626
4406 3 68.189457 -24.527601 44.876014
4407 3 67.695426 -26.879817 47.852070
4408 2 -5.299684 29.674619 48.104452
4409 3 -1.609836 27.793420 53.073653
4410 3 -3.254407 28.415037 56.271602
4411 2 -36.444577 2.521153 46.466177
4412 3 -40.097863 3.026983 42.174027
4413 3 -37.941877 0.832489 47.222870
4414 2 -8.714891 57.794592 52.857976
4415 3 -9.127284 56.307689 56.129457
4416 3 -7.583324 47.179689 50.226015
4417 2 14.109582 24.331756 52.590746
4418 3 8.452433 25.874607 53.064815
4419 3 10.128801 25.481368 53.413126
4420 2 68.984370 43.961032 46.186972
4421 3 68.505008 42.112928 51.996336
4422 3 67.429031 39.080232 49.759777
4423 2 64.036107 14.110778 33.752808
4424 3 64.461324 17.365307 38.784003
4425 3 63.664542 10.875121 35.043003
4426 2 2.020178 29.171356 49.133784
4427 3 1.391114 28.488307 50.051842
4428 3 0.157176 27.777233 50.558534
4429 2 -6.288649 26.787320 24.229817
4430 3 -5.438285 26.522930 33.460262
4431 3 -1.484650 23.478434 23.723961
4432 2 18.867852 28.561695 25.848318
4433 3 17.088633 30.472475 31.418067
4434 3 18.302257 21.452348 30.277242
4435 2 23.369525 3.991004 55.528983
4436 3 19.897819 1.353242 55.760492
4437 3 19.892947 4.532190 53.352803
4438 2 49.192615 2.512785 51.645303
4439 3 46.968493 4.676194 51.360358
4440 3 47.287012 -0.931671 50.252749
4441 2 81.545396 -0.061621 39.813044
4442 3 79.690747 -9.693142 35.120157
4443 3 84.212369 -2.150618 42.195000
4444 2 23.162007 50.274417 57.185415
4445 3 19.369564 48.778887 58.823469
4446 3 21.675294 49.269476 58.058499
4447 2 40.669935 27.003063 -1.752818
4448 3 40.856041 27.973007 0.477979
4449 3 46.481450 26.340865 0.386576
4450 2 6.361535 -2.378688 26.141723
4451 3 5.791127 -1.458359 24.817726
4452 3 3.262791 -0.534195 28.556703
4453 2 32.138394 5.279578 33.645224
4454 3 31.891366 10.676332 28.242113
4455 3 35.260753 8.294201 30.781073
4456 2 22.198042 -1.860969 14.188084
4457 3 23.193931 -6.057782 16.400509
4458 3 22.208617 -5.907366 18.914553
4459 2 45.643231 18.079040 25.982304
4460 3 42.511398 19.330233 30.495372
4461 3 47.632165 21.132504 30.898177
4462 2 -3.232050 29.996391 23.451732
4463 3 -0.676696 28.128460 23.382432
4464 3 -2.039185 27.299119 21.608846
4465 2 41.054075 36.676393 17.887874
4466 3 41.686649 37.810796 16.097167
4467 3 42.979847 34.389238 21.132245
4468 2 26.152471 46.399128 4.083380
4469 3 29.457941 42.951868 5.882638
4470 3 29.563145 48.343106 4.528472
4471 2 7.203451 -10.985420 53.613747
4472 3 9.188928 -8.777487 47.730325
4473 3 6.876095 -10.977161 50.764019
4474 2 31.920176 17.921826 12.058281
4475 3 34.455079 17.929143 7.667893
4476 3 35.382308 20.066129 5.774677
4477 2 -9.479132 31.513644 48.843527
4478 3 -11.486994 26.932804 52.011914
4479 3 -11.578259 28.494704 46.058073
4480 2 21.814983 2.124148 56.503686
4481 3 19.751400 -0.832718 59.501297
4482 3 22.801440 -1.854246 58.794975
4483 2 52.937350 39.433608 -2.072107
4484 3 50.261817 37.438456 4.682162
4485 3 50.654101 36.625844 2.854239
4486 2 15.150659 2.089779 2.188195
4487 3 18.939384 0.601812 5.511374
4488 3 18.099134 1.768330 9.009903
4489 2 -17.468870 33.770339 22.025032
4490 3 -22.900862 31.313158 19.718914
4491 3 -20.884921 33.872533 17.528138
4492 2 42.648987 -2.784374 27.962650
4493 3 43.462767 1.502358 27.391742
4494 3 41.493945 3.044867 25.585001
4495 2 -7.329657 19.185205 29.557619
4496 3 -0.544638 16.529596 24.818168
4497 3 -8.373423 21.712882 26.485354
4498 2 19.098179 2.187881 64.897093
4499 3 21.102747 4.911100 62.761560
4500 3 17.264214 1.320115 61.160725
4501 2 2.397319 10.777079 30.921871
4502 3 3.436018 14.681103 34.357599
4503 3 3.405221 10.913338 28.755227
4504 2 27.629119 37.944202 41.370844
4505 3 26.810023 37.887289 43.604559
4506 3 28.992852 37.849282 40.894102
4507 2 12.001343 49.324426 35.074919
4508 3 11.130039 55.326743 37.490656
4509 3 18.480132 51.577542 36.239373
4510 2 47.645396 45.753320 46.091807
4511 3 42.699689 42.263447 44.132767
4512 3 45.374851 47.856434 51.347400
4513 2 37.798750 -13.048469 55.021664
4514 3 37.714558 -10.817329 58.899665
4515 3 37.196197 -7.947025 58.833889
4516 2 32.601907 29.984845 62.108720
4517 3 31.677847 31.393239 63.749940
4518 3 32.146054 33.271645 63.558089
4519 2 1.827653 12.581173 28.778560
4520 3 6.446847 9.565611 29.688621
4521 3 1.470166 4.962577 25.442054
4522 2 10.417763 31.628401 39.091366
4523 3 11.632353 28.933849 36.605162
4524 3 12.450979 27.396294 39.833516
4525 2 24.853001 52.313159 7.510320
4526 3 25.612535 53.787921 12.872747
4527 3 27.861941 51.524332 15.935352
4528 2 53.279677 -8.050520 29.910029
4529 3 56.859678 -6.603751 24.769272
4530 3 54.929704 -4.525899 30.557907
4531 2 8.736608 -1.289820 23.621418
4532 3 9.387653 -5.654105 23.810969
4533 3 10.382960 -6.053213 21.657532
4534 2 20.510917 7.237315 51.209227
4535 3 21.288647 6.182329 53.784301
4536 3 23.033602 7.797269 53.961377
4537 2 8.039504 -0.942516 65.835013
4538 3 9.105541 -5.318153 64.930555
4539 3 6.751379 0.247149 68.583272
4540 2 7.428265 30.962430 12.239012
4541 3 7.941221 24.327938 10.111733
4542 3 7.297118 30.990188 13.267461
4543 2 43.445249 4.710053 49.495643
4544 3 42.237063 3.360768 48.488781
4545 3 43.229279 -0.584825 52.268063
4546 2 64.377344 -0.993927 44.112565
4547 3 68.063066 -0.847559 40.289474
4548 3 67.754664 0.329608 40.771797
4549 2 -11.692692 49.660067 59.752942
4550 3 -9.806799 51.475336 64.552618
4551 3 -10.858277 52.037589 60.046864
4552 2 11.400262 13.128610 74.364520
4553 3 13.594655 16.278367 73.788480
4554 3 11.939691 12.564686 80.155409
4555 2 25.290729 29.478591 26.868244
4556 3 22.630126 29.362563 28.523101
4557 3 21.926235 28.152736 30.233069
4558 2 33.535797 -6.161291 13.265302
4559 3 33.837356 -4.686702 11.673581
4560 3 32.263694 -3.784244 13.472818
4561 2 -4.793650 19.036844 31.119216
4562 3 -6.539859 21.088030 31.585917
4563 3 -9.720434 25.156819 32.309160
4564 2 40.646901 41.427190 23.022937
4565 3 36.298943 39.214243 21.864114
4566 3 39.301952 37.377164 21.777219
4567 2 6.999053 22.669158 25.395406
4568 3 2.784810 24.263691 27.223600
4569 3 -0.570221 23.752944 30.518434
4570 2 1.909537 28.153574 51.970347
4571 3 4.401954 25.341423 55.103029
4572 3 0.083720 22.639726 47.384621
4573 2 23.917030 47.719871 21.468045
4574 3 23.784297 53.921160 30.611282
4575 3 26.322441 51.492723 27.496946
4576 2 28.202749 13.254103 21.832444
4577 3 25.346091 10.423962 21.896622
4578 3 29.873991 13.066020 22.599151
4579 2 1.854900 49.374587 47.195465
4580 3 2.934704 50.363900 43.484058
4581 3 2.968523 48.568471 42.857615
4582 2 1.722398 16.357018 15.054391
4583 3 1.044542 13.099999 16.445720
4584 3 3.281712 14.694627 10.649580
4585 2 39.565186 -6.174979 13.726334
4586 3 40.934800 -10.096447 17.650817
4587 3 41.566243 -8.071863 14.193527
4588 2 13.073479 11.059546 44.772671
4589 3 7.149209 9.706930 49.575772
4590 3 8.729063 8.959864 49.121345
4591 2 28.837467 42.917214 24.152932
4592 3 25.707805 46.599218 19.955754
4593 3 27.909803 46.943960 20.563599
4594 2 10.192094 34.215694 39.307310
4595 3 11.392361 33.872057 44.954220
4596 3 6.263075 32.895328 40.799226
4597 2 18.844150 33.884330 45.011860
4598 3 15.148008 38.316542 50.191877
4599 3 13.168513 35.869593 47.412566
4600 2 -1.450686 16.282354 21.811156
4601 3 0.037707 15.924831 20.066953
4602 3 -3.351223 13.099830 22.068465
4603 2 0.730091 28.260078 67.212060
4604 3 3.080688 28.761585 72.358149
4605 3 0.728554 26.726750 76.456706
4606 2 8.890141 33.989371 54.603723
4607 3 10.991125 34.608447 55.067277
4608 3 5.447114 32.510578 53.902676
4609 2 2.888693 66.096359 12.552770
4610 3 4.526097 68.491167 12.794170
4611 3 3.109977 69.410392 11.817809
4612 2 29.385420 26.057406 14.810332
4613 3 30.992414 28.507715 11.954824
4614 3 30.654967 31.363357 14.996052
4615 2 25.833385 52.530930 21.857807
4616 3 27.561999 56.253817 25.969096
4617 3 26.085513 57.776081 25.284189
4618 2 33.366627 62.634724 41.955178
4619 3 33.558176 58.864491 37.194774
4620 3 34.083692 59.481108 45.917644
4621 2 43.830183 23.493094 38.290660
4622 3 49.030201 27.170966 37.210676
4623 3 46.378841 24.580244 37.700138
4624 2 49.668162 49.516031 45.768925
4625 3 50.180243 51.543070 43.439245
4626 3 53.049758 49.484309 38.235857
4627 2 -6.503034 53.202606 21.872580
4628 3 -9.112564 51.162048 16.245496
4629 3 -9.808974 54.391102 17.126068
4630 2 65.551408 -2.075670 27.583353
4631 3 61.538663 -6.654476 21.368300
4632 3 63.245133 -2.875912 25.576609
4633 2 19.785959 19.766664 50.166388
4634 3 14.518179 14.673048 46.312972
4635 3 17.812118 16.753475 49.114802
4636 2 42.048679 -1.409627 23.954399
4637 3 39.460439 -0.909661 27.371828
4638 3 42.009630 1.424738 23.862769
4639 2 20.123001 37.100594 70.672321
4640 3 20.640435 40.934066 71.605194
4641 3 21.316997 44.180762 68.961897
4642 2 12.773856 4.414692 6.278298
4643 3 13.308224 4.693006 2.127501
4644 3 14.312423 11.046875 1.031989
4645 2 48.145848 20.651191 41.695961
4646 3 44.254927 22.123834 44.898396
4647 3 45.889323 22.484963 42.918985
4648 2 8.624822 -4.355330 45.567269
4649 3 4.286524 0.953719 55.476086
4650 3 8.343919 2.272122 48.396621
4651 2 -25.571687 -13.818452 23.538428
4652 3 -26.720934 -7.997716 29.701682
4653 3 -29.477798 -13.941002 25.245386
4654 2 -10.474448 -7.423547 19.020889
4655 3 -7.025729 -6.160101 20.657901
4656 3 -7.367261 -7.411939 26.572181
4657 2 13.869197 22.909173 44.262774
4658 3 13.311016 22.720671 47.804194
4659 3 12.329542 20.558980 45.231777
4660 2 24.547000 16.133711 27.903322
4661 3 24.188634 16.978143 29.929864
4662 3 20.674133 12.983350 32.357088
4663 2 26.457006 -21.604402 30.083690
4664 3 26.709252 -25.777955 29.888422
4665 3 28.962452 -23.423393 24.607724
4666 2 24.559125 22.455444 33.138154
4667 3 26.627095 21.094616 35.382703
4668 3 28.887322 23.809483 26.652905
4669 2 28.155468 17.839158 44.415750
4670 3 28.603276 18.823152 42.585058
4671 3 30.081934 19.821044 44.050945
4672 2 -10.505794 27.503008 19.387157
4673 3 -10.389617 25.015696 23.863785
4674 3 -8.673648 25.180109 18.682905
4675 2 -3.923506 24.794612 46.731231
4676 3 -7.586713 25.900336 47.075174
4677 3 -8.095113 23.303038 43.524884
4678 2 44.360226 16.494548 28.248405
4679 3 45.721452 15.483476 24.389715
4680 3 45.573449 17.373954 25.171424
4681 2 26.895342 16.800832 18.390086
4682 3 27.610277 19.499736 20.941906
4683 3 25.734709 15.940365 20.150423
4684 2 -5.701084 21.884976 65.597834
4685 3 -7.353226 19.332324 68.265626
4686 3 -2.327530 16.176317 62.701993
4687 2 -22.819997 3.661410 45.859706
4688 3 -24.493512 0.442007 47.892859
4689 3 -21.823002 4.035890 48.938816
4690 2 45.660095 14.768347 33.465428
4691 3 48.002562 17.562246 33.497497
4692 3 45.922198 16.074643 31.951699
4693 2 0.815999 -9.724442 6.544546
4694 3 0.077548 -10.728730 10.558705
4695 3 3.789871 -8.836498 10.850238
4696 2 42.477135 14.939952 18.261587
4697 3 42.080104 12.930855 13.578792
4698 3 45.719708 15.982512 17.716753
4699 2 19.757807 -10.277851 7.285438
4700 3 17.965521 -12.607062 9.101428
4701 3 17.373918 -14.447271 6.793409
4702 2 46.779266 19.915891 4.070246
4703 3 43.277213 20.325827 11.848799
4704 3 44.947012 19.406975 13.302119
4705 2 40.300429 -23.171014 11.919220
4706 3 39.790789 -24.589307 7.836524
4707 3 39.603518 -27.535285 7.505801
4708 2 41.097122 -16.287989 29.803813
4709 3 41.813403 -10.269403 32.304745
4710 3 43.368254 -12.879447 31.412944
4711 2 2.327362 19.682151 43.287810
4712 3 3.856311 17.213674 42.910364
4713 3 8.646401 22.231676 47.683972
4714 2 12.335709 -5.052002 33.076945
4715 3 13.762093 -7.949197 31.051316
4716 3 11.242840 -9.056683 32.287711
4717 2 -0.474921 4.794108 80.773237
4718 3 -0.752241 2.385413 78.272037
4719 3 1.134155 1.515530 84.740500
4720 2 19.304567 46.235499 41.697889
4721 3 22.372566 39.671329 41.664266
4722 3 25.457425 40.968281 39.979386
4723 2 11.137149 35.471171 42.139199
4724 3 9.644883 33.454666 36.398430
4725 3 10.572204 34.577292 40.675551
4726 2 22.471649 14.989607 25.711189
4727 3 24.224733 12.146226 30.479158
4728 3 22.821376 16.854353 26.316553
4729 2 -35.891327 44.275460 45.835598
4730 3 -34.612434 50.390817 41.609563
4731 3 -37.041841 45.606205 42.752804
4732 2 17.542309 0.152548 22.547287
4733 3 18.681178 2.984907 18.420737
4734 3 16.561379 4.459234 23.403796
4735 2 10.722049 -20.270017 3.811046
4736 3 9.017123 -23.887493 0.689229
4737 3 10.806597 -21.975197 -1.536031
4738 2 24.161853 11.911681 49.998888
4739 3 23.339546 10.395759 36.575330
4740 3 19.876270 7.225060 39.221905
4741 2 36.595939 0.389891 71.691654
4742 3 32.863930 -2.278182 73.405856
4743 3 35.097140 -6.132485 67.505895
4744 2 55.245018 9.033859 36.243647
4745 3 53.050516 4.338274 36.038038
4746 3 48.949887 14.036773 37.145014
4747 2 39.010638 1.582437 18.012272
4748 3 38.215336 2.432927 18.459409
4749 3 38.460584 -3.746999 22.071327
4750 2 -33.711597 12.038213 43.677713
4751 3 -32.946724 9.617497 44.490634
4752 3 -33.821974 16.507950 37.511394
4753 2 4.834957 31.234608 35.889598
4754 3 7.288268 34.790905 43.365254
4755 3 11.203093 32.496515 35.810074
4756 2 13.355812 17.072348 34.446109
4757 3 12.583075 14.190974 34.858187
4758 3 14.837864 15.799646 36.999057
4759 2 17.609433 47.583350 9.187729
4760 3 21.047430 43.762346 5.083450
4761 3 20.376920 42.410884 8.838282
4762 2 34.499081 -12.409444 10.237333
4763 3 30.778668 -14.675491 16.412738
4764 3 35.474828 -15.108760 7.956852
4765 2 28.381505 8.152696 58.712292
4766 3 29.513792 1.759479 51.648715
4767 3 28.907785 6.979668 54.902978
4768 2 43.704440 -2.571558 -15.187123
4769 3 41.078767 2.164715 -12.498442
4770 3 38.529046 -0.795283 -12.353006
4771 2 27.775330 26.937853 36.446774
4772 3 28.695715 27.499700 38.645203
4773 3 29.971394 29.139811 33.733022
4774 2 51.859502 6.799592 48.692903
4775 3 49.900965 5.345470 54.807267
4776 3 48.226085 5.358611 52.963564
4777 2 34.780768 -20.790045 -5.712399
4778 3 36.114579 -23.471112 -4.374192
4779 3 35.800102 -21.775192 -2.896779
4780 2 17.634255 13.636956 28.666192
4781 3 14.684260 14.968690 31.661989
4782 3 15.334239 9.382438 37.496693
4783 2 34.646361 -7.765716 11.064574
4784 3 33.593542 -9.017883 16.810403
4785 3 34.327332 -8.887912 15.648326
4786 2 21.114183 17.675909 36.365886
4787 3 19.987812 18.177616 35.676186
4788 3 17.412307 16.445882 39.530026
4789 2 8.316782 27.454129 32.857603
4790 3 6.024770 21.089749 26.088951
4791 3 8.082341 21.751682 29.023657
4792 2 -11.605790 30.514509 55.885548
4793 3 -8.381530 27.716726 53.753915
4794 3 -8.892182 29.700093 54.863865
4795 2 -0.666119 -15.192387 30.198830
4796 3 -3.641535 -14.551849 28.365577
4797 3 -3.148014 -13.458452 30.931332
4798 2 13.157903 31.536958 30.361919
4799 3 14.514489 28.118125 29.851984
4800 3 16.713343 34.520003 24.737563
4801 2 18.121771 -0.046693 8.164889
4802 3 16.292279 1.498122 12.315250
4803 3 15.475123 4.493919 6.288386
4804 2 26.959611 11.440107 33.991776
4805 3 25.504967 7.839723 33.446917
4806 3 23.432315 10.143570 28.924482
4807 2 49.928462 37.354365 61.876482
4808 3 53.219186 35.610555 57.550021
4809 3 49.944565 42.576252 65.876280
4810 2 70.913086 0.634798 35.592340
4811 3 67.534728 0.200316 34.277482
4812 3 71.582907 2.229913 36.093551
4813 2 45.426829 30.111373 45.316401
4814 3 44.705110 32.070164 42.183038
4815 3 45.742161 29.776905 37.614031
4816 2 -11.859435 22.117907 45.927467
4817 3 -8.705678 25.192057 38.605298
4818 3 -9.174994 21.600452 42.272322
4819 2 20.391997 50.684879 39.119589
4820 3 16.623063 45.407582 38.637834
4821 3 19.150274 48.720075 41.094507
4822 2 -8.966179 4.966325 53.083943
4823 3 -13.298003 10.167169 52.500903
4824 3 -9.771792 7.752841 55.337574
4825 2 19.611505 37.190830 58.631345
4826 3 17.141270 38.346454 55.928391
4827 3 17.661446 41.442334 59.553253
4828 2 74.556671 26.325900 40.542150
4829 3 77.096209 28.289973 40.480237
4830 3 78.156084 24.083068 42.268186
4831 2 34.428287 0.661550 74.779010
4832 3 35.079375 5.990578 70.204565
4833 3 37.748329 -0.837549 62.916619
4834 2 18.337449 -17.972616 25.473454
4835 3 17.678086 -20.531717 31.103625
4836 3 19.692686 -17.610898 29.781259
4837 2 68.278254 3.620989 58.224046
4838 3 68.855597 5.018825 52.182433
4839 3 68.156537 3.087195 61.387442
4840 2 18.738258 37.126141 31.863973
4841 3 21.019098 31.093206 31.567466
4842 3 19.243761 30.782490 38.678799
4843 2 5.705065 -2.281511 47.600220
4844 3 10.250256 -7.579209 47.261077
4845 3 6.048050 -1.129622 47.728199
4846 2 18.696718 49.005256 36.870151
4847 3 18.551791 48.057501 39.797191
4848 3 19.033727 47.331445 39.481242
4849 2 32.887075 19.842971 45.428731
4850 3 35.645432 19.661231 55.147249
4851 3 34.846462 15.542378 47.179573
4852 2 6.440754 28.279385 12.025604
4853 3 6.101619 28.776211 12.205492
4854 3 6.595988 23.051207 14.715748
4855 2 -4.297918 35.273184 41.545054
4856 3 -2.206716 34.849196 35.240125
4857 3 -7.212843 31.271981 40.349864
4858 2 53.061421 13.283952 45.565421
4859 3 55.918460 12.089040 39.701900
4860 3 56.375020 16.096013 46.533620
4861 2 41.217754 44.343957 23.945749
4862 3 40.370453 46.632291 28.104598
4863 3 36.013794 42.903098 25.533811
4864 2 -15.620664 4.543974 36.410062
4865 3 -12.284199 5.585095 34.777887
4866 3 -10.910678 11.593426 38.305355
4867 2 -11.677002 31.616118 68.859393
4868 3 -15.200879 31.375827 68.607573
4869 3 -12.921584 27.189084 71.126270
4870 2 6.287471 10.993210 13.363177
4871 3 4.344622 10.249929 17.948444
4872 3 6.388014 8.626985 16.606763
4873 2 -3.560513 54.135263 24.007367
4874 3 -0.176288 54.328415 19.978630
4875 3 2.297879 51.286744 24.126632
4876 2 52.813224 17.212766 68.053302
4877 3 50.872586 17.674018 68.836462
4878 3 54.552266 12.250525 69.476594
4879 2 3.972580 37.824353 41.023627
4880 3 1.215729 35.362403 38.193177
4881 3 4.601373 33.949136 37.693475
4882 2 42.372588 21.107715 41.527682
4883 3 46.179090 19.764637 43.777588
4884 3 43.507734 21.925948 46.607296
4885 2 22.265316 30.442826 38.658931
4886 3 19.953857 29.112245 34.190861
4887 3 23.085943 27.779849 32.794634
4888 2 7.099911 5.176081 48.572552
4889 3 8.168321 5.524087 42.620872
4890 3 4.909775 5.858885 42.619205
4891 2 22.796781 47.561604 55.133382
4892 3 21.164407 43.294301 56.493362
4893 3 24.681662 48.253811 57.162207
4894 2 1.410602 23.681638 13.087166
4895 3 0.131524 28.612032 12.619988
4896 3 -0.802525 22.063467 14.189836
4897 2 6.788527 18.854322 13.765903
4898 3 4.412595 24.257380 9.003925
4899 3 6.805382 22.775305 9.892593
4900 2 -18.685813 24.408254 34.363621
4901 3 -13.069356 24.319355 32.389853
4902 3 -16.865937 25.236204 33.903314
4903 2 -14.780707 24.990158 24.248295
4904 3 -13.659847 23.087118 24.293990
4905 3 -14.337815 24.530766 22.026581
4906 2 24.830614 45.461113 34.699072
4907 3 18.831609 44.008549 30.408927
4908 3 22.997234 47.473590 34.214168
4909 2 57.993032 21.403978 32.499184
4910 3 59.410782 20.791757 32.104599
4911 3 62.685967 16.220626 30.896771
4912 2 8.027710 55.966600 42.773595
4913 3 7.871937 57.017106 40.493841
4914 3 5.267363 58.405652 38.145521
4915 2 28.751695 -7.149606 12.707577
4916 3 30.274922 -9.356886 15.365055
4917 3 27.974311 -11.541922 20.172898
4918 2 15.371914 -3.816249 23.947788
4919 3 13.897985 2.535958 19.376644
4920 3 16.531556 -2.096388 19.600930
4921 2 51.704224 7.827385 54.216092
4922 3 48.550803 7.771779 53.005866
4923 3 47.188990 4.619835 55.344290
4924 2 15.237194 5.545796 29.533931
4925 3 14.912365 8.658269 26.546092
4926 3 12.734089 3.664014 31.352153
4927 2 48.857085 53.201956 54.439074
4928 3 51.285207 50.635878 52.550192
4929 3 47.932728 53.016030 53.148408
4930 2 35.909634 20.535048 40.073723
4931 3 33.116636 22.396254 39.105495
4932 3 35.178846 21.198869 40.734633
4933 2 39.895342 25.596769 17.874892
4934 3 37.540665 23.809453 15.426926
4935 3 38.030705 25.105901 16.654816
4936 2 23.340777 21.870509 19.717555
4937 3 21.310112 23.779947 18.567360
4938 3 18.500612 21.753777 14.251223
4939 2 -0.510304 21.989888 22.561310
4940 3 -0.448203 20.613440 20.914656
4941 3 -3.226995 20.096376 22.754530
4942 2 18.107349 52.210313 8.953850
4943 3 16.919043 50.623515 12.330599
4944 3 18.955720 57.488918 15.709012
4945 2 3.458729 18.201822 72.346847
4946 3 5.676146 12.784195 68.460149
4947 3 9.293703 14.355266 66.895129
4948 2 38.064658 7.460442 -4.518833
4949 3 35.199329 13.935587 -7.786956
4950 3 36.408825 5.021042 -6.415864
4951 2 35.732982 26.511378 23.834391
4952 3 35.260531 25.978310 20.075538
4953 3 39.424960 29.650410 19.050514
4954 2 29.101199 58.266054 46.897606
4955 3 30.741522 52.214305 47.751625
4956 3 30.064357 52.248830 50.374330
4957 2 -7.433272 35.626405 50.457882
4958 3 -12.771137 34.599988 48.888724
4959 3 -11.890636 34.694678 53.002543
4960 2 26.722275 37.043748 48.654304
4961 3 27.560776 41.073879 51.829334
4962 3 29.497192 39.987352 49.237845
4963 2 16.827141 41.744694 24.433774
4964 3 14.151426 43.530165 28.035146
4965 3 11.028607 39.563943 22.484144
4966 2 27.590270 27.255750 12.214942
4967 3 26.981261 20.671991 14.863829
4968 3 24.449506 24.113679 16.008737
4969 2 -0.869575 24.057515 38.197072
4970 3 1.071477 22.174914 38.766912
4971 3 1.511655 19.726631 38.737246
4972 2 -0.526511 21.561123 36.105374
4973 3 4.335692 19.204745 35.130385
4974 3 3.754977 19.265388 32.093935
4975 2 28.597417 -4.895143 24.509187
4976 3 28.215898 -4.080338 20.234052
4977 3 29.132265 -3.901032 15.615667
4978 2 47.195849 14.444460 46.850655
4979 3 49.253585 12.943415 46.108543
4980 3 47.912207 13.150187 48.383569
4981 2 14.990386 43.033852 26.763530
4982 3 13.059676 44.631521 23.961884
4983 3 13.436497 45.571004 29.887666
4984 2 40.345047 -4.830825 39.655759
4985 3 38.632686 -9.534979 39.945511
4986 3 38.508538 -6.573631 34.766548
4987 2 12.338775 9.433356 35.945548
4988 3 13.516425 9.143342 30.795403
4989 3 14.038273 13.581379 37.911714
4990 2 -12.442599 20.857651 33.383177
4991 3 -8.731502 26.535283 31.245630
4992 3 -8.759798 23.209038 37.282319
4993 2 36.495316 52.540338 9.955841
4994 3 38.419605 51.678479 12.379359
4995 3 34.328018 49.072246 11.269479
4996 2 37.488532 44.316375 -1.198688
4997 3 32.881159 42.905090 7.863404
4998 3 33.990658 42.150654 1.303057
4999 2 -1.761044 42.586948 39.721846
5000 3 3.066665 40.873621 40.344928
5001 3 3.029289 40.812380 39.189694
5002 2 25.055302 24.713827 34.470226
5003 3 22.686059 26.172250 31.808872
5004 3 21.276107 23.974118 34.429342
5005 2 22.539388 34.804181 39.616390
5006 3 23.254448 32.124028 35.579220
5007 3 21.811939 35.877997 36.102734
5008 2 16.959658 28.834621 30.028898
5009 3 13.416025 34.241302 37.407025
5010 3 17.010171 32.475886 35.507763
5011 2 10.579757 25.958158 50.261526
5012 3 7.134242 25.340072 50.612726
5013 3 13.953580 25.967400 52.305280
5014 2 1.847568 28.271654 28.122062
5015 3 -0.955923 29.024574 31.649357
5016 3 -3.123989 31.633721 31.109956
5017 2 26.673782 28.182044 25.590705
5018 3 25.373562 29.975438 25.341856
5019 3 23.194480 22.293198 22.575551
5020 2 54.935355 16.556481 25.957993
5021 3 52.081555 21.513896 23.989819
5022 3 48.992292 20.330754 27.443781
5023 2 14.646515 38.597912 45.929847
5024 3 17.462389 35.427960 41.833789
5025 3 15.363800 32.708492 42.078304
5026 2 10.285953 57.978340 55.071525
5027 3 11.218808 60.346369 53.854261
5028 3 12.864830 63.858604 53.272927
5029 2 -6.684651 19.641898 9.397967
5030 3 -8.607419 20.184052 4.983395
5031 3 -5.314426 16.266620 4.242644
5032 2 -14.206001 31.053672 17.014556
5033 3 -14.158901 32.011756 19.538759
5034 3 -16.607876 27.610988 20.946511
5035 2 34.279696 20.207406 1.648251
5036 3 35.079201 22.602522 0.695942
5037 3 36.097389 16.753441 0.303375
5038 2 -8.528563 50.573002 25.089675
5039 3 -0.288357 45.986381 25.886933
5040 3 -4.013034 45.182880 35.069650
5041 2 -3.853940 48.526526 61.128822
5042 3 -1.890663 57.517931 60.718811
5043 3 0.627893 51.147754 59.662335
5044 2 36.711106 11.595569 78.813337
5045 3 37.177019 11.029510 76.559722
5046 3 36.495792 8.334100 78.521504
5047 2 -11.010302 6.971539 35.887481
5048 3 -13.144934 11.539736 38.760085
5049 3 -13.885967 6.386962 41.354378
5050 2 -2.498897 16.402084 8.602708
5051 3 -3.999679 15.337741 9.905194
5052 3 -0.031683 15.818257 10.756928
5053 2 -10.237313 51.012436 27.153284
5054 3 -9.796024 47.456179 20.446493
5055 3 -8.224141 52.810837 20.557348
5056 2 39.009492 -0.506755 39.529817
5057 3 38.418121 -5.632925 38.466104
5058 3 37.541895 -0.835580 33.058345
5059 2 41.623756 9.840454 25.197949
5060 3 40.415573 8.939821 24.104633
5061 3 41.703300 12.378399 28.118460
5062 2 39.906359 25.598450 46.015632
5063 3 39.128919 27.799722 44.392051
5064 3 37.049279 28.438653 46.864457
5065 2 29.858645 56.411212 31.606582
5066 3 23.991342 57.098495 33.456894
5067 3 24.387101 59.022312 25.011991
5068 2 -5.045304 1.158253 41.482228
5069 3 -0.551759 0.336719 36.882132
5070 3 -5.447867 1.152956 39.631938
5071 2 21.045510 -19.544571 42.617957
5072 3 19.564814 -18.273832 44.398943
5073 3 23.078971 -21.267589 45.886465
5074 2 -19.083622 -13.274313 12.220624
5075 3 -16.593021 -13.406670 14.173394
5076 3 -17.379217 -10.670564 8.732619
5077 2 20.171538 -26.757005 49.482242
5078 3 15.599972 -27.971762 48.879348
5079 3 21.857129 -28.756847 52.759411
5080 2 28.458764 -2.815799 4.291799
5081 3 26.963428 -1.391548 11.550339
5082 3 27.376863 1.588944 3.609850
5083 2 24.731291 10.554453 85.811563
5084 3 29.606672 11.676860 86.207685
5085 3 27.118775 12.919341 87.008051
5086 2 18.387645 -8.963194 22.813828
5087 3 21.258178 -13.277027 22.316955
5088 3 21.358708 -8.334354 25.935560
5089 2 3.716678 -7.411256 37.875547
5090 3 1.838650 1.445921 35.391529
5091 3 2.057864 -2.829841 38.994471
5092 2 13.708769 9.832941 49.857301
5093 3 15.243599 13.846920 51.754588
5094 3 14.962320 11.408191 55.439390
5095 2 52.589634 25.512397 7.246459
5096 3 49.320898 29.325041 10.639246
5097 3 50.603236 22.163067 10.911949
5098 2 7.660699 -1.250281 48.907109
5099 3 9.161658 -2.714623 47.692598
5100 3 7.540660 -0.263466 48.265711
5101 2 36.304942 26.494472 24.542432
5102 3 37.148326 25.172310 19.606988
5103 3 37.121599 24.392962 22.830526
5104 2 17.139665 -9.694885 30.862696
5105 3 14.821285 -10.637368 33.930954
5106 3 15.088577 -8.819333 34.155357
5107 2 -41.125692 30.868673 79.300139
5108 3 -42.970450 33.212426 83.185177
5109 3 -47.016297 35.801558 89.326852
5110 2 20.756360 11.660528 32.273032
5111 3 18.734515 12.707781 25.423153
5112 3 16.058756 10.341803 25.774949
5113 2 45.334400 -0.305924 22.128716
5114 3 42.373835 2.489072 24.780882
5115 3 42.083858 1.519757 19.836940
5116 2 43.704257 12.208915 1.515668
5117 3 44.017686 10.440842 5.032881
5118 3 44.757285 7.425542 5.624225
5119 2 45.264612 20.272479 13.818645
5120 3 44.198080 22.170287 16.935131
5121 3 47.864167 21.430368 18.623974
5122 2 1.785196 13.717611 4.434358
5123 3 2.266770 17.021988 3.811160
5124 3 2.118614 12.783292 4.721584
5125 2 16.381631 26.684245 24.456981
5126 3 14.648389 26.173760 25.946630
5127 3 14.301904 25.347278 23.882421
5128 2 -15.426750 35.524673 55.139342
5129 3 -21.730884 38.975136 53.882263
5130 3 -17.446614 33.969067 53.510415
5131 2 71.986968 19.692767 33.008784
5132 3 70.468340 15.638259 34.382383
5133 3 67.496751 16.640374 32.944084
5134 2 -6.318271 0.806984 13.375227
5135 3 -6.197873 -4.339043 17.276228
5136 3 1.063130 -3.311609 20.140311
5137 2 50.055439 -26.012021 54.884206
5138 3 52.808297 -25.469996 54.590129
5139 3 52.439563 -23.840549 55.095176
5140 2 28.569550 -1.787080 46.492888
5141 3 28.908924 -4.361739 45.833347
5142 3 31.519311 -2.222129 45.050538
5143 2 -0.849736 -31.088861 50.482699
5144 3 -0.686126 -37.709814 51.670416
5145 3 0.832800 -31.345665 51.937147
5146 2 11.600100 0.341663 15.278123
5147 3 12.078826 6.238435 18.011105
5148 3 11.199481 3.191656 12.295542
5149 2 17.116482 42.082136 38.160850
5150 3 16.428351 40.918040 36.711528
5151 3 18.501829 39.322674 37.976765
5152 2 -9.833776 13.951148 47.274549
5153 3 -7.298444 13.771271 41.662626
5154 3 -8.630045 14.443009 44.959227
5155 2 43.921079 27.407133 20.594931
5156 3 44.980163 29.336432 18.178809
5157 3 47.214786 25.436531 23.682932
5158 2 2.012985 2.314639 45.218333
5159 3 0.964435 2.317007 47.397516
5160 3 4.291727 3.028041 47.229017
5161 2 -18.319153 30.414245 52.302464
5162 3 -18.001331 29.512802 60.565325
5163 3 -24.717589 28.147497 53.814799
5164 2 -1.305262 5.942061 38.851500
5165 3 0.050131 3.171273 40.964224
5166 3 -2.049315 0.120146 38.457882
5167 2 38.173885 33.903733 35.242930
5168 3 40.916533 35.521051 34.245525
5169 3 37.083972 34.626832 27.046291
5170 2 7.890502 5.388940 40.054268
5171 3 3.954136 10.176757 40.158854
5172 3 8.081771 13.236925 36.191502
5173 2 38.844791 3.133013 36.617494
5174 3 38.588938 4.192947 33.765121
5175 3 37.560095 0.956505 37.093486
5176 2 28.621357 51.095003 29.088832
5177 3 27.814288 50.141590 27.229214
5178 3 28.259770 45.077199 29.886887
5179 2 45.856471 -6.833558 34.767632
5180 3 46.499932 -8.439592 32.296198
5181 3 46.557734 -8.763295 34.619321
5182 2 61.315067 -31.236738 48.471547
5183 3 57.227179 -24.614170 45.698301
5184 3 63.147441 -32.369735 53.414597
5185 2 -23.847099 19.303623 52.994996
5186 3 -23.017122 27.958165 52.851490
5187 3 -26.797939 20.456805 52.213605
5188 2 5.492309 63.391498 60.965409
5189 3 5.775636 67.763923 55.578652
5190 3 3.871320 67.544967 60.781118
5191 2 9.566926 32.138301 21.095345
5192 3 11.436930 31.549754 23.451448
5193 3 13.749106 27.364755 22.162430
5194 2 27.715095 66.559547 46.380607
5195 3 28.318523 67.898371 41.457390
5196 3 28.767098 65.761709 45.485629
5197 2 3.698931 8.071407 36.714931
5198 3 2.850001 7.583107 39.061933
5199 3 2.516776 11.726365 39.237628
5200 2 25.466978 36.234148 33.208832
5201 3 25.916658 34.851661 34.922581
5202 3 28.658781 32.861231 36.262984
5203 2 37.452239 2.443628 20.444380
5204 3 37.305295 -0.961265 23.221220
5205 3 35.051965 -2.091201 23.218453
5206 2 35.990448 10.726125 25.839120
5207 3 36.461676 12.286786 20.519358
5208 3 34.734599 11.011445 19.442626
5209 2 1.080633 6.415215 3.148260
5210 3 -0.572076 15.035360 1.523440
5211 3 -0.164907 6.905176 5.215466
5212 2 -0.341509 6.195398 29.271255
5213 3 -0.095674 4.375794 26.858659
5214 3 2.333216 9.231497 30.070974
5215 2 19.682293 4.616970 65.307672
5216 3 19.228541 6.212311 65.076919
5217 3 17.785411 5.726729 61.811984
5218 2 32.971309 -22.043593 44.961672
5219 3 30.771267 -24.164150 38.978609
5220 3 32.862477 -24.935592 42.448173
5221 2 30.230022 -1.339410 52.097108
5222 3 33.186571 -2.784864 57.670997
5223 3 30.989187 -2.783644 62.141268
5224 2 9.644989 -1.634533 34.206194
5225 3 7.379216 -4.582879 37.923151
5226 3 8.001826 -3.824193 37.586334
5227 2 27.275694 43.403021 50.821286
5228 3 28.165720 37.305660 46.833057
5229 3 25.950522 47.758305 51.076003
5230 2 20.160781 17.905828 54.191537
5231 3 18.457549 19.908049 49.082048
5232 3 20.810917 16.322524 46.051128
5233 2 9.894313 11.832043 28.048162
5234 3 9.475445 15.192738 29.760213
5235 3 8.820583 13.247117 32.076732
5236 2 1.385545 25.328432 21.411619
5237 3 -0.281438 21.375655 19.244822
5238 3 0.447798 23.107546 15.070718
5239 2 14.807253 27.250419 46.747079
5240 3 14.774064 25.390690 50.142443
5241 3 14.749119 31.671218 43.869715
5242 2 4.086142 42.057121 38.800380
5243 3 3.131747 42.579565 41.130732
5244 3 5.671829 41.512560 42.462121
5245 2 43.145760 6.731822 35.837920
5246 3 44.987355 7.092684 42.408110
5247 3 48.287735 7.949756 33.187809
5248 2 43.823008 25.039483 12.702676
5249 3 43.412814 22.254649 6.710857
5250 3 39.546926 24.567489 11.616405
5251 2 0.017921 11.579663 18.240208
5252 3 -3.089083 13.931819 13.274760
5253 3 0.818284 11.121951 13.465646
5254 2 34.365463 8.548257 41.177025
5255 3 36.155043 8.473002 46.624126
5256 3 33.314278 13.055542 44.351888
5257 2 61.056165 57.270121 12.226626
5258 3 63.010056 57.536275 15.659948
5259 3 62.274868 58.761767 12.898539
5260 2 33.078878 29.359031 56.977851
5261 3 31.379560 30.095449 58.578640
5262 3 31.561579 26.904892 55.970795
5263 2 8.570041 13.887895 48.819380
5264 3 8.870277 11.020161 42.851800
5265 3 11.783008 10.010386 47.642790
5266 2 19.139846 18.750255 42.716261
5267 3 19.202929 11.671622 43.538361
5268 3 17.992918 16.843324 42.412414
5269 2 5.472128 11.579989 70.787077
5270 3 5.769074 13.133395 75.574856
5271 3 6.669484 8.657682 75.705287
5272 2 34.537886 11.623395 33.781544
5273 3 28.572461 12.016369 37.386220
5274 3 32.606308 14.803113 33.336858
5275 2 23.657347 35.970954 47.023310
5276 3 24.895286 38.271547 45.757727
5277 3 22.198522 36.879982 47.414439
5278 2 10.037829 10.416040 56.811151
5279 3 8.154293 12.417575 55.246980
5280 3 9.756360 12.647000 55.617800
5281 2 38.142960 3.703047 20.590540
5282 3 34.725200 5.606104 18.780996
5283 3 35.697135 1.906678 16.570282
5284 2 25.771976 30.834152 29.284064
5285 3 26.307091 32.990712 30.037728
5286 3 27.291494 31.466310 28.513808
5287 2 53.949499 18.553935 19.124774
5288 3 52.108097 18.850465 17.709951
5289 3 53.656075 20.734525 22.702537
5290 2 -2.674720 -4.697282 43.829349
5291 3 1.484670 -7.312178 46.706573
5292 3 -0.066573 -5.103069 42.932693
5293 2 23.500573 26.306982 50.805397
5294 3 20.032089 27.967797 47.748638
5295 3 20.742342 25.957091 52.113467
5296 2 23.847249 -0.583938 41.428933
5297 3 21.098246 -2.988684 41.320439
5298 3 22.340159 -4.501470 42.036490
5299 2 38.943746 19.978541 58.836339
5300 3 39.782404 27.048114 49.423098
5301 3 43.696899 20.145658 51.870749
5302 2 -5.165696 32.625532 12.563579
5303 3 -4.163595 26.685666 17.547404
5304 3 -4.881634 25.540976 19.778501
5305 2 29.441310 -7.559325 22.743367
5306 3 29.645025 -9.356741 30.657526
5307 3 30.071818 -2.466920 25.211829
5308 2 -4.047055 -0.136689 65.117185
5309 3 -1.169764 6.699358 67.097664
5310 3 -3.898924 7.444504 63.452189
5311 2 37.115968 70.702976 14.641793
5312 3 37.171183 68.151823 14.351207
5313 3 37.272722 72.490783 19.897873
5314 2 28.024710 41.257657 53.424633
5315 3 29.325813 42.754260 47.441256
5316 3 29.011640 42.266130 42.940032
5317 2 0.355175 -4.007057 0.348535
5318 3 2.277785 -1.456998 -3.336721
5319 3 0.569295 -0.921420 -2.278967
5320 2 20.609041 54.238075 22.200529
5321 3 20.672473 53.979674 23.097865
5322 3 15.462515 50.784123 24.724534
5323 2 0.420641 4.567526 31.500728
5324 3 0.432885 9.912370 38.710618
5325 3 -0.428140 9.089688 35.750876
5326 2 12.620642 31.390264 33.597224
5327 3 14.459931 31.505843 34.306460
5328 3 11.808344 32.537484 31.268449
5329 2 25.653284 15.434861 24.096701
5330 3 26.572721 19.664161 30.332840
5331 3 22.221876 13.634344 26.997993
5332 2 5.807991 33.435971 59.408324
5333 3 3.201475 31.027327 67.471902
5334 3 5.172666 34.306798 63.148285
5335 2 34.801160 25.059727 32.995430
5336 3 35.925829 27.074621 27.665889
5337 3 32.441617 24.260372 31.273171
5338 2 23.871392 5.882818 25.561549
5339 3 16.949222 2.763637 29.691638
5340 3 21.374599 6.342365 26.588162
5341 2 44.234425 24.987929 41.121559
5342 3 39.241466 23.589962 40.652207
5343 3 43.344070 26.326251 39.022320
5344 2 19.472327 16.997889 34.018177
5345 3 22.853864 11.623876 30.681271
5346 3 23.285299 18.805648 29.438751
5347 2 -10.915090 32.824555 45.806901
5348 3 -7.320241 32.197060 47.740125
5349 3 -7.074033 33.571257 52.498845
5350 2 -3.028625 22.670508 31.813067
5351 3 -5.218461 20.071784 38.197700
5352 3 -1.746360 21.848845 31.422200
5353 2 -4.163470 9.451915 47.912727
5354 3 0.144492 7.682413 49.936962
5355 3 2.107392 8.195829 46.715204
5356 2 8.767196 13.888010 27.266086
5357 3 10.272460 16.379640 25.227015
5358 3 11.324190 16.836271 29.287483
5359 2 40.764156 33.705510 48.286096
5360 3 45.813524 31.968519 54.534449
5361 3 40.528368 30.385920 52.488653
5362 2 17.631028 46.976338 53.222711
5363 3 24.495209 39.729807 50.893797
5364 3 20.789669 37.351207 48.467236
5365 2 14.245657 50.820665 73.485688
5366 3 12.868869 51.944189 68.627109
5367 3 10.992109 50.961907 68.486539
5368 2 9.976056 22.945012 47.372578
5369 3 11.058712 25.766202 49.802357
5370 3 11.840071 25.676665 49.782922
5371 2 -1.328666 26.488195 26.771981
5372 3 -3.085703 25.008386 19.160270
5373 3 -0.526440 27.152276 22.449507
5374 2 12.134844 60.477096 47.431562
5375 3 11.809669 61.254570 45.896904
5376 3 8.508724 54.131922 47.897219
5377 2 17.774392 -7.305815 36.182630
5378 3 18.003963 -1.612023 35.873175
5379 3 20.008855 -3.157807 41.427147
5380 2 10.465407 15.600828 50.781414
5381 3 7.612596 16.416686 44.143755
5382 3 11.287045 16.691584 50.095926
5383 2 46.931016 39.129374 12.061061
5384 3 47.896452 38.158630 20.124452
5385 3 46.341036 34.690800 15.226988
5386 2 -8.101590 50.398027 53.773543
5387 3 -2.633443 51.728315 52.555075
5388 3 -4.203875 52.930506 55.322462
5389 2 45.456739 -2.884629 30.444448
5390 3 45.349384 0.055248 32.351666
5391 3 42.633758 1.232769 32.088078
5392 2 -12.562159 54.217739 14.100979
5393 3 -15.198809 48.464755 10.366687
5394 3 -15.719296 56.517786 15.003143
5395 2 23.432624 47.224397 84.828875
5396 3 27.944573 50.204752 75.243016
5397 3 21.793259 47.061153 78.591930
5398 2 7.664400 1.423423 42.794464
5399 3 8.703006 6.989949 40.241209
5400 3 8.672086 2.817770 40.450108
5401 2 66.475041 29.032619 31.194250
5402 3 64.342966 28.330209 34.985050
5403 3 65.036458 26.166094 35.529378
5404 2 -8.659101 11.646146 18.180070
5405 3 -8.803167 14.751650 18.046257
5406 3 -10.383005 16.482931 11.559787
5407 2 3.510591 38.341325 45.471659
5408 3 4.191196 38.678571 39.678727
5409 3 4.655962 42.367271 44.562425
5410 2 14.876706 34.448222 28.500664
5411 3 11.290387 39.016646 32.462487
5412 3 11.100908 39.041387 28.661849
5413 2 16.553241 47.727739 31.008389
5414 3 16.673529 47.854431 36.931333
5415 3 18.006728 46.985726 31.820545
5416 2 6.741233 -15.136466 61.237332
5417 3 13.366893 -13.561058 58.507478
5418 3 13.471161 -14.861815 60.243167
5419 2 27.098329 33.508413 29.850308
5420 3 30.192678 38.994887 29.533006
5421 3 29.270703 39.736882 26.973373
5422 2 15.574220 36.216737 25.346747
5423 3 13.419525 37.675529 26.744271
5424 3 12.033591 34.238167 23.154315
5425 2 9.732741 19.191830 25.972127
5426 3 8.542865 20.510254 23.083720
5427 3 9.217137 16.413001 26.616634
5428 2 15.989054 26.763309 36.336242
5429 3 15.286973 27.738795 39.259379
5430 3 12.321717 23.606740 36.896234
5431 2 -11.441432 18.349876 45.999906
5432 3 -12.680326 19.471221 44.751620
5433 3 -11.829744 17.318251 50.751015
5434 2 -16.213817 -4.925109 21.441843
5435 3 -17.870416 -6.916505 19.606437
5436 3 -18.262263 -10.491555 26.706520
5437 2 19.916622 49.699345 7.187287
5438 3 18.921680 50.615599 6.825007
5439 3 19.913114 48.534130 12.217817
5440 2 -8.702902 35.482615 21.410087
5441 3 -10.733655 33.028699 29.167580
5442 3 -9.303145 30.127982 24.219289
5443 2 -3.343128 22.887963 52.274090
5444 3 -0.869105 19.849910 55.415170
5445 3 -1.309647 24.759457 50.003469
5446 2 64.912612 63.887823 46.794426
5447 3 63.330888 62.830369 44.707550
5448 3 65.769381 61.421867 47.535401
5449 2 -14.872886 30.772927 21.946001
5450 3 -12.399812 32.165352 22.365992
5451 3 -13.356113 33.129058 20.892879
5452 2 31.294718 18.414193 16.978468
5453 3 33.306713 16.887739 16.542289
5454 3 31.405405 24.240749 19.593780
5455 2 -5.281548 31.267942 33.863260
5456 3 -2.013744 30.691516 32.739130
5457 3 -5.432162 31.695547 32.793210
5458 2 0.232749 21.067200 65.513865
5459 3 0.727523 25.402018 67.685780
5460 3 -0.719926 31.314397 61.928059
5461 2 36.699217 27.698082 55.996863
5462 3 38.400080 29.816764 54.176476
5463 3 35.997494 31.108772 53.518172
5464 2 12.144303 33.907243 27.367122
5465 3 10.306676 30.992667 33.436464
5466 3 13.040185 29.781036 23.303132
5467 2 14.350872 38.403136 48.553309
5468 3 13.987102 39.705755 42.972350
5469 3 15.430351 42.572747 45.321291
5470 2 -16.920164 34.121603 48.379378
5471 3 -16.376151 37.589958 52.213819
5472 3 -17.295255 36.051596 48.542927
5473 2 -3.796121 14.897402 61.229218
5474 3 -4.463415 22.079110 55.217774
5475 3 -6.529353 12.726367 59.004623
5476 2 24.925073 24.849651 37.946874
5477 3 21.428189 22.015165 36.858269
5478 3 24.507333 22.105821 37.409691
5479 2 47.932288 55.451855 80.005539
5480 3 46.348077 54.060013 70.795371
5481 3 46.494527 54.959704 82.119705
5482 2 26.479277 25.069647 24.279921
5483 3 28.247804 22.288903 28.786413
5484 3 28.992137 25.283272 22.926100
5485 2 18.158305 46.117999 26.677077
5486 3 19.710726 51.353189 34.448638
5487 3 21.385332 47.101891 25.999770
5488 2 38.588978 37.637690 43.693536
5489 3 36.782808 38.138796 48.610373
5490 3 41.319819 38.446945 42.856153
5491 2 38.442108 30.290043 27.913547
5492 3 40.134240 34.912614 23.626075
5493 3 40.055525 36.934229 27.862371
5494 2 17.998307 32.959455 23.603726
5495 3 16.123711 27.100495 31.916091
5496 3 19.694392 29.163437 26.839191
5497 2 35.942413 55.957329 -16.078275
5498 3 38.128928 56.153392 -17.956741
5499 3 37.392834 55.888667 -12.943763
5500 2 -0.252172 21.377972 62.029063
5501 3 -0.832555 26.916786 58.920986
5502 3 -3.262916 30.184164 57.282602
5503 2 2.495814 60.507299 41.550010
5504 3 -1.983007 59.017389 48.503067
5505 3 -1.565395 57.571397 46.288787
5506 2 26.075627 15.338153 29.445931
5507 3 25.654240 12.279646 34.719557
5508 3 25.546604 16.923361 30.356056
5509 2 37.662543 9.302957 57.428426
5510 3 35.616904 13.805565 55.921133
5511 3 35.879884 10.188866 52.309681
5512 2 23.494985 45.206253 59.636724
5513 3 26.803968 41.999578 53.217761
5514 3 27.600246 44.200784 48.254753
5515 2 -9.743414 41.085215 70.164253
5516 3 -11.851532 38.926927 66.199130
5517 3 -11.885266 40.381162 68.517326
5518 2 -8.298071 44.573582 42.601309
5519 3 -5.533744 46.765454 45.237675
5520 3 -5.040446 46.612655 40.820462
5521 2 9.497418 90.126981 28.898080
5522 3 9.275720 81.992108 28.326414
5523 3 14.924730 84.993536 27.574376
5524 2 23.892809 30.032937 61.620233
5525 3 23.419542 29.513185 60.956243
5526 3 24.449431 26.910269 58.064233
5527 2 25.334088 71.594533 18.999341
5528 3 26.823049 71.076777 18.496738
5529 3 21.719892 71.642772 21.704625
5530 2 33.681816 40.409064 52.237606
5531 3 34.873275 44.854015 48.317009
5532 3 33.693651 38.351153 47.999144
5533 2 30.376648 50.356451 49.575583
5534 3 30.562009 54.230028 52.794377
5535 3 28.490624 51.441494 49.604298
5536 2 55.002216 17.285748 3.456679
5537 3 52.393485 17.341035 3.723758
5538 3 52.410408 21.147500 2.448053
5539 2 75.847575 37.330869 61.774969
5540 3 78.455954 33.774290 67.564640
5541 3 76.485357 32.972913 64.038202
